29
Properties=species:S:1:pos:R:3:forces:R:3:charge:R:1 energy=-168.77674405201864 homo_lumo=2.682120296441011 dipole="1.1383599617830245 -2.052955203515925 1.2312108779126698" free_energy=-168.77674405201864
N       1.1893008444      0.1979247690      0.4531794699      0.0030357173      0.0049193464      0.0015790551     -0.5039957709
C      -1.1340312927      0.0009668257     -0.3857654583     -0.0089739145      0.0024454748     -0.0045425650     -0.2207283933
C      -0.2489670936      0.3076586474      0.8181602031     -0.0032927825      0.0050237697     -0.0081515480     -0.0173870977
C      -2.5593515801      0.5038640529     -0.1591791684      0.0068047269     -0.0066158270     -0.0113635550     -0.2150309199
C      -3.4187251877      0.3025491061     -1.4036059272     -0.0123224350      0.0030372393      0.0073804346     -0.0679154697
C       1.9222532096      1.3201066155      0.3042206741      0.0056826546     -0.0024794817     -0.0030944649      0.3112671338
C       1.7025067789     -1.0210250006      0.1604135495     -0.0052886886      0.0063902676      0.0013348832      0.2749794958
C       3.2446285600      1.2347188454     -0.1103483421      0.0015354240     -0.0087641313      0.0041511593     -0.0119984995
C       3.0028990014     -1.1487163666     -0.2736502385      0.0048741222     -0.0003415180      0.0032669992     -0.0293150783
C       3.7923995490     -0.0020999501     -0.4067190151      0.0094186065     -0.0013037511      0.0001919112      0.0342389626
H      -1.1377030205     -1.0850364397     -0.5953836282      0.0043189043      0.0056453820     -0.0057892648      0.0747039667
H      -0.7080915902      0.5192617097     -1.2598936357     -0.0001049059      0.0067481508     -0.0107000904      0.1932288081
H      -0.4237830465     -0.3717456660      1.6676057587      0.0047667093      0.0019827857      0.0009081092      0.0995979850
H      -0.4073159128      1.3462098032      1.1356117446      0.0081219914      0.0056896533     -0.0106490569      0.1579224740
H      -3.0121126447     -0.0022141647      0.7139007711      0.0056527840     -0.0045740340      0.0019082702      0.0656074918
H      -2.5048384577      1.5821413973      0.0668649695     -0.0058833933      0.0055333410      0.0028117055      0.1279690765
H      -4.4429682134      0.6679771531     -1.2366498743     -0.0016000821     -0.0103459395     -0.0019324873      0.0326267534
H      -2.9859845580      0.8678861613     -2.2426608867     -0.0088140817     -0.0029239749     -0.0067983046      0.0797324218
H      -3.4768657397     -0.7609882032     -1.6853861100     -0.0051240042     -0.0146402791      0.0027764685      0.0151163554
H       1.4038967428      2.2602738454      0.4997729764     -0.0038909588      0.0002747393     -0.0117684452      0.1491429425
H       1.0276732085     -1.8657696912      0.2817548467     -0.0035897750      0.0033625509      0.0055656606      0.0995327188
H       3.8108271255      2.1581374613     -0.2286692021      0.0016735235     -0.0043677637     -0.0033999493      0.0667209145
H       3.3915516829     -2.1381973352     -0.5121298395      0.0035841094     -0.0036726051      0.0177144679      0.0548861868
H       4.8238410837     -0.0828139335     -0.7536075387     -0.0029865596     -0.0049833456      0.0043140144      0.0598394972
B      -0.0253813409      3.1554390329     -1.6426623710      0.0128820142      0.0037487546      0.0160153221      1.4126649161
F       0.4893296700      4.3662344941     -2.1050215334      0.0019881230     -0.0136357428      0.0126055251     -0.5304937955
F       0.9245191000      2.0847625004     -1.8940893632     -0.0156465217      0.0080983615     -0.0085401944     -0.5721271175
F      -1.2547706470      2.8171107844     -2.2371776734     -0.0016189595     -0.0023400241      0.0189937061     -0.5535746401
F      -0.2016419738      3.2189354224     -0.1966752400      0.0047976516      0.0180886009     -0.0147877662     -0.5872113185
