29
Properties=species:S:1:pos:R:3:forces:R:3:charge:R:1 energy=-167.69930740981047 homo_lumo=0.5763397517856252 dipole="-4.516782431535822 1.4407097396818271 -1.2463200316143663" free_energy=-167.69930740981047
N       1.1061230183     -0.0078745690      0.5331959036      0.7004252837      0.0118365044      0.1315929517     -0.5302113714
C      -1.2578064932     -0.0014783119     -0.1294381356     -0.0949652293     -0.0039643358      0.1090582338     -0.1978980417
C      -0.2710306174     -0.0146002450      1.0421819581     -0.8420005229      0.0019649401      0.1594817214     -0.0138129259
C      -2.7096299593     -0.0034977590      0.3600254876      0.0559155416     -0.0005476517     -0.0583183359     -0.2248586870
C      -3.6828309670      0.0085212671     -0.8151621017     -0.1941085981     -0.0011476892     -0.0175186650     -0.0889729121
C       1.7320867523      1.1834956768      0.2851195614      0.8568303260     -0.4357473966     -0.3937379951      0.2510825335
C       1.7344922259     -1.1922691332      0.2590078319      0.9128213905      0.5029848496     -0.4229081934      0.2619469255
C       3.0180806135      1.2082764126     -0.2596380923     -0.7279730271     -0.6198776678      0.2599545847      0.0053083836
C       3.0204081823     -1.2024531852     -0.2864174770     -0.6589831363      0.4984436978      0.2505815027      0.0161617834
C       3.6610208565      0.0066761335     -0.5517335567     -0.1002658840     -0.0138152511      0.1019553293      0.0831960192
H      -1.0806031708     -0.8981668405     -0.7629474634      0.0095751331      0.2539324779      0.0505729826      0.1231587572
H      -1.0775585566      0.9066331123     -0.7455877989      0.0086856526     -0.2521012087      0.0421751269      0.1203212154
H      -0.4455876069     -0.9158781135      1.6720985995      0.3512942961      0.2718894890     -0.2331778442      0.1367985702
H      -0.4463692026      0.8715860623      1.6929808717      0.3415583851     -0.2662713132     -0.2402571584      0.1324271936
H      -2.8972265763     -0.9113598473      0.9736450537      0.0768037270      0.2591339020     -0.0020059244      0.1023320881
H      -2.8942490757      0.8940661469      0.9895118856      0.0751403341     -0.2593947129     -0.0043608675      0.1002057255
H      -4.7255342229      0.0070577489     -0.4341060305      0.2524338453      0.0009657960     -0.2459826421      0.0627063417
H      -3.5310952777      0.9194443045     -1.4325541896     -0.1077623538     -0.3005544222      0.0903450960      0.0495596371
H      -3.5343287705     -0.8920005919     -1.4483899180     -0.1066926178      0.3005073370      0.0977751488      0.0511869607
H       1.2323634282      2.1222829241      0.4944905692     -0.4492399828     -0.1226061743      0.2374596620      0.1047262016
H       1.2366179757     -2.1364088172      0.4475462195     -0.4262518059      0.1017304876      0.2532208938      0.1108035566
H       3.5083052013      2.1516149150     -0.4602838088      0.0370442109      0.2951084970      0.0389838576      0.0731057610
H       3.5123215321     -2.1401213011     -0.5080919749      0.1931285423     -0.3135342294      0.1098333272      0.0982682177
H       4.6519769347      0.0127031121     -0.9853887793      0.4161147028     -0.0858329710      0.0289316673      0.1008064013
B       6.5477639058     -1.6616008376      1.5377315243      0.4642949087     -0.3882865160      0.5766638525      1.3086223710
F       7.8572886916     -1.9171291415      2.0230720102     -0.0532182866      0.0573491371     -0.0841514794     -0.5448228952
F       5.6320593014     -1.6581589435      2.6228336925     -0.3429916957      0.0740059010      0.0295107884     -0.5617243223
F       6.1802543799     -2.6732437056      0.6115710289     -0.3639101668     -0.1386467617     -0.4145524643     -0.5685432765
F       6.5232133106     -0.3969110515      0.8940282654     -0.2837029726      0.5724752854     -0.4511251569     -0.5618802117
