29
Properties=species:S:1:pos:R:3:forces:R:3:charge:R:1 energy=-167.7659365179195 homo_lumo=0.430717180345364 dipole="1.1063392586548904 0.8846215393458515 3.719526843183436" free_energy=-167.7659365179195
N       1.1016697754     -0.0097143489      0.5312490541      0.9149561402     -0.0644017620      0.0776979621     -0.5169987004
C      -1.2612919810     -0.0100720682     -0.1337931684     -0.1113868335     -0.0937709924     -0.0490579727     -0.2195687760
C      -0.2760411095     -0.0162964886      1.0384416041     -1.0248312993      0.0156939856      0.1777439901     -0.0203737777
C      -2.7131010333      0.0031862187      0.3513367517      0.0560240302      0.0321650153      0.0491491327     -0.2189017419
C      -3.6806599567      0.0177969846     -0.8293754705     -0.1976782698     -0.0319547350     -0.0770620434     -0.0896109221
C       1.7306804410      1.1812853427      0.2898322155      0.7734897111     -0.5753397555     -0.4256392700      0.2729061764
C       1.7317176883     -1.1937907179      0.2602462192      0.6966254695      0.6165399076     -0.4538311623      0.2904636308
C       3.0255687452      1.2061882675     -0.2336874936     -0.6090149935     -0.6079350369      0.2169192273      0.0019240471
C       3.0261395904     -1.2043066960     -0.2652337490     -0.5384441192      0.6603803507      0.1994419945      0.0176586891
C       3.6746526656      0.0045640804     -0.5126156465     -0.3849707469     -0.0786656597      0.1475719749      0.0679167071
H      -1.0914806303     -0.9173475898     -0.7534925108      0.0964422720      0.4057496591     -0.0936028972      0.1827120906
H      -1.0729834350      0.8888108504     -0.7615298574      0.0414013086     -0.3777608345     -0.0170381259      0.1446554446
H      -0.4481267763     -0.9147616089      1.6727079393      0.3530334200      0.2375441572     -0.2411131923      0.1226124034
H      -0.4516256390      0.8722791851      1.6855915116      0.3671798980     -0.2282544650     -0.2276381482      0.1185713240
H      -2.9106525948     -0.9005849600      0.9682368345      0.0621360126      0.2358821364      0.0101746116      0.0836556286
H      -2.8932435102      0.9053571802      0.9757976847      0.0440396903     -0.2330630361      0.0304985204      0.0786550159
H      -4.7260460674      0.0160642370     -0.4552978135      0.2565752349      0.0099990433     -0.1911393808      0.0459985967
H      -3.5243474929      0.9301112726     -1.4443879450     -0.0797108392     -0.3688284627      0.0723486905      0.0605690651
H      -3.5285612958     -0.8811672410     -1.4648762211     -0.0583654924      0.3777349056      0.0718050717      0.0773248165
H       1.2292716134      2.1202743039      0.4930500214     -0.4726130972     -0.1277115599      0.1861792707      0.1111796287
H       1.2301954423     -2.1378443450      0.4378085364     -0.4778220763      0.1182225966      0.1438388628      0.1191509508
H       3.5202886660      2.1503361661     -0.4234949276     -0.0274243698      0.2761889319     -0.0151433381      0.0713268998
H       3.5205985082     -2.1427622580     -0.4817501507     -0.0500993611     -0.2735056414     -0.0446326731      0.0783333605
H       4.6775795556      0.0102694513     -0.9203620019      0.2521016507     -0.0041222624     -0.1389250999      0.0725661887
B       0.1704232679     -1.0521579731     -4.0669451572     -0.2123757252     -0.1864641193     -1.0290216453      1.3002813552
F       0.9770275187     -0.3325868042     -4.9884802328      0.1189545772      0.1091449415      0.1208433136     -0.5536716528
F       0.6671517147     -0.8541316412     -2.7522007675      0.3313891438      0.1431035382      1.0696260881     -0.5815695465
F       0.2087702117     -2.4363800605     -4.3840992318      0.0456589739     -0.0900868920      0.1767335161     -0.5558265491
F      -1.1692837121     -0.5854084083     -4.1437131484     -0.1652703097      0.1035160457      0.2532727220     -0.5619403531
