38
Properties=species:S:1:pos:R:3:forces:R:3:charge:R:1 energy=-219.94512381088265 homo_lumo=2.395697234801658 dipole="-0.9596059633405059 1.828862447627666 -0.4919099157210661" free_energy=-219.94512381088265
N       0.6479958645     -1.5863049704      0.9560254554      0.0025502517      0.0092945502     -0.0022711523     -0.5078643486
N       2.5808390503     -0.5943610059      1.0131406848      0.0063194943     -0.0014501745      0.0014353006     -0.5357691115
C      -1.8121227825     -1.7765091241      0.7168621520      0.0032913192      0.0048460704      0.0049827980     -0.1743130741
C      -1.9786875269     -0.4765890196     -0.0669432636     -0.0017000404     -0.0001391056      0.0067684448     -0.1809099240
C      -0.4583171492     -2.4391683430      0.5016990426      0.0012249417      0.0109146283     -0.0061534181     -0.0156104473
C      -3.3310886344      0.1981397724      0.1537015456      0.0072548154      0.0033231280     -0.0004717080     -0.1626940244
C      -3.4863132658      1.4914070336     -0.6454761587     -0.0009995700     -0.0004700588      0.0079101799     -0.2042847304
C       1.6926265677     -1.2031748536      0.2134390081      0.0057237340      0.0097101084     -0.0015596426      0.5771580746
C       0.8879091526     -1.2465469552      2.2678181648     -0.0028160161     -0.0025523468      0.0033929689      0.2301252491
C      -4.8353512952      2.1702671531     -0.4206208737     -0.0021149094     -0.0047450760      0.0085383691     -0.0659146946
C       2.1022949310     -0.6281659040      2.3049237773      0.0026836889     -0.0090977947      0.0005996593      0.2506060402
C       3.9679765532     -0.3066063478      0.6617490098      0.0020922377      0.0014482673     -0.0029379468      0.0931174092
H      -1.9705141543     -1.5929497439      1.7944727245     -0.0000495186      0.0105567105      0.0080396010      0.1014034823
H      -2.5849067912     -2.5052782321      0.4155013992      0.0015591037      0.0002287045      0.0021210685      0.1015972976
H      -1.8492859407     -0.6856531150     -1.1458445418      0.0124325820      0.0009182367      0.0031719611      0.0833541734
H      -1.1746970677      0.2286190637      0.2149486738      0.0039126199     -0.0014973895      0.0029719904      0.1121496063
H      -0.2788724650     -2.6416341176     -0.5638691870     -0.0080355771     -0.0003187239      0.0003453423      0.1087659121
H      -0.3282732802     -3.3884594282      1.0483545867     -0.0082577484      0.0061431826      0.0051228031      0.1640340602
H      -4.1423370499     -0.5015824952     -0.1223904265      0.0046693857     -0.0014028458      0.0080358669      0.0882184010
H      -3.4616365817      0.4164605667      1.2302541226      0.0022808062     -0.0027272823      0.0052102403      0.0870240939
H      -2.6695559957      2.1841136441     -0.3710516976     -0.0026318820      0.0082748775      0.0039769891      0.0834479332
H      -3.3548821231      1.2683561696     -1.7201347802     -0.0064256705      0.0055599844      0.0034388289      0.0850598163
H       1.8211344001     -1.4001410356     -0.8423511007      0.0173828419     -0.0135721355     -0.0016669894      0.1002739808
H       0.2203092711     -1.5356029313      3.0675011309     -0.0119578098     -0.0054470226      0.0016909360      0.0512692785
H       2.6908513578     -0.2746019447      3.1410173190      0.0090272233     -0.0086611049     -0.0042962946      0.0461617627
H      -4.9734482098      2.4282560078      0.6415907065     -0.0014156261     -0.0016580606      0.0085828014      0.0350986158
H      -4.9273604756      3.0978110317     -1.0058936510      0.0185066726     -0.0046080169     -0.0033527486      0.0389360991
H      -5.6635700558      1.5049756892     -0.7127031887     -0.0038834880     -0.0019176022      0.0040216952      0.0358930979
H       4.5663826547     -1.1465170421      1.0497614494     -0.0128493418     -0.0134078491     -0.0028441494      0.1172389404
H       4.0565562237     -0.2481880731     -0.4281517559     -0.0059782758      0.0065606893     -0.0062597526      0.0543168782
H       4.2651897781      0.6493220540      1.1095735981     -0.0119200684     -0.0003172525      0.0090457758      0.0595030391
C       2.7883998407     -3.6906196160      1.6477670459     -0.0060709970      0.0095650259      0.0041290940      0.8828404986
O       1.6852016212     -4.0441575537      2.1240964091     -0.0014774577      0.0188574762     -0.0149308257     -0.7855506026
O       3.7275203894     -3.0077825733      2.1221766327     -0.0042845979     -0.0001948163     -0.0242649587     -0.7896792287
C       3.0462709117     -4.2054209189      0.1756915125      0.0018247577     -0.0139429358     -0.0137134555      1.2462722850
F       3.6387152836     -5.4338489232      0.1738414664     -0.0023829981     -0.0070469380     -0.0310900121     -0.4526248731
F       3.8642899772     -3.3696680687     -0.5657699507      0.0013835050     -0.0056394238      0.0023362683     -0.4789877609
F       1.8909127801     -4.3236757853     -0.5759146784     -0.0088683882     -0.0053876840      0.0099440713     -0.4796632054
