28
Properties=species:S:1:pos:R:3:forces:R:3:charge:R:1 energy=-156.59852156346204 homo_lumo=3.4596898591290515 dipole="2.4226147951742325 0.9429721597929336 -1.6119881755836485" free_energy=-156.59852156346204
N      -0.1776708183     -0.4817603393      0.1938789437      0.4903671579     -0.0865892529      0.1190505322     -0.5558945426
C      -0.5659119252      0.9632818707      0.0035484453     -0.4932023344      0.4232002452     -0.1771939450      0.0353555006
C      -1.2865776024     -1.3204853366     -0.4060138991     -0.5701954489     -0.2479834016     -0.3011828647     -0.0116434973
C      -2.0602179916      0.9548454890     -0.2810018203      0.1504755011      0.0182718584      0.0423470120     -0.1365173319
C      -2.2711436045     -0.3492150239     -1.0445488237      0.1944329295      0.0182380363      0.1482735423     -0.1416051164
C      -0.0327419566     -0.7882115694      1.6441787666      0.1353589832      0.1013682331      0.2778437251      0.0508969767
C       1.1112623336     -0.7605233072     -0.4854676323      0.0525695396     -0.0005734815     -0.0361816564      0.0833548299
H      -0.0052397866      1.3547359630     -0.8491771363      0.1615179120     -0.0020189524     -0.1971206404      0.1101281725
H      -0.2954253040      1.5257860631      0.8970813450      0.1301075511      0.1056383521      0.2146521271      0.1129743328
H      -1.7629737434     -1.8690019239      0.4057197403     -0.0503418513      0.1168964438      0.1244222494      0.2707478107
H      -0.8574068459     -2.0252346721     -1.1184790455      0.2166949906     -0.1393686514     -0.1551962614      0.0806647059
H      -2.3501221878      1.8299947956     -0.8634091895     -0.0691069216      0.2699714878     -0.1511681983      0.0685346197
H      -2.6281271213      0.9361805611      0.6516534579     -0.1516012136     -0.1202478859      0.2236760604      0.1449037666
H      -3.2896137081     -0.7189494529     -0.9232080793     -0.2682263164     -0.1011159318     -0.0000960103      0.1111963237
H      -2.0556645678     -0.2201779654     -2.1087570365      0.0422024820      0.0474452208     -0.3059874203      0.0675212140
H       0.7743218897     -0.1848174188      2.0561845157      0.3152894753      0.1975335749      0.0097637431      0.0533093004
H      -0.9793157618     -0.5651952540      2.1370794295     -0.4362643637     -0.0612287127      0.0614794705      0.1672547315
H       0.1906670489     -1.8467125114      1.7576000839      0.0320206705     -0.2456422308     -0.0078054810      0.0898478693
H       1.0010867119     -0.5796663757     -1.5529846389     -0.0595800768      0.0583116233     -0.3017108634      0.0770310996
H       1.8777973073     -0.1054630812     -0.0742011436      0.2132886129      0.1934878511      0.1174304975      0.0890665643
H       1.3827712816     -1.8001694318     -0.3109569782      0.0673993313     -0.2743415154      0.0577366428      0.0943431699
C      -3.7453195643     -1.6411830960      2.3852403949      1.0818459877     -1.8604797858     -0.0599114109      0.9270596688
O      -4.8516625712     -1.6339432133      2.8662045771     -1.8512607485      0.0143621221      0.7846175243     -0.7194041026
O      -3.0014394623     -0.7686916641      1.9116707343      0.9207704346      1.3563180592     -0.6122661826     -0.8596775216
C      -3.0198178866     -3.1135125827      2.2804586128     -0.5138042252      1.4288148537      0.1597699761      1.2153059516
F      -3.0627685584     -3.5709161816      0.9990661042     -0.1865659697     -0.4525887967     -1.0581119992     -0.4805350128
F      -3.5049259358     -4.0810535922      3.0567396375     -0.4900200871     -0.6085377615      0.6247108781     -0.4526615985
F      -1.6862696050     -3.0134522729      2.5630762720      0.9358279981     -0.1491416013      0.3981589532     -0.4915578851
