38
Properties=species:S:1:pos:R:3:forces:R:3:charge:R:1 energy=-207.53353555769164 homo_lumo=3.980814155079422 dipole="1.3007674516799148 -1.5319421562300921 -2.679037917915532" free_energy=-207.53353555769164
C       1.9019916482      0.7702987588      2.1564459227      0.0089351457     -0.0004868250     -0.0036457453     -0.1529224720
C       0.8421798012      1.5758653979      1.4110755032      0.0029307726      0.0085958428     -0.0045759911     -0.0222704599
H       1.4111103185     -0.1155806756     -0.5879476052      0.0043985060     -0.0049866965      0.0010140250      0.1201891005
H       0.4039484872     -1.4410091468      0.0753977686      0.0107921037     -0.0071257124     -0.0029098298      0.1379996287
H       2.9137858732     -0.9061186166      1.1061250510     -0.0049375488      0.0025276736     -0.0068498587      0.0958515961
H       1.6024171132     -1.4089471655      2.1832941363      0.0045281854      0.0021655033      0.0019498281      0.0909705152
H       1.6312681452      0.7083065858      3.2198100196      0.0053908818     -0.0136132620      0.0032070504      0.1262059127
H       2.8747499692      1.2772723183      2.0906744963      0.0074147502     -0.0076995089     -0.0042805317      0.0948338905
H       0.2405337284      2.2023711293      2.0831836079      0.0092918630     -0.0038124766     -0.0015841127      0.2278241519
H       1.2643608174      2.1600701540      0.5793485378     -0.0024270223     -0.0087607483      0.0001718645      0.0989389373
H      -1.4794569143     -0.9323087023      1.3472237944      0.0022957403     -0.0033427013      0.0010788219      0.0721944256
C      -1.0088747863     -0.0417876519      1.7812970481      0.0013930295     -0.0092557483      0.0144733817      0.0122510188
H      -0.4462570213     -0.2984690343      2.6845186491      0.0119410059     -0.0068650184     -0.0034237543      0.1388806275
H      -1.7596994123      0.7059085892      2.0772021724     -0.0013968482      0.0039904529      0.0044463102      0.1777114883
C      -0.8295031123      1.1936784987     -0.3643453059      0.0070594468     -0.0056455993      0.0041259601     -0.0142275293
H      -1.2607274725      2.0994527571      0.0865095738     -0.0069353530     -0.0025324534      0.0047424191      0.1840559936
H      -0.0681318277      1.4992059454     -1.1002747085      0.0053806344     -0.0001348997      0.0036407830      0.1060103248
H      -2.6957752928      0.0928855758     -0.2948828067      0.0042058526      0.0043787812      0.0021307319      0.1182333099
H      -2.3473217994     -2.2041476992     -3.3396593276      0.0024961828      0.0111968214      0.0194506859      0.0461836742
C      -1.5047026533     -0.8194839743     -1.8760388093      0.0170133927     -0.0105803515      0.0030103909     -0.2491277040
H      -0.6560169611     -0.5337821260     -2.5248180153     -0.0027701349     -0.0026937214      0.0088547905      0.0881928564
H      -1.1457482309     -1.6402882823     -1.2331613629     -0.0052420505      0.0053567705      0.0022513464      0.1128327557
C      -2.6562958500     -1.3389969532     -2.7338827612      0.0038049058     -0.0191286655     -0.0010297066     -0.0669378885
H      -3.0177640025     -0.5568401514     -3.4195510957     -0.0052830481      0.0041838862     -0.0036872680      0.0422755660
N      -0.0654599296      0.5350186147      0.7664788883     -0.0014210344      0.0004900608     -0.0037015033     -0.5250720490
C       0.9305731668     -0.5124351522      0.3192601773      0.0021621751     -0.0006740777     -0.0066834596     -0.0055774778
C       1.9185930795     -0.6249157396      1.4794516382      0.0119579685     -0.0113593006     -0.0015347722     -0.1446493576
H      -3.5040985842     -1.6517537910     -2.1045854473     -0.0059439677      0.0011811386     -0.0000852453      0.0472879529
C      -1.9286274497      0.3833513661     -1.0321060433     -0.0148229992      0.0098742211      0.0092113376     -0.1910730603
H      -2.4320593921      1.1093972148     -1.6974909543     -0.0042417649     -0.0035440949      0.0055334893      0.1273347124
S      -1.7693039453      2.4321308668      4.3126697607     -0.0157158938      0.0060762123     -0.0003383909      1.7438741663
O      -2.7932711097      1.5322101215      3.7429713299     -0.0101991600      0.0134656148     -0.0248215075     -0.7939385570
O      -0.3754389213      1.9958643957      4.0436174945     -0.0150966869      0.0218218166     -0.0054166945     -0.8249513272
O      -2.0210754071      2.9715257965      5.6453210455     -0.0238679087     -0.0003989315     -0.0096365794     -0.7497761802
C      -1.9171736516      3.9420205817      3.1904308110     -0.0014720236      0.0170212363     -0.0038829456      1.1019248349
F      -3.0723950759      4.6171955527      3.3899077686     -0.0025945115      0.0062678003     -0.0165637906     -0.4385460913
F      -1.8979753980      3.5648243538      1.8529136598      0.0090372826      0.0055016825      0.0037149748     -0.4866835101
F      -0.8846922538      4.8131667020      3.3528411587     -0.0080618690     -0.0014547223      0.0116434961     -0.4463037758
