35
Properties=species:S:1:pos:R:3:forces:R:3:charge:R:1 energy=-203.62901061539975 homo_lumo=3.125339892796407 dipole="-1.6335033715382847 1.6049139190144321 0.3572338088375254" free_energy=-203.62901061539975
N       1.4482843072      1.1607065462      0.5809284307      0.3061149207      0.1263198634      0.3293115788     -0.5109520861
N      -0.0208465559      0.0095061216     -0.4906432403     -0.2309019132     -0.3727155994     -0.3553745644     -0.5093068155
C       2.6275911776      1.4690589935      1.3891088379      0.2833700137      0.3631243132      0.0613999838     -0.0027672286
C      -0.7456482153     -1.1411547145     -1.0199909868     -0.5257945320     -0.1413972294      0.2873760461     -0.0137200009
C       0.9856010275     -0.0690723267      0.3757374010      0.0100534466     -0.3125495028      0.2695165464      0.6142266562
C       3.6579970249      2.2672068159      0.5871057778     -0.1648947235     -0.5010603755     -0.2108602245     -0.2294265589
C      -1.9382807170     -1.4976457431     -0.1303788562      0.4432152761     -0.0512231957      0.1638425089     -0.2104969840
C       0.7117202107      2.0472133798     -0.1597072281     -0.1001581132      0.3506881969     -0.0984391676      0.1979022417
C      -0.2171607365      1.3194661767     -0.8346719364     -0.1143850698      0.2796265725     -0.1400889612      0.2109682300
C       4.1438862312      1.5110587594     -0.6473545955     -0.0096845274      0.2729795231      0.3580454464     -0.0756574836
C      -1.5100335301     -1.9624759248      1.2595331391     -0.1952795167      0.1422007432     -0.3764040889     -0.0801954311
H       3.0538678498      0.5115485166      1.6996867882      0.0099743052     -0.2189862316     -0.0385214279      0.1549732039
H       2.3035900530      2.0327468718      2.2696287408     -0.1394726763      0.1013248256      0.1985354308      0.0941821862
H      -0.0299246428     -1.9681662772     -1.0749522402      0.2474526910     -0.0612417202     -0.0422686064      0.1817643870
H      -1.0853042833     -0.8849880940     -2.0263448354      0.0381997857      0.1053413737     -0.2390013943      0.0884153029
H       1.3869769293     -0.9727437864      0.8033390141      0.2869356597     -0.2320256965     -0.0518617972      0.1322776086
H       3.2323971900      3.2337613596      0.2977159107     -0.0450420488      0.3300343945      0.0155569434      0.0794110849
H       4.5023506995      2.4603312980      1.2550672308      0.1601148999      0.1292759051      0.2318165045      0.0963542963
H      -2.6024631078     -0.6314027248     -0.0462269151     -0.2498642048      0.2055828505     -0.0334772652      0.0845450543
H      -2.4891237626     -2.2997288897     -0.6294254308     -0.1836898476     -0.1706134284     -0.1842541563      0.0947687093
H       0.8995968246      3.1062753756     -0.1489712861      0.0777495908      0.2303397581     -0.0189696873      0.0370166410
H      -0.9821679340      1.6216936042     -1.5283516697     -0.1726560038      0.0647260851     -0.1751242353      0.0267108946
H       3.3243714642      1.3540611769     -1.3490231861     -0.2050455974     -0.1141647911     -0.2707995565      0.0490538322
H       4.5482270961      0.5401833773     -0.3627174301      0.0355060463     -0.2931630647      0.0189178425      0.1124114371
H       4.9236517198      2.0864803150     -1.1454331946      0.2051963618      0.1787631471     -0.2415991471      0.0261648237
H      -1.0177289184     -1.1540514204      1.8015634427      0.1171649542      0.1847909542      0.2447103479      0.0554946235
H      -0.8206529701     -2.8035729123      1.1842620304      0.2358250073     -0.2649027405      0.0205293196      0.0547000575
H      -2.3844256871     -2.2764009294      1.8289171230     -0.2133020833     -0.0823633155      0.2602167827      0.0480276574
C       3.1559572561     -2.0657903587     -0.4147325873      1.2406781195     -0.4997479454     -0.8726035488      0.9325885243
O       3.4942517059     -1.3394976887      0.5250748605      0.6190163017      0.7238387663      1.2827322753     -0.8333412356
O       2.0345219320     -2.4017278997     -0.7973776900     -1.5219097999     -0.6301019471     -0.5734651230     -0.8228611190
C       4.3783439010     -2.6088649812     -1.2955327710     -1.0347327387      0.4931457434      0.6024258987      1.3057086486
F       3.9837510326     -3.3300385302     -2.3534087155     -0.3735880454     -0.5696488825     -0.7800358416     -0.4589310793
F       5.2230344427     -3.3742394603     -0.5858763126      0.6029900021     -0.6194428560      0.7313086283     -0.4594709524
F       5.0997869509     -1.5728960209     -1.7773082982      0.5608440592      0.8532455062     -0.3730932906     -0.4705391265
