54
Properties=species:S:1:pos:R:3:forces:R:3:charge:R:1 energy=-295.4693039876919 homo_lumo=5.101873296454763 dipole="2.002326648411656 0.39934136349343663 -2.749286699889194" free_energy=-295.4693039876919
N       0.0043066801     -0.7282763450      0.9524005531     -0.0015536050     -0.0000790205      0.0016877497     -0.4776493893
C       1.4645128663     -0.2550414932      0.8594305016     -0.0007494808      0.0017331311      0.0048480904      0.0040283716
C       0.0290294347     -1.9385457090      1.9081682130     -0.0017177641      0.0021372085      0.0035522069     -0.0488838249
C      -0.8645752241      0.3604492954      1.5599537663      0.0010162498     -0.0024281831     -0.0084515690     -0.1045246120
C      -0.4895104801     -1.1342924067     -0.4198572143     -0.0025427474      0.0011531472      0.0089014886     -0.0146279568
C       2.2950505537     -1.3455206699      1.5208577352     -0.0069485418      0.0042246362     -0.0044807842     -0.1459576148
C       1.3629702295     -1.8403028086      2.6252243627     -0.0087852287     -0.0027408963      0.0015858815     -0.1487279652
C      -0.9933917422      1.6143143809      0.7177298286      0.0039633779      0.0070772111     -0.0031455420     -0.2122406031
C      -1.9268430430     -1.6142555513     -0.4233126911      0.0040530710     -0.0046111729      0.0019147397     -0.2468952118
C      -1.7132746925      2.7024887652      1.5223106227      0.0008308744      0.0020232869      0.0029733206     -0.2120500153
C      -2.3334772880     -2.2133694232     -1.7699710493      0.0062877400     -0.0021994582     -0.0132776045     -0.2051739695
C      -1.9734892775      3.9529582845      0.6897752255      0.0003415198     -0.0002518601     -0.0123262428     -0.0659069151
C      -3.7951700992     -2.6563745034     -1.7555337719      0.0014248422      0.0111160499      0.0003541387     -0.0752050343
H       1.5309743730      0.6815000537      1.4282366069     -0.0067843481     -0.0030630887      0.0081470497      0.1479303108
H       1.7107250309     -0.0571869576     -0.1914883730     -0.0069245867      0.0030381079     -0.0009532676      0.1116504227
H      -0.0187201505     -2.8382609921      1.2780510383      0.0009202554      0.0030675921     -0.0008521265      0.1162031440
H      -0.8394901636     -1.9026460727      2.5815245704     -0.0029220653      0.0023424775      0.0045529094      0.2417595409
H      -1.8491836993     -0.0870117291      1.7471180968     -0.0016120644      0.0014262480      0.0040111576      0.2088703674
H      -0.4238020916      0.5721952030      2.5449483342     -0.0012110092      0.0034541488      0.0009648160      0.2123155536
H      -0.3589114372     -0.2610372300     -1.0762825884      0.0033512223      0.0018589150     -0.0028029172      0.1359299978
H       0.1969824644     -1.9258555246     -0.7636814381      0.0006991508     -0.0004438565     -0.0004709855      0.1246862973
H       2.5188055454     -2.1562768553      0.8068824265     -0.0016347800     -0.0012289835     -0.0044411686      0.0887452236
H       3.2502401990     -0.9450534571      1.8906372071      0.0007026499      0.0002236121      0.0043042970      0.0885591152
H       1.2889545611     -1.1151165573      3.4519069881     -0.0065515349      0.0008087269      0.0045462593      0.1442109836
H       1.6561260961     -2.8107549418      3.0498393026     -0.0059321969     -0.0012596850     -0.0013796057      0.0894115228
H      -0.0030390679      1.9913955032      0.4031185511     -0.0033532864     -0.0029200493      0.0007821144      0.0880588617
H      -1.5684912847      1.4098015077     -0.2028388655     -0.0008530194     -0.0017280399     -0.0025089549      0.1005898544
H      -2.0755634991     -2.3695988048      0.3609505676      0.0001945762      0.0035424259     -0.0062769024      0.1769725309
H      -2.6063473574     -0.7802065780     -0.1835146225      0.0021056125      0.0021974615     -0.0016011658      0.1362131979
H      -1.1081009261      2.9534205116      2.4106088018     -0.0011889800     -0.0034662754     -0.0041187450      0.1056900880
H      -2.6611657755      2.2985790262      1.9162590324      0.0016224352     -0.0017620189     -0.0042428782      0.1326322651
H      -2.1733436697     -1.4738890763     -2.5756514582      0.0079325955      0.0024782771      0.0016554385      0.0811653490
H      -1.6837312067     -3.0773062134     -2.0002443278      0.0063863048      0.0055012307      0.0010654995      0.0810509227
H      -2.6152689623      3.7260444770     -0.1772483071      0.0049317054      0.0039580511      0.0041746897      0.0316021892
H      -1.0330375409      4.3843082594      0.3092800232      0.0009701637     -0.0002457379      0.0025536760      0.0284216867
H      -2.4800396822      4.7236454997      1.2886952045     -0.0015408425      0.0104895778     -0.0003336726      0.0516021096
H      -4.4625121157     -1.8005742388     -1.5664916692      0.0075161655     -0.0026852733     -0.0107149788      0.0442444355
H      -3.9733700984     -3.3952342410     -0.9589390643      0.0049110855      0.0010352145     -0.0096832819      0.0566680659
H      -4.0847331617     -3.1083619171     -2.7150073357      0.0007107442     -0.0017419309     -0.0125326638      0.0451726964
N      -2.1878735313     -1.6709485814      4.4483777468      0.0011042911     -0.0171997015     -0.0059659129     -0.8925274498
S      -1.9544372114     -0.1282566308      4.8629880304      0.0086920162      0.0153477718      0.0086043406      1.6066260890
S      -3.6525267847     -2.3642786510      4.5250468381     -0.0183662550     -0.0115096990      0.0035419822      1.6341150072
C      -2.2221868074      0.0077830229      6.7522417971     -0.0087457132     -0.0095095227     -0.0067508579      1.1780529240
C      -4.2438871444     -2.3057680478      2.7292357610      0.0015437173     -0.0079281945      0.0074902330      1.1626292841
O      -0.5103069343      0.1013104122      4.7066852231     -0.0099651419     -0.0060036188      0.0049928680     -0.7849215009
O      -2.8751940350      0.8482584060      4.2831971434      0.0031650400     -0.0035794141      0.0213038726     -0.7345621522
O      -4.6535480504     -1.6106103742      5.2658104923     -0.0008076291     -0.0118082231     -0.0106827657     -0.7199281071
O      -3.4677681015     -3.7918279436      4.7325260187      0.0023190012      0.0055521416     -0.0053650062     -0.7176951548
F      -1.3490481295      0.9292536383      7.2301239542      0.0040122879      0.0099259137      0.0131959414     -0.4365399424
F      -1.9838802862     -1.1722280107      7.3643929707      0.0182685849     -0.0067128523      0.0070809223     -0.4322302736
F      -3.4707554265      0.4120906180      7.0407168187      0.0063239496     -0.0102011409      0.0166795069     -0.4209860363
F      -5.5188671761     -2.7417337839      2.6474811407     -0.0048541842      0.0089548451      0.0008120543     -0.4324661821
F      -3.4712689602     -3.1234230643      1.9511520786     -0.0058953014     -0.0067420279     -0.0078222112     -0.4683154478
F      -4.1851621624     -1.0555903911      2.1939132257      0.0051390764      0.0093825153     -0.0050954338     -0.4577930495
