54
Properties=species:S:1:pos:R:3:forces:R:3:charge:R:1 energy=-295.11352620856894 homo_lumo=5.128947859647817 dipole="1.494403839649663 3.009145413838092 1.2273813328947263" free_energy=-295.11352620856894
N      -0.7596500706     -1.5835284936     -0.5079675669     -0.1868929371      0.1172994688     -0.0134611132     -0.5007504342
C      -0.0165415860     -2.0024090179     -1.7425397311      0.4769107737     -0.2291237282     -0.2350289147     -0.0136844826
C      -0.7970552082     -2.8548842402      0.2911569901      0.2496203719     -0.4530693630      0.1400585354     -0.0424826457
C       0.0004172040     -0.5484691103      0.2686453204      0.0436147037      0.5218906648     -0.2801845295     -0.0164697882
C      -2.1356078507     -1.1103177239     -0.8761415009     -0.4300473619      0.1893997999      0.4679692171     -0.0493797731
C       1.0896686574     -2.9289797949     -1.2500336815     -0.0285561767      0.1360872460     -0.0444431303     -0.1587898732
C       0.5628995115     -3.5116554093      0.0703003413     -0.0358275752      0.0763247425      0.0751219022     -0.1437629444
C       0.0832269913      0.8252927188     -0.3944267344      0.2728172593     -0.3134126780      0.5529130628     -0.2136151202
C      -3.0354739709     -0.8241742268      0.3212813395      0.0096779258      0.0209130817     -0.6355461579     -0.2129828458
C       1.0476910362      1.7164129772      0.3990144793     -0.3225281472      0.1474510009     -0.5062019984     -0.1980617846
C      -4.4590128395     -0.5508233941     -0.1816166554      0.1719012640      0.0003179218      0.5032957270     -0.2077122359
C       1.1371386153      3.1112697208     -0.2158632302      0.0602860182     -0.3855576775      0.2816268902     -0.0491519145
C      -5.3979676619     -0.2209219699      0.9756220917      0.1882228575     -0.0220955680     -0.4181593905     -0.0476140987
H       0.3453467663     -1.1262185616     -2.2784004159      0.0012108841      0.2421760625     -0.1112165662      0.1021003282
H      -0.7200773897     -2.5529110864     -2.3713623779     -0.2684790852     -0.0544665579     -0.0216985924      0.2099500260
H      -1.6033569502     -3.4702244519     -0.1087084220     -0.2191915933     -0.0235888000     -0.0433959395      0.2479146283
H      -0.9994816977     -2.6278267446      1.3374451629     -0.1391675152      0.0896998584      0.1928960014      0.0912982950
H      -0.4859783477     -0.4572486807      1.2428498323     -0.1091302407     -0.0531326134      0.1939277623      0.1346910223
H       1.0065358194     -0.9432503505      0.4259108163      0.1956348702     -0.1400393518      0.0475314981      0.1660431549
H      -2.0181159744     -0.2224972574     -1.5009119055      0.0867605931      0.2005697666     -0.1568015876      0.1120816584
H      -2.5816711054     -1.8965776640     -1.4838592056      0.0270169552     -0.1790044462     -0.1339976581      0.2420583743
H       1.2737113329     -3.7065156583     -1.9924004629      0.0884207964     -0.1142259571     -0.1471426425      0.1266864392
H       2.0218418175     -2.3819530661     -1.0912560171      0.2651297138      0.1004789859      0.0001738028      0.0648830512
H       1.2447930362     -3.2887980130      0.8938815744      0.1794848591      0.0031024989      0.2027090913      0.0644869167
H       0.4460121496     -4.5938367820      0.0102432240     -0.0507197428     -0.1706550482      0.0785673760      0.1391549993
H       0.4392176511      0.7377975349     -1.4241511902      0.0846397506      0.0133514822     -0.2787678995      0.1141875908
H      -0.9021738889      1.2974843327     -0.4149939652     -0.2519001827      0.1281097251     -0.0407713006      0.1166286713
H      -3.0589313743     -1.6921878407      0.9842324684     -0.0548730494     -0.2382480141      0.1476972442      0.1308386845
H      -2.6703411357      0.0364473775      0.8903153573      0.0567030893      0.2638233982      0.1978794718      0.0880214130
H       2.0412879442      1.2564585440      0.4109034418      0.2517565550     -0.1437278603      0.0668764957      0.0877498909
H       0.7006824776      1.7936723877      1.4345917338     -0.0348966253     -0.0164192392      0.2964268504      0.0910710798
H      -4.4420800343      0.2830670067     -0.8914957620     -0.0091036816      0.2078738726     -0.2301914921      0.0703093655
H      -4.8219862041     -1.4367926422     -0.7108427809     -0.0153212124     -0.2141886361     -0.1227964261      0.1431650511
H       0.1585070955      3.5923120987     -0.2164167757     -0.2737538526      0.1990104832     -0.0240442990      0.0360906173
H       1.4977371807      3.0537126390     -1.2433948570      0.1079810198      0.0373733633     -0.3190928252      0.0353118347
H       1.8270551666      3.7260251262      0.3614776486      0.1979508542      0.2854735145      0.1024090463      0.0442323681
H      -5.1170634006      0.7247088333      1.4418683643      0.0466542562      0.2734340624      0.2040823006      0.0185446841
H      -5.3649651265     -1.0070840482      1.7305403859     -0.0399277760     -0.2458203786      0.2400192768      0.0361000385
H      -6.4200934326     -0.1358041124      0.6074477317     -0.3512200268      0.0616172956     -0.0007307941      0.0390388052
N      -2.7710764130     -5.8444741119     -1.4430517014     -0.0163358397      0.1009038651     -0.1882554179     -0.8361631984
S      -2.1859908399     -6.7193436644     -2.6694659206      0.0422443627     -0.2376005205      0.3612257310      1.6258580221
S      -3.3858546004     -4.4305108163     -1.8296088616      0.2230995533      0.0975928717      0.4784368202      1.5888287046
C      -0.3906312732     -6.1923658393     -2.8000509032     -0.9286876724     -0.0438302647      0.3196840002      1.1964099717
C      -5.0228484222     -4.6624931591     -2.7345054291      0.7748382525     -0.0763102052      0.3291207962      1.2154320080
O      -2.0891193237     -8.0776565460     -2.2197923566      0.2702784352     -1.1598500182      0.5014567658     -0.7250408273
O      -2.7657527504     -6.4387436817     -3.9554147903     -0.4186708133      0.4777364364     -1.1208349402     -0.7341255109
O      -2.5837224628     -3.6083764198     -2.7313539563      0.2734576864      0.3445927092     -0.6932589389     -0.7809796113
O      -3.7608616670     -3.7856819046     -0.5811453355     -0.4407368286      0.2561257106      0.8239714941     -0.7883091101
F       0.2983020124     -7.0629034026     -3.5143505210      0.6343303844     -0.9743971725     -0.8199104517     -0.4321232818
F       0.1414218599     -6.1381998610     -1.5739054998      0.5854533057     -0.1311640133      1.1918269445     -0.4691799135
F      -0.2434774490     -4.9882904900     -3.3450915710      0.0983296085      1.1362189023     -0.7196473438     -0.4627395630
F      -5.9081351906     -3.8267981063     -2.2058116306     -0.9539958500      0.9418769269      0.5276788599     -0.4428276529
F      -5.4612818134     -5.8968910526     -2.5901506149     -0.5140125292     -1.3430519699      0.1621277272     -0.4293376685
F      -4.8899593320     -4.3819249874     -4.0139865672      0.1295493553      0.2921543635     -1.3821303416     -0.4238834158
