53
Properties=species:S:1:pos:R:3:forces:R:3:charge:R:1 energy=-302.57914559768625 homo_lumo=2.965410700138627 dipole="-2.288247953781424 0.938489105230061 -0.6209824292294831" free_energy=-302.57914559768625
N       2.9160078737      0.1944663343     -1.0305309099     -0.0008036321     -0.0016983447     -0.0016055173     -0.4943980788
N       2.3310794291     -1.8631252578     -1.3754406786     -0.0022937039     -0.0016406798      0.0108668989     -0.5008910132
C       1.9374892067      2.3533433034     -0.3230144524     -0.0020676773     -0.0010431859     -0.0091198343     -0.1745658273
C       3.1724164102      1.4505598918     -0.3332725975      0.0039517737      0.0011402980      0.0080572194     -0.0005656834
C       0.6477544449     -3.3363777782     -0.3431546074      0.0005300761      0.0075544040      0.0108422595     -0.1890568163
C       1.9736827058     -3.2531676009     -1.0972245386     -0.0015453611     -0.0000486984     -0.0010573079     -0.0014217307
C       0.7066740570      1.7045811365      0.3082012673      0.0036481163     -0.0080028929     -0.0009885183     -0.2174675095
C      -0.5067226321     -2.6589031192     -1.0799002205      0.0022420889     -0.0023784753     -0.0061815082     -0.1927443417
C      -0.5280270540      2.6054975124      0.2897499308      0.0037414441     -0.0048539572     -0.0023350705     -0.1596023860
C      -1.7954517949     -2.5920020975     -0.2623965892      0.0048682029      0.0055979215     -0.0000207100     -0.1711397412
C       2.5958312116     -0.9571230440     -0.4234777657     -0.0088177026      0.0019040040     -0.0054981578      0.6007265166
C       2.9151390090     -0.0006355298     -2.3978418315      0.0016950214      0.0033979482     -0.0073418240      0.2006001080
C       2.5573662607     -1.2966111550     -2.6115464202     -0.0065108465      0.0088985978     -0.0024394216      0.2226037089
C      -1.7684071888      1.9224365757      0.8670699136      0.0032504638     -0.0012584381     -0.0059266534     -0.2543769018
C      -2.9165164906     -1.8449787856     -0.9844730834      0.0056143781      0.0020338249      0.0024952116     -0.2199513872
C      -3.0119513564      2.8080364040      0.8278094633     -0.0073685634     -0.0160338515      0.0051333145     -0.0713583375
C      -4.1936331890     -1.7345706577     -0.1552729114     -0.0026641189      0.0125539522     -0.0118897180     -0.0752999122
H       2.2030486674      3.2756810512      0.2233698841     -0.0020257565     -0.0024054587     -0.0059081252      0.0973933460
H       1.7024392907      2.6567933394     -1.3598012210      0.0035294191     -0.0018412330      0.0051500418      0.0969093206
H       0.7723428445     -2.8813052321      0.6560598659     -0.0011574273     -0.0012813779     -0.0029417326      0.1082341370
H       0.4229899807     -4.4023977541     -0.1664058353     -0.0009772845     -0.0015878412      0.0007390298      0.0985431943
H       4.0268064397      1.9349282038     -0.8300906252     -0.0029806172      0.0025539826      0.0029300373      0.1162374391
H       3.4969581735      1.1821308709      0.6836661099     -0.0128878985     -0.0083105643      0.0009929505      0.1275263970
H       2.8073701344     -3.6950316888     -0.5283346070     -0.0038976730      0.0003294246      0.0104448564      0.1539172390
H       1.9079395044     -3.7615667555     -2.0702235777      0.0039744537      0.0043817167      0.0067558193      0.1007680729
H       0.9366627958      1.4147624549      1.3513707717     -0.0062554967     -0.0049335362     -0.0060302766      0.0840392961
H       0.4666982602      0.7711575604     -0.2327741950      0.0006380700      0.0017876851     -0.0017076946      0.1562562642
H      -0.6969035278     -3.1887359637     -2.0330110680     -0.0039251070      0.0114354410      0.0023289840      0.0770979203
H      -0.2101627619     -1.6293128490     -1.3532049879     -0.0019822167     -0.0015662551      0.0005656391      0.1369462190
H      -0.3206961654      3.5332944814      0.8557162923     -0.0029424178     -0.0079427872      0.0000869298      0.0838995076
H      -0.7353866646      2.9175341383     -0.7515006302     -0.0013207118     -0.0056021725      0.0008128656      0.0844505072
H      -1.5871270377     -2.0893100863      0.7014312939      0.0002269088      0.0073870322     -0.0050149478      0.0955482513
H      -2.1337077586     -3.6150376980     -0.0112513176      0.0002717796      0.0096386383      0.0008132183      0.0850332114
H       2.5210993097     -1.1110656822      0.6405936465      0.0032884910     -0.0017949923     -0.0109936339      0.0971665612
H       3.1971547840      0.7819879760     -3.0900432845      0.0023521625     -0.0015648305      0.0045389840      0.0349121276
H       2.4828808713     -1.8701881511     -3.5256197096     -0.0043192266     -0.0037268170      0.0030139279      0.0340732669
H      -1.9598581589      0.9914497247      0.3029544783     -0.0051511385     -0.0048830005     -0.0029629461      0.1534667700
H      -1.5613595860      1.6171446367      1.9092916244     -0.0033234569     -0.0069574477     -0.0027862633      0.0782056416
H      -3.1345396709     -2.3527511638     -1.9421181356     -0.0031167104      0.0008847420      0.0016107790      0.0816385559
H      -2.5583046363     -0.8326224990     -1.2483784781     -0.0032684990      0.0068840509     -0.0027273049      0.1010988890
H      -2.8592270638      3.7319156080      1.4085472349      0.0087223288      0.0038077838      0.0007112179      0.0344211163
H      -3.2558770546      3.0997851629     -0.2063800213      0.0035358935      0.0019944694     -0.0097323141      0.0315606564
H      -3.8896326755      2.2912211504      1.2461937972      0.0153086944     -0.0065745447     -0.0072208554      0.0445615996
H      -4.9831430832     -1.1921148724     -0.6984843373      0.0175012387      0.0019411445     -0.0001041920      0.0369367784
H      -4.0043938900     -1.1983530500      0.7886599353      0.0054937615      0.0081387763      0.0070875038      0.0443827553
H      -4.5863824477     -2.7319866422      0.0995740097      0.0042444119     -0.0021890899      0.0069193084      0.0366865140
C       5.4022206113     -2.0726563321     -0.1036554791     -0.0071457126      0.0026163842     -0.0122905773      0.8740955942
O       4.6201413854     -1.7896450234      0.8533813387     -0.0071447631     -0.0045433379     -0.0156074512     -0.8122831669
O       5.2806284753     -1.9094595996     -1.3333701860     -0.0154471853      0.0059257787      0.0178892333     -0.7781926917
C       6.7298350191     -2.7496098869      0.3883379042      0.0022404517     -0.0007477479      0.0045912563      1.2873615578
F       6.4677177048     -3.8880527434      1.1133405415      0.0214602154      0.0103806927      0.0128179764     -0.4644664918
F       7.4463412326     -1.9095429267      1.2051773469      0.0051274563     -0.0238562631      0.0111853984     -0.4622456887
F       7.5642717920     -3.1170800580     -0.6247151621     -0.0061163969      0.0060991275      0.0010516949     -0.4572713345
