36
Properties=species:S:1:pos:R:3:forces:R:3:charge:R:1 energy=-196.25786817488537 homo_lumo=3.2846668276446267 dipole="-0.6067490335122591 0.8193672852891013 -1.8991459437587181" free_energy=-196.25786817488537
N       0.0187009699      0.2544865940      0.3609410160     -0.0544524457     -0.0024239907     -0.1446744950     -0.5060530204
C      -0.8414486172      0.4203562016      1.5946074745     -0.5536991705     -0.2282030501      0.2957282201     -0.1039021396
C      -0.8073202938     -0.0583112307     -0.8525499355     -0.4150928459      0.3104108610     -0.2041227687     -0.0618387808
C       0.9786962182     -0.8820606634      0.6072753250      0.5940273061     -0.2475097439     -0.4791856555     -0.1094791789
C       0.7590246327      1.5458542574      0.1246929407      0.4623110128      0.2766611904      0.2489584492     -0.0658538868
C      -1.8441203693     -0.6941913333      1.8454029818      0.2829616807      0.1924571863     -0.4284539522     -0.0822588005
C      -1.8997501936      0.9543397103     -1.1665917390      0.3422517115     -0.2420166390      0.1502393776     -0.0741087829
C       1.9332801030     -1.1807820812     -0.5360281451     -0.4542307366      0.2243583082      0.1116184569     -0.0835941193
C       1.8399858568      1.8675586061      1.1476325613     -0.3989455507     -0.0528133312     -0.3150423720     -0.0718483311
H      -0.1431875028      0.4629549488      2.4387978015      0.3632833382     -0.0566367881      0.1884843137      0.2504304287
H      -1.3581069277      1.3788888079      1.5010362466     -0.0420596435      0.2617520809     -0.1508971851      0.0901522993
H      -0.1224624154     -0.1173497617     -1.7011798579      0.1895328635     -0.0693495791     -0.0943273182      0.1463240447
H      -1.2453097501     -1.0461355412     -0.6949991668     -0.0015216514     -0.2348070698      0.0861624534      0.1419611946
H       1.5307558136     -0.6208064640      1.5135517717     -0.1293813023      0.0561381079      0.3507045733      0.2473995103
H       0.3799343672     -1.7641183531      0.8346507162     -0.1194947602     -0.0449921889      0.2140693407      0.1667625370
H       1.1959347203      1.4917038911     -0.8762168980     -0.0008534034     -0.0603409698     -0.2600042782      0.1182668285
H       0.0105661967      2.3416786908      0.1274391877     -0.2087640980      0.0754597972     -0.0431371349      0.1379256729
H      -2.3695152202     -0.4415315329      2.7661355767     -0.1549686167      0.0181036601      0.2919095913      0.0587372226
H      -2.5784746915     -0.7970624470      1.0471254691     -0.3512904628      0.0489801204     -0.2296622224      0.0133807135
H      -1.3363007077     -1.6436082798      2.0041389339      0.1950898282     -0.2312267921      0.2509302766      0.0913020219
H      -2.4406486890      0.5951482329     -2.0422525376     -0.1792038598     -0.0605662953     -0.2605292301      0.0624877300
H      -2.6088505884      1.0573262647     -0.3480759854     -0.2509402141      0.0278543369      0.2297253906      0.0600856038
H      -1.4858443301      1.9335593124     -1.4013463493      0.0673273425      0.2999602661     -0.1188341004      0.0451402543
H       2.6287390700     -1.9402882887     -0.1786324781      0.2089300573     -0.2229027858      0.1004198215      0.0723969608
H       1.4210248565     -1.5799504214     -1.4114457887     -0.0515588091     -0.1564496852     -0.3154202541      0.0220382775
H       2.5117974338     -0.3070211402     -0.8324746278      0.2694161472      0.2379031498     -0.1158606981      0.0358286919
H       2.1631150050      2.8937564147      0.9719141954      0.1171829067      0.3233742994     -0.1001420099      0.0381565833
H       1.4726508749      1.7818422587      2.1674932288      0.0018434753     -0.0964591250      0.3413796738      0.1053239563
H       2.7010018356      1.2115972902      1.0414298744      0.2668705910     -0.1820339826      0.0496906751      0.0521456876
C       1.5521524248     -1.5762282627      5.3024440159     -0.1259612058      0.0440624649     -0.5062853205     -0.0762783506
C       1.1374438596     -1.1701631691      3.8696803186      0.2107650939     -0.5619683159      1.0732832785      0.9156565540
O       0.5021310527     -2.0045112367      3.1978413716     -0.6598656319     -1.0005672467     -0.4510595991     -0.8329171093
O       1.4781086629     -0.0179067091      3.5021498105      0.4057334098      1.3472643357     -0.2742436598     -0.8654950047
H       1.0434215208     -0.9252225771      6.0126067013     -0.0896284594      0.2237212155      0.2843387273      0.0214588861
H       1.2843299793     -2.6128386535      5.4964061965     -0.0775969067     -0.3105906946      0.0958588240      0.0182206373
H       2.6266399113     -1.4403953016      5.4164488651      0.3419830097      0.0933968928      0.1283808104      0.0220452080
