36
Properties=species:S:1:pos:R:3:forces:R:3:charge:R:1 energy=-206.60032564398654 homo_lumo=2.3516966072007657 dipole="-1.4748241843104848 -1.0745390908355879 -1.595288981298404" free_energy=-206.60032564398654
N       0.7804355285     -0.1873829160      1.1296266375     -0.0016911912      0.0001754927      0.0039612118     -0.4884856705
C       1.4841783764      0.1374075179     -0.1351058961      0.0031451166      0.0027955057     -0.0031990234     -0.0109552170
C       2.7766684457      0.8980224575      0.1275880063     -0.0000576975     -0.0009005216      0.0083239648     -0.2744760168
C       3.4961713659      1.2162775154     -1.1778554143      0.0082499587      0.0031920670      0.0154462322     -0.0755394527
C      -0.0919669493      0.7005820899      1.6515847921     -0.0020258888     -0.0033781427      0.0052502262      0.2954736108
C       1.1071467116     -1.3177024884      1.7925258037     -0.0063089721      0.0005434219      0.0033218656      0.2986477597
C      -0.7201747523      0.4395506052      2.8526468994      0.0031052990     -0.0075961914      0.0069478981     -0.0057862399
C       0.5048216403     -1.6203362749      2.9960306199     -0.0070444060      0.0070973978      0.0048291793     -0.0103472427
C      -0.4272758344     -0.7380527734      3.5316182956      0.0064406002      0.0048324073     -0.0018264911      0.0465767747
H       1.6698292057     -0.8178468320     -0.6507274015      0.0012942434      0.0081460907     -0.0018846250      0.1134756111
H       0.7825936125      0.7221937589     -0.7500372349      0.0075503840     -0.0009350803     -0.0008495294      0.1132998931
H       3.4165032645      0.2953655252      0.7926615775     -0.0013116369      0.0037360540     -0.0048704855      0.1608388726
H       2.5400915221      1.8200566597      0.6806826154      0.0029168479     -0.0023405098     -0.0052145074      0.1721367699
H       3.7674723677      0.2994532675     -1.7243385838      0.0008550580     -0.0087981674     -0.0091961112      0.0339938827
H       4.4237506419      1.7685026534     -0.9669636126     -0.0113929530     -0.0080925690     -0.0064340671      0.0695020180
H       2.8761094834      1.8409920922     -1.8401025295     -0.0059127655      0.0007994022     -0.0128833004      0.0330982921
H      -0.2409421229      1.6204871907      1.0921167261     -0.0004528800      0.0047626350      0.0050540970      0.1062701337
H       1.8678780932     -1.9444523681      1.3349211704      0.0042025356      0.0000827918      0.0066489662      0.1059384182
H      -1.3997543510      1.1852339228      3.2624881233      0.0032341844      0.0017213986      0.0032434160      0.0693285197
H       0.8021551139     -2.5276318082      3.5196267491      0.0040808472      0.0046293065      0.0041220523      0.0691966848
H      -0.8981612887     -0.9524095553      4.4914816136      0.0012899203      0.0016355099      0.0114939322      0.0667467066
N       2.4509030726      1.0734197455      3.3420282966      0.0081462900      0.0021539072      0.0040544081     -0.8996329593
S       2.1105496364      2.5739738842      3.8279379929      0.0115118143     -0.0131480329     -0.0038227926      1.6321274778
S       3.6429202387      0.1631388808      3.9190670851     -0.0123284291      0.0155897183     -0.0006881094      1.6295839043
C       3.5510076125      3.7109689096      3.3354589032     -0.0132244208     -0.0040012777     -0.0122301895      1.1764569216
C       3.1486496316     -0.4211964448      5.6580148675     -0.0098454294     -0.0104570185     -0.0163990758      1.1729063895
O       1.0312796798      3.0241622460      2.9416908935     -0.0009116004      0.0149455530     -0.0195612200     -0.7698342036
O       1.9890374708      2.7467447954      5.2692172158     -0.0034868833      0.0088062162     -0.0019593482     -0.7188659522
O       4.9141085425      0.8413308491      4.1245147417      0.0058162889     -0.0024420797      0.0044381069     -0.7172889532
O       3.5972958068     -1.0782106961      3.1370664066     -0.0007157659     -0.0219381341      0.0017553004     -0.7722256274
F       3.0781437769      4.9803781151      3.2772783692     -0.0026481020     -0.0003014653     -0.0091399613     -0.4353628140
F       4.0254898117      3.3765798584      2.1056550982      0.0223100494      0.0009685262     -0.0051376755     -0.4509955482
F       4.5568902428      3.6716543259      4.2222611139      0.0127217249     -0.0015195105      0.0053779103     -0.4218773916
F       3.8384855645     -1.5535731134      5.9430062415     -0.0066831624     -0.0050545460      0.0009193790     -0.4363744229
F       1.8178279778     -0.7164928019      5.7138689982     -0.0125136102     -0.0040880138      0.0171963399     -0.4561202671
F       3.4268201169      0.4988178817      6.5946054769     -0.0083153682      0.0083778587      0.0029120261     -0.4214306618
