41
Properties=species:S:1:pos:R:3:forces:R:3:charge:R:1 energy=-235.16161632037964 homo_lumo=1.7067615929250897 dipole="-1.0587015947984126 -2.1951915183384036 -0.5869437825924058" free_energy=-235.16161632037964
N      -0.9661767299      1.1734571114     -0.4713767631     -0.0071038863     -0.0000989862      0.0061962437     -0.5055686938
N      -2.5552889258     -0.1392949645      0.2095963192      0.0026510216     -0.0027635335      0.0067265002     -0.5259955875
C       1.4355888590      1.6731463806     -0.7528171581      0.0005397957     -0.0015669026      0.0102395741     -0.2073412192
C       1.8661300231      0.2221330396     -0.5677341172     -0.0000715201      0.0071161048      0.0057739809     -0.1761401029
C       0.0315492648      1.8454691440     -1.3178792089     -0.0024154187     -0.0026204264     -0.0162862504     -0.0217384418
C       3.2669204543      0.0969298362      0.0282405417     -0.0081025716     -0.0139629484     -0.0022149690     -0.1619744398
C       3.6978986522     -1.3521497920      0.2400538960      0.0049819061     -0.0054400057      0.0005093378     -0.2013025040
C      -1.7818059259      0.1819438475     -0.8433834865     -0.0043699848     -0.0076361019      0.0060752218      0.5664129681
C      -1.2052713819      1.5153615047      0.8456950858      0.0057662973      0.0046155979     -0.0036756387      0.1684052057
C      -2.2088471895      0.6849109135      1.2669969876      0.0054826679     -0.0048911020     -0.0122408555      0.1722833160
C      -3.6754211052     -1.0812888076      0.1841187637      0.0073902002     -0.0097696808      0.0026684906     -0.0488360699
C       5.0989198630     -1.4759801318      0.8329875580      0.0038193810     -0.0035824373      0.0011206251     -0.0645872692
C      -4.9842488763     -0.3839863773     -0.1550478391      0.0005532494     -0.0051330628      0.0006677999     -0.0849661973
H       2.1239042908      2.1908081184     -1.4435222748      0.0002863478      0.0134655785     -0.0002653795      0.0880306992
H       1.4816002216      2.2224442425      0.2043762236      0.0042102565      0.0019571545      0.0103543908      0.1682477292
H       1.8309454115     -0.3128624204     -1.5370148774     -0.0027812540      0.0060151330     -0.0086937001      0.0625235154
H       1.1502562551     -0.2916111325      0.1010212341     -0.0033947579     -0.0053860243      0.0079456386      0.1069613708
H      -0.2555618392      2.9198109723     -1.2802640896     -0.0023364001      0.0009914961     -0.0029507631      0.2015801387
H      -0.0692041999      1.4159930251     -2.3271563369      0.0049055191      0.0112229314     -0.0062939680      0.0581081097
H       3.2974165090      0.6361510948      0.9928301715     -0.0053681681      0.0014693664      0.0005512361      0.0986206468
H       3.9953768756      0.6040121036     -0.6319442768     -0.0055496789     -0.0042275965     -0.0067646763      0.0850852775
H       3.6551813604     -1.8886225851     -0.7259118984      0.0001921657     -0.0032870647     -0.0021218840      0.0772504070
H       2.9694040830     -1.8516120303      0.9048583113     -0.0079920144      0.0004500420      0.0004373634      0.0788439265
H      -1.8224036059     -0.2824688891     -1.8203357596      0.0099560961     -0.0014520383      0.0010374756      0.0795164938
H      -0.6287835967      2.3831353772      1.3094189215     -0.0053086045      0.0165087972     -0.0024746430      0.1759673857
H      -2.7073084563      0.6117363146      2.2262022569     -0.0115182131     -0.0014907517      0.0012494417      0.0296809179
H      -3.4340381976     -1.8675700549     -0.5467160565      0.0065839272      0.0044244827     -0.0118250812      0.1100363528
H      -3.7167271292     -1.5603352466      1.1739772290      0.0009304495      0.0050234112      0.0087675664      0.1179202748
H       5.1578613130     -0.9722325224      1.8113561065     -0.0035456731     -0.0020383221     -0.0047928617      0.0366800545
H       5.8477499583     -1.0091496893      0.1729207583      0.0009117188     -0.0033271324      0.0002766358      0.0334316022
H       5.3831852512     -2.5295324463      0.9762569866      0.0150138445     -0.0058987679      0.0070947531      0.0325091009
H      -5.2038557891      0.4082051949      0.5751832194     -0.0034065183     -0.0018636592     -0.0052349404      0.0732497289
H      -5.8103292691     -1.1102312567     -0.1433245718     -0.0003571251      0.0048828495     -0.0012935967      0.0567476795
H      -4.9327083402      0.0728414327     -1.1544745610     -0.0059757370      0.0054523630      0.0081791742      0.0655269292
C       0.1926296024      6.0901183061      1.2596904271      0.0008472320     -0.0028772171      0.0020183730     -0.0985881394
C      -0.1334154025      4.6446396033      0.8687617868      0.0072448893      0.0223288145     -0.0066856455      0.9050503681
O      -0.7400139925      4.4593367314     -0.2257941906      0.0031358689     -0.0051044497      0.0054888532     -0.8189463836
O       0.2293911717      3.7465088346      1.7035578989      0.0032055940     -0.0124614662     -0.0109173267     -0.8346268786
H       0.1088796628      6.7598307331      0.3930479821     -0.0034826296     -0.0015709281      0.0131329344      0.0284209417
H      -0.5181241114      6.4209750510      2.0339686398      0.0013243416     -0.0008882166     -0.0025580526      0.0408233803
H       1.2001866034      6.1494910720      1.6970217626     -0.0068526150      0.0034146997      0.0007786219      0.0326974059
