25
Properties=species:S:1:pos:R:3:forces:R:3:charge:R:1 energy=-130.72176451631452 homo_lumo=0.8369796178899107 dipole="1.062259839545834 -1.3863935444669153 4.017319677506203" free_energy=-130.72176451631452
N       0.1722794933      0.2800241139     -0.0478396581      0.5209389652      0.3618233741      0.1217557497     -0.5552279129
C      -0.4382492024     -1.0124276781     -0.4610439026     -0.4553071221     -2.2365933697     -0.6014308837     -0.0061522704
C      -0.9248667049      1.0488201390      0.6145310920     -1.4927568118      1.6734855598      1.0594575479      0.0184643656
C      -1.9421832585     -0.8303817823     -0.4574511438     -0.4586127617      0.0008507279     -0.8229911187     -0.1442665283
C      -2.1710058994      0.1759541027      0.6383919050     -0.4196565500     -0.1350456137      0.7070511571     -0.1493091132
C       1.2911354034      0.0735045140      0.9217931254      1.4101364048     -0.4796558881      0.9335066820     -0.0706258156
C       0.6459046786      1.0282387588     -1.2411270662      0.5468489846      0.7269749405     -1.2458602072      0.0026717944
C       2.4741332743     -0.7441137815      0.3744646902     -0.1238791032      0.1303451310     -0.1952291189     -0.1145970762
H      -0.2046115822     -1.8262484437      0.2641396321      0.2877755015      0.6065793106     -0.0464991767      0.1350949255
H      -0.0910524734     -1.3589691334     -1.4616754579      0.1554501296      0.4493936205      0.4400467923      0.1566993299
H      -1.1725181458      1.9914006583      0.0718123093      0.5835505777     -0.5118650629     -0.1414532571      0.1592710473
H      -0.6765596188      1.3610891510      1.6554682434      0.3906736519     -0.2486395560     -0.5361761540      0.1273224478
H      -2.4758442103     -1.7849069329     -0.2564644767      0.2401620966      0.2982655169     -0.2815495628      0.0975078581
H      -2.2761140242     -0.4114212087     -1.4326275128      0.0630951377     -0.1994543965      0.1650114771      0.1345944010
H      -3.0971464076      0.7656649624      0.4655708552      0.3373739213     -0.1506362079      0.2260679870      0.1078904447
H      -2.2427431536     -0.3490926525      1.6173557298     -0.0942422179      0.2239703090     -0.2297798925      0.0909518011
H       1.6866483433      1.0574543725      1.2631464016     -0.4571563521     -0.1681939229     -0.3228892168      0.1499324877
H       0.9118639411     -0.4475025393      1.8312247468     -0.2859089939      0.2269542091     -0.4523519858      0.1337620773
H       1.3860658907      0.4424910289     -1.8266730116     -0.3439719774      0.0694566957      0.3892604371      0.1210333408
H      -0.1984583460      1.2537879645     -1.9300798693      0.0013629357     -0.0998165977     -0.0604136796      0.1449378997
H       1.1173268311      1.9915398484     -0.9431571057     -0.2807042063     -0.4241399200      0.1187094917      0.0968009247
H       3.1789526848     -0.9601213052      1.2048385792     -0.2818285716      0.0988375582     -0.1964174893      0.0881183209
H       2.1419472428     -1.7129072693     -0.0508291805      0.1494820904      0.2614306434      0.0927135752      0.0756089879
H       3.0336905083     -0.1724956738     -0.3938389077     -0.1593889979     -0.2572130828      0.1746666651      0.0794790277
Cl     -1.2021695661      1.8009277582     -4.7938088058      0.1665632689     -0.2171139789      0.7047941807     -0.8799627653
