46
Properties=species:S:1:pos:R:3:forces:R:3:charge:R:1 energy=-254.13705415699974 homo_lumo=0.8801873222257899 dipole="1.244689246448035 4.956111342936292 -1.2621470461517528" free_energy=-254.13705415699974
N      -1.8908833191      0.1559402301     -0.0464995523      0.2199201550      0.2653191386     -0.0037736431     -0.5245037560
C      -2.1098307175     -1.0369768409     -0.9186682927      0.0978266403     -1.9953741430     -1.5401765245     -0.0292984471
C      -3.0176461495      0.1248031218      0.9379778272     -1.7876955232      0.4826888193      1.6945361448     -0.0114740533
C      -0.5868865680      0.0349470143      0.6833391201      1.5976462075     -0.0181547178      0.3978756658     -0.0490678213
C      -3.5183631803     -1.5393031111     -0.6772534324     -0.5734651888      0.0431966539     -0.6370555016     -0.1345781895
C      -3.7689730685     -1.1820471917      0.7606507998      0.0200352616     -0.6226373672      0.6745564168     -0.1472262331
C      -1.9669532259      1.3994638294     -0.8804596164      0.0319932327      1.5787493139     -0.6708629482     -0.0794106084
C       0.6646638292      0.0539581563     -0.2269570378     -0.4374925374      0.0238383994      0.1344122930     -0.2120059440
C      -1.7071498031      2.7046118622     -0.1073758689      0.1084568004     -0.2280622447      0.1095007355     -0.1190227445
C       1.9353452815     -0.1924449244      0.5960246932     -0.1643361078     -0.0043678876     -0.1531391782     -0.1712921557
C       3.1839743346     -0.2039296116     -0.2946939730     -0.0427431169     -0.0299561419      0.4244687086     -0.1701409477
C       4.4531634267     -0.3848166003      0.5461463153      0.0626137544      0.0059557373     -0.2269426477     -0.2094095480
C       5.7009799327     -0.4155804042     -0.3316827327      0.2369430992     -0.0278817455      0.1095254697     -0.0852126931
H      -1.4215001317     -1.8756165235     -0.6615804934     -0.0470105750      0.6192057060      0.2429127378      0.1788859506
H      -1.9616709523     -0.8259481855     -2.0023676183      0.2119235817      0.3074917210      0.5825107936      0.1291603702
H      -3.7529562583      0.9442392450      0.7653123642      0.7121994704     -0.0196361526     -0.2745360345      0.1382223903
H      -2.6827841176      0.2250061943      1.9960262281      0.2854563043      0.1371976949     -0.6148618023      0.1364621316
H      -0.5776196497     -0.9122531265      1.2719922266     -0.4161913279      0.2469104472     -0.3861769872      0.1772648863
H      -0.4859916326      0.8492415034      1.4347950928     -0.3468593043     -0.1243449666     -0.3785667420      0.1539898615
H      -3.6077292280     -2.6316999971     -0.8549975254      0.0872226251      0.1865065090      0.0631899914      0.1555899496
H      -4.2327105043     -0.9940991299     -1.3333031126      0.1297939119     -0.1949883410      0.0822590596      0.0754499039
H      -4.8546844425     -1.0718264761      0.9727190883      0.4664732509     -0.0635757004      0.1414034319      0.0920250048
H      -3.3334516270     -1.9612183546      1.4255755933     -0.2826599123     -0.0149741874     -0.2393954177      0.1562015377
H      -1.2477164771      1.3542993765     -1.7273160748     -0.1169099091     -0.3845790837      0.4343037559      0.1556502420
H      -2.9730137417      1.4765159973     -1.3539482308      0.2577112149     -0.4998995818      0.3713746118      0.1566640834
H       0.5853789272     -0.7254806108     -1.0134454259     -0.0167264478      0.1956833024      0.1340726437      0.1251769156
H       0.7628034497      1.0419348130     -0.7224151717     -0.0666006344     -0.2146826525      0.0007643426      0.1162438203
H      -1.9541962007      3.5683495669     -0.7597781500      0.0401307001     -0.3154741331      0.1605990768      0.0856420485
H      -2.3309684209      2.7730612919      0.8066153161      0.1781913203      0.0435084590     -0.2402707058      0.0725534980
H      -0.6380502057      2.7958629819      0.1731243256     -0.3195884651      0.0132019668     -0.0076379943      0.0748963056
H       1.8532441683     -1.1701086588      1.1200510759      0.0317188557      0.2727575487     -0.0200854544      0.1106023268
H       2.0348376712      0.6103964433      1.3597047225      0.0081817974     -0.2496304713     -0.0771470552      0.0927772932
H       3.2486019150      0.7547513277     -0.8553398998     -0.0068338608     -0.2431101404      0.0235718664      0.0854992748
H       3.1037116561     -1.0375087317     -1.0270626335      0.0303911647      0.2495651489      0.0851285364      0.0971161104
H       4.5451735228      0.4546825820      1.2695258216     -0.1146977580     -0.2461384186     -0.0570527426      0.0881899447
H       4.3928493390     -1.3367324280      1.1175009991     -0.0700227479      0.2811826778     -0.0214357260      0.0988293353
H       5.7960886022      0.5328966676     -0.9019620550      0.0483593793     -0.3028717039      0.0799782338      0.0379847739
H       6.6007860156     -0.5365735434      0.3076686526     -0.1367465055      0.0344850350     -0.3155671248      0.0507831444
H       5.6527469176     -1.2685566765     -1.0415638137      0.0965333767      0.2825591424      0.1330284222      0.0447047696
C      -3.1588699384     -5.7069344401      1.3798651372      0.8136402507      1.0706221916      1.1992042858      0.8334729860
O      -2.7108988140     -5.5399595463      2.5029963869      0.6229488949     -1.4284975270      3.5879798427     -0.7744763083
O      -3.0808178291     -4.8067496951      0.5600782195     -0.8151325119      2.1533766880     -4.5583390427     -0.8482687174
C      -3.8006355763     -7.0079985936      1.0004167976      0.1636579300     -0.0156529997      0.3333941842      1.2392252305
F      -5.1147021487     -6.7854973133      0.6333232614      0.1945854549     -0.7015840455     -0.0275694420     -0.4680246240
F      -3.7734931231     -7.8929144065      2.0641631527     -0.4006409104     -0.1248789454     -0.9948038648     -0.4590592746
F      -3.1193613751     -7.5648567647     -0.0657387404     -0.5922012908     -0.4230490024      0.2448453288     -0.4667920232
