44
Properties=species:S:1:pos:R:3:forces:R:3:charge:R:1 energy=-241.34110661630874 homo_lumo=6.160904986002318 dipole="-1.2227086335824735 -1.0967518635945497 -2.029574884554717" free_energy=-241.34110661630874
N      -0.5136283104      0.7177045552     -0.2738733517     -0.1884830630      0.0560711252     -0.2691325643     -0.5012802633
C      -1.1652443673     -0.4199341382     -0.9998297186     -0.0164495403     -0.5944324147      0.1775803531      0.0044376225
C      -1.4366091059      1.1810385781      0.8231798895     -0.1933936248     -0.1478249662      0.5822752079     -0.0452640980
C       0.8066742129      0.3254093164      0.3222031692      0.3923147362     -0.2775403313     -0.4908094612     -0.1265231009
C      -0.3503138460      1.8342856048     -1.2781836076      0.1477224487      0.5453515008      0.0671705939     -0.0029817330
C      -1.5133032055     -1.5816864432     -0.0768400569     -0.3029070007      0.4151809194     -0.0246231867     -0.1620871017
C      -1.8572294956      0.0656049054      1.7709534766     -0.1378453861     -0.2104685235     -0.5171529873     -0.1647661135
C      -2.4659001550     -1.1180110245      1.0239483784      0.4141585105      0.0938503184      0.0238480322     -0.1459705748
C       1.8215985887     -0.2746324757     -0.6432043027     -0.1346915628      0.1687653572      0.5241714992     -0.2250609587
C       0.3003525548      3.1331110686     -0.7836724429      0.2352747036     -0.3801457826     -0.2790386680     -0.2481117432
C       3.1472318863     -0.4451308584      0.1134366338     -0.0118625746     -0.0451362675     -0.6314241181     -0.2120757424
C       1.8112485755      3.2195122653     -1.0013204198     -0.3522467732     -0.0756908586      0.0787225790     -0.0933351407
C       4.2527175247     -0.9456885987     -0.8115977186     -0.2891664316      0.0859736938      0.3309959908     -0.0461285966
H      -0.4905326770     -0.7421829930     -1.7951522614      0.1672083784      0.0305914837     -0.2067226022      0.1284145245
H      -2.0781406740     -0.0260705811     -1.4567041476     -0.1875200227      0.1541497027     -0.0958108580      0.1191466097
H      -2.3132315399      1.6159418964      0.3340839264     -0.1921972997      0.0839143623     -0.2370841669      0.0894389147
H      -0.9133524234      1.9517185705      1.3917191117      0.1155280049      0.1844753506      0.0491398195      0.2409686081
H       0.6095452260     -0.3800975048      1.1282577989     -0.0430571948      0.0315271893      0.1498964289      0.1811942992
H       1.2133308993      1.2279944749      0.7733585626      0.0357023871      0.0281437067      0.0693633345      0.3094415498
H      -1.3609533038      2.0557045322     -1.6327449369     -0.2640071166     -0.0949672741     -0.0374616451      0.1117892734
H       0.2154746818      1.4236837089     -2.1189266692      0.0775119245     -0.1431775283     -0.1663762445      0.1226716208
H      -0.6079006757     -2.0101738796      0.3595389620      0.2591184848     -0.1573950740      0.0772462648      0.1069316704
H      -1.9893012773     -2.3555147672     -0.6853023665     -0.0328344964     -0.2420923204     -0.1983652556      0.0913415199
H      -2.5960659434      0.4918320885      2.4544932515     -0.0868793445      0.1753184912      0.2480651341      0.0985021115
H      -1.0044765156     -0.2553554298      2.3729605744      0.1351647338      0.0510872345      0.1914382580      0.1412966731
H      -3.4225350504     -0.8257747013      0.5772133220     -0.2893939384      0.0337886068     -0.1338078912      0.0712243433
H      -2.6523329594     -1.9393903192      1.7196431908     -0.1543516271     -0.2220029825      0.1690690633      0.0792306080
H       1.9795805620      0.3788575229     -1.5051999463      0.1009130805      0.1603424034     -0.2389320237      0.1135176314
H       1.4862144309     -1.2485910545     -1.0139742894     -0.0438345455     -0.2841088380     -0.1519893408      0.0784838157
H      -0.1755924886      3.9370814516     -1.3551747680     -0.1851419415      0.1702092143     -0.1193652633      0.0776215671
H       0.0829199745      3.3148624297      0.2693350192     -0.1105451800      0.0848798542      0.2510443701      0.1767737254
H       3.0035557150     -1.1550692354      0.9337732568     -0.0449823368     -0.0928814516      0.2850270794      0.0860559616
H       3.4360828979      0.5149447348      0.5516579645      0.0037024052      0.1390643795      0.1910865455      0.1487814041
H       2.1195080048      4.2592648808     -0.8934569415      0.2055612095      0.2756027379      0.0526523415      0.0470758077
H       2.3546027971      2.6346986937     -0.2618916370      0.2007257154     -0.0952493648      0.1951067474      0.1139668092
H       2.0849925094      2.8799629394     -2.0015963705      0.1073680996     -0.0452263036     -0.3566025651     -0.0006234953
H       4.4246937830     -0.2362821847     -1.6225486003      0.0938264260      0.1872969846     -0.2623081884      0.0259965211
H       3.9855684885     -1.9109148829     -1.2452735390     -0.0161209151     -0.3014979101     -0.1748877789      0.0172200740
H       5.1795696555     -1.0617636879     -0.2501990639      0.3419163794     -0.0677088075      0.0841347005      0.0373145408
B       1.3305772390      2.2513312572      2.9203652330     -0.1935352713     -0.3267409880     -0.2317638212      1.3991416419
F       0.7336249205      0.9643378557      3.0113407498     -0.1108351445     -0.4967019679      0.4810382848     -0.5796944285
F       0.3581167388      3.1020566032      2.3230064572     -0.4717319279      0.6760104335     -0.1060292370     -0.5774359773
F       2.4169996128      2.1579606188      2.0185472751      0.7051206185      0.0898926095     -0.2913544862     -0.5699619012
F       1.7186909497      2.7131535672      4.1415370212      0.3151760131      0.3795022959      0.9419697250     -0.5166784799
