34
Properties=species:S:1:pos:R:3:forces:R:3:charge:R:1 energy=-181.53811271719448 homo_lumo=6.196947184922813 dipole="-0.8802492162441848 1.4943892151279923 2.7288837828506898" free_energy=-181.53811271719448
N       0.7951547722      0.0529075442      0.0958429824      0.0197877166      0.0021473985      0.0050311282     -0.5249372236
C       0.0437963728      0.7057866824     -1.0576676611      0.0093331431     -0.0025027839     -0.0080064777     -0.0378691855
C       0.3813170622     -1.4078061373      0.1944878627      0.0085661256     -0.0152238536     -0.0045874653     -0.0514946713
C      -1.4632105316      0.5706681927     -0.9332213341     -0.0119223078      0.0088571015     -0.0114290446     -0.1728720573
C      -1.1247153681     -1.5801826858      0.3183553048     -0.0053667573     -0.0137174573      0.0116559741     -0.1649495518
C       2.2843408478      0.1603443103     -0.2347666109      0.0161618199      0.0027699457     -0.0082443850     -0.0914817031
C      -1.8715698530     -0.8986458189     -0.8269969229     -0.0211671716     -0.0148439182     -0.0066985502     -0.1720493388
C       0.5206154751      0.7698771311      1.3755949978     -0.0053019353     -0.0134548184     -0.0038860268      0.0673153376
C       3.1982602492     -0.6875315132      0.6240364528      0.0222604742      0.0081821398      0.0023512026     -0.1064554120
H       0.4036097777      0.1973419623     -1.9647135921     -0.0077635278     -0.0083965100     -0.0066064209      0.2336976559
H       0.3738020784      1.7557136000     -1.0832793462     -0.0032781859      0.0079893130      0.0026388244      0.1073234491
H       0.9063135531     -1.8244754437      1.0649984737     -0.0037632505     -0.0004560057     -0.0030640194      0.1249652689
H       0.7612599661     -1.8836225481     -0.7220612117     -0.0067087651     -0.0019593606     -0.0102865463      0.2430060551
H      -1.8950994955      1.0254582684     -1.8409553063      0.0027717451     -0.0099711107      0.0135544326      0.1170542929
H      -1.8509167100      1.1545399036     -0.0802387458     -0.0002498874      0.0013296716      0.0189933381      0.0781138036
H      -1.4864183291     -1.2135283921      1.2958023004      0.0017368314      0.0048875770      0.0003969095      0.0772640379
H      -1.3152109077     -2.6668490679      0.3097599523      0.0014047960      0.0158711646     -0.0093562476      0.1170280504
H       2.3810831333     -0.1342678942     -1.2891909363      0.0030118264     -0.0133707075     -0.0060691578      0.2380637895
H       2.5174188898      1.2327588560     -0.1393824532     -0.0050586517      0.0009858047     -0.0136569743      0.1074587106
H      -2.9595012520     -0.9843611465     -0.6769067315      0.0068672250      0.0019628040      0.0011787879      0.0780881902
H      -1.6203772541     -1.4087181080     -1.7709985831      0.0099264854      0.0006951440     -0.0069694052      0.1512231870
H      -0.5404449760      0.6905087401      1.6285250214      0.0019555737     -0.0072319522     -0.0028096452      0.1096917241
H       1.1224227982      0.3184637767      2.1730379181     -0.0000601931     -0.0076669524     -0.0082368676      0.0994694786
H       0.7934626209      1.8255078088      1.2497250503      0.0020911030     -0.0034220187     -0.0005697233      0.0765262149
H       4.2321403891     -0.4083816596      0.3667095689     -0.0167349761     -0.0056244449      0.0038340045      0.0886736340
H       3.0754834720     -0.5237500258      1.7046627267     -0.0001076457      0.0152510200      0.0082567532      0.0328749645
H       3.0920944543     -1.7543029716      0.3885871385     -0.0083126783     -0.0019644483      0.0083216943      0.0814488289
P       1.8566542225     -2.0892211006     -3.6466352230     -0.0001212206      0.0058480131      0.0024292213      2.1868869873
F       1.2307807809     -1.7861742053     -5.1250128199     -0.0019574860      0.0114179315     -0.0005379077     -0.4942972453
F       0.3185991787     -1.9464970103     -2.9686147186      0.0008615139      0.0007031256      0.0035495391     -0.5396772626
F       1.6286258683     -3.6995195543     -3.8153788556     -0.0005363895     -0.0017129727     -0.0027689245     -0.4951550519
F       2.4520335291     -2.3424481690     -2.0888059375     -0.0100102771      0.0038903881      0.0057336310     -0.5373268537
F       3.3751333332     -2.1798276093     -4.2403850099      0.0067819767      0.0090835815      0.0065542451     -0.4940869698
F       2.0536344205     -0.4347805108     -3.3910399667     -0.0050970491      0.0196471909      0.0193041031     -0.5335211345
