51
Properties=species:S:1:pos:R:3:forces:R:3:charge:R:1 energy=-278.68005609907766 homo_lumo=5.30176327098391 dipole="-1.6548090248619922 -2.173981311831511 1.7968782575306887" free_energy=-278.68005609907766
N       0.1924135819      0.5455096888     -0.1229687719      0.0697083064     -0.2863764867      0.1425124992     -0.4878645661
C       0.5180189813      0.3951404426     -1.5828002696     -0.0540712840      0.0587861521     -0.5495566805     -0.0578874856
C      -1.2005905201      0.0045781820     -0.0219463992     -0.5001812002      0.0757248871     -0.2055167873      0.0105424114
C       1.1166667707     -0.2785938487      0.7239482336      0.6424645083      0.2393442671      0.0552219094     -0.0079650279
C      -0.7923100847      0.6175531871     -2.3335052257      0.0161207624      0.0070845319      0.0124753109     -0.1392671745
C      -1.9061063602      0.4793644512     -1.2866680332      0.0621984914     -0.0645174806      0.1526063690     -0.1426489524
C       0.2324537665      2.0061671336      0.2375725462     -0.0962969595      0.2494417817      0.7140337919     -0.0940858186
C       2.5813183110      0.1386664073      0.6276663630     -0.3850616443     -0.5869977723      0.3715733310     -0.2333235476
C      -0.0463915335      2.3152988391      1.7055568355      0.0368475167      0.1229958580     -0.3940203941     -0.2495515719
C       3.4477177810     -0.7992625884      1.4749982464      0.1017117741      0.4520556612     -0.3154059858     -0.1954192730
C      -0.0571293462      3.8317964717      1.9019837535      0.0136858971     -0.4169153115      0.0429353585     -0.0581958380
C       4.9208552513     -0.4103628076      1.3671350053     -0.3832016673     -0.2286250942      0.1298139065     -0.0479703428
H       1.2833700653      1.1194029981     -1.8522507140      0.0904976954      0.0971733737      0.1179483426      0.2651922597
H       0.8985935794     -0.6164773972     -1.7376695962      0.0928160054     -0.2473583636      0.0993272962      0.1006487713
H      -1.1300871400     -1.0857159624     -0.0030292166      0.1272486714     -0.2365171008      0.0199480204      0.1146810964
H      -1.6696937464      0.3476897845      0.8991802733     -0.0305860422      0.0232594135      0.2610198665      0.1289335791
H       1.0050227247     -1.3142168703      0.3895537083     -0.1112297569     -0.2025467436     -0.1084940330      0.1138021420
H       0.7589362366     -0.2133153658      1.7544823691     -0.1296151157      0.0084993889      0.2214402397      0.1326893279
H      -0.8089401037      1.6087473553     -2.7886992930      0.0667795253      0.1705638890     -0.1322911077      0.1327463903
H      -0.8968353189     -0.1244488356     -3.1268782316      0.0108818651     -0.1496456688     -0.2029370475      0.0816054005
H      -2.6640266185     -0.2447871573     -1.5895131359     -0.2635774697     -0.1223837024     -0.0111284830      0.0887305164
H      -2.4007240737      1.4377879360     -1.1165311863     -0.1704724749      0.2038919413      0.0332287300      0.0836604194
H       1.2207041167      2.3762224680     -0.0377863486      0.1132583951      0.0139188901     -0.2221906829      0.2526084363
H      -0.4988423765      2.5056399043     -0.4000110423     -0.0544585144      0.0844374637     -0.1914819106      0.1958089610
H       2.9122207651      0.0955548228     -0.4117975227      0.0957446959      0.1063280833     -0.1835243680      0.1779098198
H       2.7123752451      1.1643408124      0.9772404953      0.0839155742      0.2488311922      0.0017902491      0.1370844695
H      -1.0113596612      1.9050768145      2.0179356054     -0.2295271914     -0.1171597373      0.1394787687      0.0852777134
H       0.7288626108      1.8810879128      2.3425158700      0.1765394937     -0.1504341993      0.1797085755      0.0971337858
H       3.1279739825     -0.7486319840      2.5215928577     -0.0983526905     -0.0590858678      0.2883704497      0.0748188099
H       3.3137576558     -1.8311634888      1.1324253981     -0.0636801730     -0.2916547504     -0.0321577506      0.0732353784
H       0.9118442226      4.2546652867      1.6392714411      0.1897623753      0.1694769642     -0.0655035291      0.0718138601
H      -0.8199267872      4.2941793941      1.2757588111     -0.1823099819      0.1993854482     -0.1557726165      0.0427375594
H      -0.2687209089      4.0653855467      2.9449485270     -0.0717964594      0.1307140848      0.3048558277      0.0358410794
H       5.5284194612     -1.0838500480      1.9712282799      0.2786123615     -0.1591265641      0.1629379788      0.0333048677
H       5.2550025742     -0.4712944664      0.3312583541      0.1462563135      0.0301010457     -0.2987233921      0.0467340342
H       5.0719293126      0.6097380114      1.7207040344      0.1046678632      0.3085676207      0.0656994301      0.0418789420
N       2.9818939794      4.1422096887     -3.0999715913     -0.1074827676     -0.1062766907      0.1402094316     -0.8352301256
S       1.4438281106      4.4418025474     -2.7751556997     -0.0625242904      0.0208940640     -0.1800066442      1.6432083539
S       3.6627710947      2.8693932393     -2.4201613227      0.1495850803      0.1288128008      0.0292825016      1.6347027908
C       1.4436725649      5.5107023349     -1.2365978608      0.1501287772     -0.6004960686     -0.8189847408      1.2104513107
C       3.3581334650      1.4358873175     -3.5974023404      0.0453966445      0.8338519522      0.4878285224      1.1873465468
O       0.9279725483      5.2979992084     -3.8040707053     -0.4214852672      0.9093900380     -0.7921765232     -0.7255354843
O       0.6323415372      3.2984111148     -2.3748312705     -0.2736580574     -0.4218305821      0.2378801180     -0.8057237050
O       3.0553539066      2.3984220308     -1.1822145370     -0.3610437034     -0.2337069774      0.5213334302     -0.8007642252
O       5.0861663743      3.0460042210     -2.4418520919      1.2523188771      0.0558384727     -0.1297942467     -0.7239185782
F       0.1936302264      5.6202709830     -0.7934818543     -1.3331916130      0.1708022328      0.3443215932     -0.4569934732
F       1.9163314523      6.7161050056     -1.4884507089      0.5044589356      1.2569420603     -0.3114149999     -0.4294892662
F       2.1707195258      4.9575715463     -0.2733342533      0.8497973492     -0.5337957188      1.0351205945     -0.4614645100
F       3.4084294419      0.2932528112     -2.9057900054      0.2368898593     -1.2148147650      0.6393801315     -0.4637564792
F       4.2648806583      1.3924290558     -4.5524956545      0.9639371009      0.0043154130     -0.9852237683     -0.4290816437
F       2.1535771692      1.5158475040     -4.1490056277     -1.2884263910      0.0488366740     -0.6659768825     -0.4489919447
