62
Properties=species:S:1:pos:R:3:forces:R:3:charge:R:1 energy=-339.7271552152309 homo_lumo=4.333939473931691 dipole="-0.2207206360730497 0.9356901130633377 -2.6552096760047035" free_energy=-339.7271552152309
N      -0.5894975874      1.2031890656      0.2120918142      0.1901682985      0.2191738988     -0.2417069132     -0.4962041611
C      -1.3546596767      1.9484568384     -0.8405873783     -0.6285198855      0.0994595810     -0.0225624926      0.0009593299
C      -0.3368270826      2.1389710845      1.3651398052     -0.3092752848      0.2603337812      0.5076950864     -0.0455317350
C      -1.3330474972     -0.0104978580      0.6969288184     -0.0781458600     -0.5133314877     -0.4346679011     -0.1044926136
C       0.7316517756      0.8105181637     -0.3976679714      0.3839051320     -0.3985838905      0.3679851337     -0.0097890414
C      -2.6684105411      2.5241087470     -0.3234471760      0.4301860867      0.2306602315      0.1209260407     -0.1622447935
C      -1.6127714102      2.7431346718      1.9335113395     -0.0110367182      0.1319999218     -0.5702391682     -0.1668394562
C      -2.4190770331      3.4631251608      0.8561438818      0.0176873523     -0.4133989549      0.0421381840     -0.1465789918
C      -1.5712862126     -1.0956565714     -0.3485624130     -0.1701037765      0.2577250869      0.5406612115     -0.2136411544
C       1.6640505758      0.0274992572      0.5245632016      0.0173951126      0.2676005076     -0.7026657239     -0.2303343633
C      -2.5554811535     -2.1213731802      0.2303929750      0.4235631622     -0.0642498232     -0.6283502251     -0.1698456739
C       2.9199677281     -0.3859408511     -0.2491171268     -0.2483373494     -0.0984641812      0.6692925800     -0.1465535570
C      -2.6918797782     -3.3378975053     -0.6886521359     -0.4906205906      0.1730659686      0.7072647155     -0.1558447700
C       3.8670169590     -1.1790352014      0.6571620610      0.1839460298      0.1990657447     -0.8636295447     -0.1599702465
C      -3.7533482700     -4.3066201506     -0.1571933456      0.4080101900     -0.1432429661     -0.5832691657     -0.1973961582
C       5.1331119612     -1.6004122995     -0.0943344061     -0.1224041568     -0.1550929391      0.6753708897     -0.1965564356
C      -3.8194558495     -5.5801705813     -0.9975811237     -0.1175848513      0.3073450535      0.3454432425     -0.0435628970
C       6.0760373585     -2.3922459213      0.8100353630     -0.1366076751      0.2149709014     -0.4067065229     -0.0445792427
H      -0.7070056575      2.7595278534     -1.1863441585      0.2072083211      0.1532997826     -0.0458857255      0.1191073795
H      -1.5328691441      1.2687383512     -1.6759245109      0.0688267521     -0.1641276093     -0.1757383583      0.1287196471
H       0.1775705452      1.5728265150      2.1433053887      0.1655549812     -0.2606672848      0.1613563018      0.2395741443
H       0.3235920714      2.9263182850      0.9899157165      0.1672853871      0.1803230408     -0.2165046367      0.0892706787
H      -0.7522522159     -0.4197844560      1.5212922514     -0.0119361658      0.1475652270      0.1499478167      0.2762331080
H      -2.2841157880      0.3297811375      1.1049052926     -0.0558038000      0.0727912028      0.1374968767      0.1831130489
H       0.5057557827      0.2243885202     -1.2924943988     -0.1162163731     -0.0929937067     -0.2166339450      0.1284176112
H       1.2182022974      1.7380032723     -0.7134334160      0.0285804931      0.2520550981     -0.0849197677      0.1135115949
H      -3.1319599369      3.0725554540     -1.1480575776     -0.1704820130      0.0593589682     -0.2658408243      0.0931306978
H      -3.3515095959      1.7221942934     -0.0332028833     -0.2104907575     -0.2110034895      0.0205504194      0.1060393733
H      -2.2142301266      1.9695416139      2.4160161984     -0.0106485957     -0.1753626305      0.2407518066      0.1458976496
H      -1.3125586540      3.4526590183      2.7086402696      0.0984936108      0.0799257076      0.2973579324      0.0997259147
H      -3.3743507155      3.7969823974      1.2673883765     -0.2420507113      0.1932182491      0.0898470553      0.0802066383
H      -1.8705945309      4.3452028494      0.5082191687      0.1144409226      0.2784241917     -0.1190132060      0.0713740713
H      -1.9875435510     -0.6817987450     -1.2716495897     -0.1254417581      0.0411110271     -0.2988503093      0.0857768781
H      -0.6317637627     -1.5979418666     -0.5951641853      0.2445372524     -0.1473933065     -0.0980332010      0.1030541335
H       1.1713591634     -0.8672458673      0.9087322918     -0.0836531168     -0.1502788027      0.1613727397      0.1614036044
H       1.9529227991      0.6383288564      1.3813137191      0.0037603465      0.0237729804      0.2411587331      0.1438302399
H      -3.5328635881     -1.6460053655      0.3643515413     -0.2645217008      0.1111922704      0.0856770185      0.0740615488
H      -2.2029045780     -2.4461972072      1.2131266284      0.0065435127     -0.0371953992      0.2408011404      0.1479686701
H       3.4310080857      0.5066753777     -0.6271039013      0.1774946291      0.2111487082     -0.1534314403      0.0691614929
H       2.6355938840     -0.9994334157     -1.1115943828     -0.0177884828     -0.1563184324     -0.2762012004      0.0713811193
H      -2.9669302957     -3.0099523390     -1.6976636810     -0.0462277231      0.0480406727     -0.3101066324      0.0694672396
H      -1.7262375168     -3.8504420665     -0.7557332673      0.2656905582     -0.1474386777     -0.0492340398      0.0810606261
H       4.1399184642     -0.5646830656      1.5211076485      0.0360522142      0.1172230526      0.2786946972      0.0970393110
H       3.3491150992     -2.0682134593      1.0307049516     -0.1364661534     -0.2112843154      0.1705566762      0.0962626019
H      -3.5218520825     -4.5627586041      0.8818540067      0.0357101830     -0.0230026233      0.2891740786      0.0913214026
H      -4.7307049061     -3.8121383071     -0.1665575517     -0.2410476982      0.1574776208      0.0696163539      0.0785820443
H       4.8568065871     -2.2137353507     -0.9591255214     -0.0728017431     -0.1002917337     -0.2696479539      0.0752624034
H       5.6491990109     -0.7092362241     -0.4682564426      0.0987847331      0.2280027925     -0.1574706925      0.0759188872
H      -4.5891920616     -6.2458688496     -0.6068752316     -0.2184699674     -0.3015970880      0.0271688449      0.0320137182
H      -2.8627275428     -6.1037885419     -0.9740001698      0.2710482542     -0.1937876441     -0.0247967522      0.0275762501
H      -4.0589351735     -5.3419114133     -2.0350753934     -0.0701931645      0.0205493246     -0.3384107879      0.0236268184
H       6.3779789132     -1.7896051265      1.6675403934      0.1116543602      0.1391085427      0.2863114095      0.0316347313
H       5.5851006183     -3.2947502364      1.1762549945     -0.1080703197     -0.2805541903      0.1493343626      0.0312707516
H       6.9695531960     -2.6823164850      0.2567245284      0.3305490044     -0.1495928871     -0.0667689246      0.0276852885
S      -0.3629242115     -0.3357552727      4.1722077809     -0.1572064877     -0.0786965792      0.0212567990      1.7613452508
O      -1.6390893788      0.0551629984      3.5834418368     -1.1366683413      0.0863855715     -0.3911167170     -0.8229328855
O      -0.2457868745     -0.1440441485      5.5905767700      0.1653956824     -0.0252539494      1.6260643770     -0.7630413207
O       0.7860402693      0.0985399702      3.3791434696      1.0779341791      0.2448233890     -0.6480505677     -0.8312149079
C      -0.3250518138     -2.1732163634      3.9042862677     -0.0064619114      1.1764668574      0.1178428127      1.1521068518
F      -0.2580843458     -2.4087152580      2.5781544284      0.1156274655     -0.4660818737     -1.3643374651     -0.4867816490
F      -1.4143375663     -2.7783590109      4.3583673947     -1.1802914145     -0.6165786836      0.5518588088     -0.4473079280
F       0.7359257205     -2.7371762549      4.4625869754      1.1495403402     -0.6077998050      0.6338166599     -0.4428487691
