62
Properties=species:S:1:pos:R:3:forces:R:3:charge:R:1 energy=-336.2156798344817 homo_lumo=0.43216331034380556 dipole="5.405652511168375 -4.444890610002594 4.4257877449672" free_energy=-336.2156798344817
N      -0.5072995724      1.7622700912     -0.1770635106      0.3395237746      0.1261730389     -0.2021281667     -0.5191052625
C      -1.3769211288      2.2963375479     -1.2748784208     -1.3888650587      0.7776262717     -1.1661936672     -0.0451351197
C      -0.1884254375      2.8832419316      0.7679334235      0.0457522328      1.3434681332      1.3419830519     -0.0390020846
C      -1.1768712275      0.6443346800      0.5767230354     -0.6605147346     -1.3557256641      0.3899134257     -0.0577790493
C       0.7683877886      1.3047490834     -0.8285355319      1.5353550412     -0.7585610113     -0.2562733894     -0.0439142915
C      -2.6623455480      2.9752035811     -0.7776171860      0.0782221690     -0.0049797118      0.0299126300     -0.2142289828
C      -1.4300999690      3.6232126947      1.3093850490     -0.1205624218     -0.0587723262     -0.1244688473     -0.1695723790
C      -2.3257342516      4.1155478751      0.1764038166     -0.2419738357      0.1456244227      0.1335972570     -0.1762703646
C      -1.4997295491     -0.6242667555     -0.2505327586      0.1588058206      0.4140941967      0.0942356939     -0.2244366491
C       1.7989458849      0.6248825248      0.1072204822     -0.3782887754      0.1676450066     -0.1648655813     -0.2211274356
C      -2.1799204053     -1.6836773966      0.6267539731      0.0963734027      0.1549048127     -0.1209477338     -0.1664776942
C       3.0696769512      0.2541029057     -0.6686636423     -0.1737445971      0.0497682584      0.1212904345     -0.1664253276
C      -2.4817654984     -2.9552425315     -0.1759724679     -0.0858186652      0.1168623704      0.3848104679     -0.1713850498
C       4.0795917865     -0.4654742315      0.2339523018      0.0172772557      0.1146142605     -0.4085897615     -0.1701312541
C      -3.1882048817     -4.0006043270      0.6942026138      0.0218351891     -0.0975114575     -0.2097753836     -0.2096337089
C       5.3522662963     -0.8252893290     -0.5408860845      0.0245632895     -0.0727562384      0.2181801981     -0.2100503061
C      -3.4647610719     -5.2778998098     -0.0937749808     -0.1194563451     -0.1977906757      0.1101746836     -0.0867818365
C       6.3542834767     -1.5529116251      0.3509243730      0.2275550013     -0.0688141523     -0.0890986074     -0.0863963838
H      -0.8184589081      3.0584651864     -1.8679662984      0.1913168267     -0.3395322053      0.4949480554      0.1597170831
H      -1.6474632669      1.5074798380     -2.0062903685      0.3614788332     -0.0980559694      0.4674542475      0.1582148455
H       0.3754264274      2.5127593596      1.6504975072     -0.0736755623     -0.2791345512     -0.5460121570      0.1522504608
H       0.4585107510      3.6414246748      0.2689997750     -0.2314164963     -0.5457802120     -0.2090517036      0.1487107461
H      -0.5558766248      0.3459699777      1.4493857580      0.1459565324      0.3522526214     -0.4352839656      0.1499222588
H      -2.1282288904      0.9848044858      1.0284529902      0.3054639870      0.3601028946     -0.3547982879      0.1905188884
H       0.5467762374      0.6051454145     -1.6652689932     -0.3302476010      0.2549066514      0.3971597147      0.1583667679
H       1.2779111721      2.1711213572     -1.3111378586     -0.5384229481     -0.0365524420      0.3215773651      0.1563812335
H      -3.2039976225      3.3881887926     -1.6514374723      0.1626195735     -0.2603484198      0.0740952033      0.2062091171
H      -3.3461962701      2.2476140119     -0.2947686091      0.1239660374      0.0930008664     -0.1202386629      0.1002813896
H      -2.0093563184      2.9748726989      1.9991876202      0.1657177467      0.0849833791     -0.1047908640      0.1048028957
H      -1.0946005226      4.5001995670      1.9042281319      0.1332751524     -0.3760498678     -0.0746089317      0.1261869964
H      -3.2639686917      4.5356877682      0.5987732154      0.2972672547      0.0227784309     -0.2093670436      0.1214890014
H      -1.8064402031      4.9260288307     -0.3815173041     -0.1972406938     -0.1444362124      0.0983524699      0.1095277769
H      -2.1908843904     -0.3806827811     -1.0820506549      0.2305562832     -0.0096980794      0.0734822492      0.1341821599
H      -0.5732421848     -1.0655032031     -0.6705322967     -0.1852834069      0.1370942969     -0.0189858709      0.1227700328
H       1.3777876741     -0.3059181848      0.5389129487      0.0416443232      0.2336421333      0.0034291988      0.1244849841
H       2.0848400060      1.3062735117      0.9338507829     -0.1308089820     -0.1780399870     -0.0897623424      0.1189385550
H      -3.1305946868     -1.2703495133      1.0306382691      0.2343763437     -0.1231088914      0.0184910825      0.0991320937
H      -1.5145094443     -1.9388647094      1.4806938353     -0.2242359640      0.0616969634     -0.0921794226      0.0914472070
H       3.5343451184      1.1790070790     -1.0763576803     -0.0947907006     -0.2533766659     -0.0245342144      0.0978790909
H       2.8015261668     -0.4107300514     -1.5193542519      0.1164467293      0.2127285858      0.1068734879      0.0991073561
H      -3.1314114340     -2.6998148468     -1.0422228962      0.2160858745     -0.0911217883      0.1232955023      0.1001930230
H      -1.5286636235     -3.3796680877     -0.5618513419     -0.2347285406      0.0865619135     -0.0227652462      0.0901222266
H       4.3439191222      0.1941092299      1.0898219303     -0.0839258778     -0.2151924353     -0.1070734910      0.0920664410
H       3.6173316790     -1.3952423352      0.6332870410      0.1175820228      0.2233841778      0.0211710320      0.0912196392
H      -2.5531335676     -4.2508502063      1.5718243256     -0.1816906017      0.1708038890     -0.1055279011      0.0886648634
H      -4.1534501519     -3.5902823538      1.0634019037      0.2794562571     -0.0177406841      0.0308798844      0.0954591942
H       5.0956459582     -1.4812793043     -1.4012430184      0.0170742315      0.2637582503      0.1018053622      0.0933396698
H       5.8268572327      0.1005143422     -0.9332711967     -0.1987146210     -0.2007349752     -0.0360088873      0.0942613698
H      -3.9792537976     -6.0134072121      0.5597433501      0.1347022021      0.0895952156     -0.3148671871      0.0529306512
H      -2.5122920383     -5.7248724280     -0.4502097807     -0.3210145801      0.0578818106      0.0209336670      0.0410010123
H      -4.1171588587     -5.0598967322     -0.9660295202      0.2068810034     -0.1637882354      0.1982074121      0.0481504039
H       6.6453054206     -0.9104220108      1.2091406991     -0.0350640884     -0.2697829065     -0.1829321762      0.0429706669
H       5.9150487996     -2.4990936203      0.7329176261      0.2040596190      0.2526694288     -0.0226757160      0.0421116673
H       7.2652118126     -1.7960374478     -0.2355377670     -0.1797047361     -0.0079798806      0.3029019965      0.0542378788
S      -5.9515589882      5.8985564442     -4.4777922783     -6.6136470472      6.0996206436     -6.6596630526      1.5664636728
O      -6.1783997266      5.3263737896     -5.8852496918      1.9801705803     -1.5330239182      2.4279734253     -0.7556420118
O      -7.3795113102      6.1199033878     -3.9564693419      2.4384433461     -1.8346051929      1.6961040793     -0.7548975822
O      -5.4564426725      7.3257876530     -4.7564729911      1.7108009035     -2.2868424722      1.9999668267     -0.7563744749
C      -4.8811028511      4.9047955038     -3.4016635951     -0.2065046385      0.0825515966     -0.1218719465      1.0710325585
F      -3.6320426376      4.7802668583     -3.9801117063     -0.3286957098     -0.3247923966      0.8207822772     -0.4513370681
F      -5.4354443167      3.6503566316     -3.2305119574      0.8209256333      0.4541678784      0.3186595379     -0.4472468203
F      -4.7590512194      5.5253805879     -2.1727581991      0.3775067560     -0.8003327730     -0.3473017112     -0.4513947425
