48
Properties=species:S:1:pos:R:3:forces:R:3:charge:R:1 energy=-259.4666102739731 homo_lumo=2.157338152233688 dipole="-7.867990470587463 1.2565197452575108 0.7898547363389781" free_energy=-259.4666102739731
N      -0.8802316555     -0.1689516553      0.0523835342     -0.0034844046     -0.1426721977     -0.0100382044     -0.5250242502
C      -2.0119633758     -0.2867470242     -0.9174934542     -1.6209521099     -0.7389475338     -1.5853314834     -0.0089023515
C      -1.2184096410      1.0175876647      0.8977628097      0.0029958076      1.8865672273      1.4795798010     -0.0085303690
C       0.3931622239      0.0750605298     -0.7008425474      1.7732063802      0.1746483963     -0.4027363580     -0.0538524626
C      -2.8389484123      0.9810462419     -0.8360543484     -0.0887176584      0.5011373400     -0.6784732256     -0.1425805455
C      -2.6410998586      1.4383111230      0.5812412782     -0.5969935220     -0.0013326990      0.6108570434     -0.1416658599
C      -0.8086010579     -1.3909369782      0.9172095451      0.2268955854     -1.6832459344      0.8015999839     -0.0925645740
C       1.6550770157      0.2017621609      0.1867446328     -0.4552300088     -0.0815562968     -0.1651286190     -0.2225667357
C      -0.4669565754     -2.6900576578      0.1656400427      0.0641470750      0.3018793268     -0.1474861196     -0.1241335526
C       2.8630123641      0.6426400162     -0.6497638419      0.0107297881      0.0116623865     -0.0646243670     -0.2149119055
C       4.1117545707      0.7904641587      0.2136077398      0.1292377228      0.0403948584     -0.0259220697     -0.1089280127
H      -2.6942572647     -1.1315318093     -0.6674848058      0.6619279625      0.1206993691      0.2375325249      0.1510425524
H      -1.6777559987     -0.4534910654     -1.9672484279      0.2642717221     -0.0933875737      0.6409712132      0.1489753918
H      -1.1181721431      0.8228151913      1.9903509474      0.2650978765     -0.2615299615     -0.5956558869      0.1461755996
H      -0.5674417379      1.8939079581      0.6751698408      0.1260947005     -0.7374438129     -0.1701747757      0.1617382805
H       0.5707043942     -0.7372348285     -1.4402402471     -0.3742300294      0.1103792270      0.3854320777      0.1675999482
H       0.2914277357      1.0071891542     -1.3044557443     -0.3429015461     -0.2733129747      0.3664623684      0.1542617604
H      -2.4349327405      1.7426982290     -1.5394201128     -0.2491899857     -0.1943518926      0.1155630913      0.1101673270
H      -3.9116704412      0.7939229605     -1.0607634907      0.4565610955      0.0848179795     -0.1622146695      0.1057434708
H      -3.3514914053      0.9063363668      1.2524434016      0.1241579258      0.2855783324     -0.1369658528      0.1044599890
H      -2.7827934490      2.5366599172      0.6806126992      0.0240289521     -0.4467696385      0.2056036492      0.1074576533
H      -0.0620784515     -1.2561096629      1.7302628542     -0.1624321205      0.3635354712     -0.4650303138      0.1733159866
H      -1.7837061492     -1.5448666499      1.4346721281      0.1665693269      0.5000292341     -0.3772792310      0.1505216357
H       1.4920663612      0.9399499197      0.9996988561      0.0106262171     -0.1760546801     -0.1049386086      0.1124463891
H       1.8928841959     -0.7789823790      0.6496274884     -0.0634484623      0.2356765325     -0.0232568275      0.1368345155
H      -0.5595106317     -3.5470732682      0.8655175867      0.0018071957      0.3280009544     -0.1643128000      0.0970842066
H       0.5773117677     -2.6767626902     -0.2063573742     -0.3033202224     -0.0526032894      0.0563973844      0.0961184026
H      -1.1577352960     -2.8674133019     -0.6835684695      0.2180987555     -0.0104505624      0.2124797293      0.0707644887
H       3.0610664218     -0.1100360783     -1.4440460179     -0.0701932996      0.2290706800      0.1013573263      0.1190750592
H       2.6495060573      1.6197477166     -1.1355851283     -0.0641868259     -0.2520043193     -0.0359862255      0.0823030894
H       4.3379520499     -0.1640724382      0.7312945275      0.1116584813      0.3749475978     -0.1582385142      0.0973183196
H       3.9655802548      1.5888004295      0.9714803320      0.0802848122     -0.2181491774     -0.1367618892      0.0169898448
H       4.9761463972      1.0623153133     -0.4281716419     -0.1338215988     -0.2479007555      0.3435091179      0.1140633072
N       8.2806272566     -2.1403200961     -0.8873069144      0.0293126466     -0.2814494512      0.0968725810     -0.8593515252
S       7.4878623207     -1.8548373488      0.5185680456      5.3746868770      4.7653775681      1.5286225881      1.5673947819
S       8.1103429575     -1.1942948886     -2.2155136803     -6.1777163957     -3.0199264490     -1.2145505287      1.5659984822
C       5.9555195094     -2.7632065101      0.5179518027     -1.0743120313     -1.1154871586     -0.4063123099      1.1469726595
C       9.4781736176     -0.0574120076     -2.2961844280      1.6186906944      1.0979914974      0.2998835539      1.1541911963
O       8.3318862103     -2.3328142155      1.6656019353     -1.7839551838     -0.8030776829     -1.7509304677     -0.7231676935
O       7.2083198084     -0.3867159452      0.6816938979     -1.1013635488     -1.9424265555     -0.2828395715     -0.7436450686
O       6.8186121540     -0.4261731567     -2.1662510590      2.0279771757      0.2959846404      0.1050583314     -0.7599174816
O       8.1312271557     -2.0609579208     -3.4423288572      1.4581874606      1.2114352402      1.6392982304     -0.7272043488
F       5.2672719843     -2.5135960841      1.6900224784      0.1491894696     -0.3295382413     -0.8778829174     -0.4458205167
F       6.2236958937     -4.1154925733      0.4253520046     -0.6696678889      0.9064258819      0.1025365305     -0.4291530310
F       5.1826336579     -2.3771560410     -0.5604739764      0.1452607810     -0.5399913955      0.9466796950     -0.4408732951
F       9.3464010062      0.7484409111     -3.4110256645      0.2797436895     -0.5573839982      0.9506922890     -0.4317494061
F      10.6615804112     -0.7662073403     -2.3807162407     -0.7172610276      0.8466637171      0.0170255850     -0.4290614601
F       9.4964430554      0.7298566661     -1.1607458846      0.2519316936     -0.4719092266     -1.1009428586     -0.4254098919
