48
Properties=species:S:1:pos:R:3:forces:R:3:charge:R:1 energy=-262.19824592985196 homo_lumo=4.609379458632731 dipole="-3.6648459062504077 1.4887753345011239 -0.5035673539061076" free_energy=-262.19824592985196
N       0.3822165345     -0.0441222554     -0.5103374725      0.0062687501      0.0027961373     -0.0044940828     -0.4889170290
C      -1.0139277766      0.0460386577     -1.0835905252      0.0028690589      0.0024337821     -0.0039931528      0.0123295155
C       0.1055502663     -0.2008295677      0.9708697298      0.0029283149      0.0004979178      0.0005728551     -0.0179111175
C       1.1774878321      1.2144223404     -0.8023149651      0.0053258780      0.0017393379      0.0040828217     -0.0108306769
C      -1.8260621913     -0.9965534966     -0.3162840103      0.0030436174     -0.0051311670      0.0050558089     -0.1591756066
C      -1.1043979930     -1.1359179016      1.0522764538      0.0013914281      0.0000509026     -0.0122442432     -0.1504990281
C       1.1008887625     -1.2988215578     -1.0141257191      0.0040676710     -0.0011097820      0.0016864785     -0.1227532353
C       2.4715661611      1.3257253397     -0.0150648568     -0.0035758335     -0.0051469908     -0.0030135818     -0.2553319424
C       1.3755365967     -1.3364120296     -2.4989644014      0.0005262069      0.0037396087      0.0002188103     -0.1240129317
C       3.4374025509      2.3206131204     -0.6645250108     -0.0007932174      0.0038660008     -0.0088645838     -0.2080590079
C       4.7260319634      2.4437530784      0.1441540526     -0.0081555182      0.0108013603      0.0014714284     -0.0893043314
H      -0.9755162410     -0.0946781849     -2.1700397033      0.0010177207      0.0017671358     -0.0025241338      0.1371364154
H      -1.3660839331      1.0655954730     -0.8672908612     -0.0002408388     -0.0010354589     -0.0043599599      0.1253407437
H       1.0088789013     -0.5704759828      1.4697667341      0.0014318218      0.0031559142      0.0053654044      0.1836005832
H      -0.1331602074      0.8059475748      1.3453276726      0.0017279916      0.0020475447     -0.0008056688      0.1226367766
H       1.3674087277      1.2109386410     -1.8850465801      0.0026606072     -0.0055014059     -0.0025276064      0.1546884913
H       0.4981210353      2.0535746352     -0.5814828530      0.0035621124     -0.0010372041     -0.0024639903      0.1063363256
H      -2.8677932940     -0.6624127646     -0.2088650344      0.0058786477      0.0014810860     -0.0018243050      0.1044203807
H      -1.8478496549     -1.9558359344     -0.8533303161      0.0069169584      0.0029677344      0.0031865916      0.0991560803
H      -0.7892632856     -2.1735886820      1.2307205336     -0.0013351780      0.0042072125      0.0006343125      0.1008387775
H      -1.7485011700     -0.8451903163      1.8936973449     -0.0016908125      0.0090132659     -0.0006199929      0.1078125075
H       2.0456380274     -1.3466827499     -0.4625872762      0.0010888552      0.0031744794      0.0016981943      0.2475341012
H       0.4774691173     -2.1465572801     -0.6995434449      0.0034117658      0.0011399412     -0.0036816308      0.1451320445
H       2.2616628802      1.6296460548      1.0243139644      0.0003008825     -0.0046613755      0.0035040130      0.0899598295
H       2.9902732700      0.3588292323      0.0163871093      0.0028925431     -0.0023782905     -0.0005357189      0.2304623050
H       1.9058310443     -2.2828635396     -2.6904763841      0.0033629795     -0.0047691517     -0.0005211915      0.1319378322
H       2.0682729027     -0.5429709080     -2.8085049785     -0.0031135593      0.0006202001     -0.0060182341      0.0714612201
H       0.4666950326     -1.3148424605     -3.1177512120      0.0027089727     -0.0056617658      0.0028718160      0.0325057607
H       3.6779665587      1.9539905379     -1.6786173239     -0.0051709667      0.0080931100      0.0046408091      0.0998233476
H       2.9542712079      3.3090264221     -0.7795042427     -0.0100031858      0.0004402309      0.0031824838      0.0638621623
H       5.2089329779      1.4614106358      0.2528192947      0.0003097045      0.0057055744     -0.0026423270      0.1295180374
H       4.5226894752      2.8341487741      1.1542135151     -0.0031378067      0.0062040784     -0.0021687484      0.0213895166
H       5.4351857029      3.1258830197     -0.3471552506     -0.0033587277      0.0117790110     -0.0019457333      0.0291052966
N       5.2035546206     -2.8731638799      0.2958134056      0.0009525248      0.0040368585      0.0130113363     -0.8324844927
S       5.6365282728     -1.9171655668      1.5210276777     -0.0094115055      0.0010869946      0.0034578585      1.6252905750
S       4.8012873314     -2.3104031694     -1.1436975980      0.0101581410     -0.0020982679     -0.0059565798      1.6192359573
C       3.9582175169     -1.5633883201      2.4180684608      0.0114058783      0.0091028929      0.0039577601      1.1405348579
C       6.4262847402     -2.2242853222     -2.0973572558     -0.0029888594     -0.0126634729     -0.0059970229      1.1753975553
O       6.3526299338     -2.7281282566      2.4895099555     -0.0028668022      0.0011697046      0.0051349631     -0.7090881561
O       6.1139431418     -0.5863942507      1.1645685500     -0.0113034108      0.0058110241      0.0036826359     -0.7354158511
O       4.2966241552     -0.9283551381     -1.1912082197     -0.0013393300      0.0035518901     -0.0026580925     -0.7920785270
O       4.0349143478     -3.3369463688     -1.8456408233      0.0007988804     -0.0125892164     -0.0014431746     -0.7526330579
F       3.7488353928     -0.2241112712      2.5384849703     -0.0150331409     -0.0003617423      0.0100095403     -0.4530745034
F       3.9442602561     -2.0974720081      3.6552135760     -0.0130101707     -0.0170444903      0.0181397460     -0.4269954316
F       2.8792969228     -2.0733992005      1.7378208235     -0.0187771487     -0.0143711593     -0.0126454791     -0.4739873987
F       6.1516242653     -1.9508681469     -3.4010265017      0.0087487798      0.0063612030      0.0002925726     -0.4433258844
F       7.0836545896     -3.4011614174     -2.0320636318     -0.0005970146     -0.0142734785     -0.0122899661     -0.4302521330
F       7.2254152541     -1.2494845957     -1.6157893197      0.0201463345     -0.0090077143      0.0103809599     -0.4313166537
