58
Properties=species:S:1:pos:R:3:forces:R:3:charge:R:1 energy=-319.68787250400914 homo_lumo=0.10359608322016302 dipole="-5.746176173877384 -2.5286835432408954 -1.5289721986492288" free_energy=-319.68787250400914
N      -0.0204509013      1.9910879329      0.0058618852     -0.0850170511     -0.1684664015     -0.0005074247     -0.5207157650
C      -0.6971702309      2.8961846122     -0.9735609142     -1.3740532429      0.9971567231     -1.6923722722     -0.0098581478
C       0.6344816321      2.9069179774      0.9899180500      1.4582719825      1.0816383651      1.7161400251     -0.0522924817
C      -1.0347124527      1.1446496206      0.7152730115     -1.0746961124     -1.1657670653      0.3303713424     -0.0427679322
C       1.0141901416      1.1725841085     -0.7073666750      1.2143682876     -1.1786000359     -0.3990117819     -0.0531552735
C      -0.2217096115      4.3139955381     -0.7192789167      0.4237362045      0.4333941132     -0.6210391571     -0.1444497157
C       0.1306943031      4.3152644071      0.7407393384     -0.3970032569      0.4466130614      0.6313640961     -0.1434945860
C      -1.7729529833      0.1262184542     -0.1873299847      0.2948210946      0.3044510194      0.1764935510     -0.2138506984
C       1.7787887889      0.1702797743      0.1914891985     -0.2923493910      0.3401533830     -0.0928370287     -0.2178416383
C      -2.8737880576     -0.5952497639      0.6007751380      0.1565518785      0.1048430096     -0.1760368914     -0.1680705228
C       2.8916698199     -0.5271401639     -0.6012211218     -0.1073179623      0.1380026409      0.1114612642     -0.1719397425
C      -3.6236640742     -1.6019680432     -0.2796832456     -0.0424608051      0.0833847300      0.4337885249     -0.1700421914
C       3.6585981411     -1.5259176918      0.2736832244      0.0512961933      0.1060108672     -0.3676663634     -0.1729594982
C      -4.6875059383     -2.3509741351      0.5315597867     -0.0006313646     -0.0756711971     -0.2304359513     -0.2091976670
C       4.7303305764     -2.2577076558     -0.5427956235      0.0176001847     -0.0497769658      0.2017333649     -0.2102084228
C      -5.4418427690     -3.3533160955     -0.3363455266     -0.1919089525     -0.1564772381      0.1089834889     -0.0858170081
C       5.4983528758     -3.2547336274      0.3192916178      0.1921524571     -0.1481861278     -0.0884120013     -0.0857234977
H      -0.5040039928      2.6200370419     -2.0355955563      0.0295362670     -0.3305588137      0.6103891921      0.1384760083
H      -1.8044160397      2.9000363906     -0.8493003215      0.4720256902     -0.4860634988      0.2726922020      0.1431949658
H       0.4477943032      2.6222079515      2.0507604473      0.0058986032     -0.3112724018     -0.6155164748      0.1369831484
H       1.7395203691      2.9360162132      0.8653346289     -0.3398034724     -0.4511159834     -0.2201878077      0.2227042088
H      -0.5606639811      0.5884051721      1.5536370359      0.2018000157      0.3226524481     -0.4122678162      0.1622024455
H      -1.7954902662      1.8033390495      1.1954558997      0.4681919435      0.1037699760     -0.3310767655      0.1506036226
H       0.5530885125      0.6073369019     -1.5469748577     -0.2153338305      0.3033890797      0.3957001138      0.1490492341
H       1.7581696024      1.8514333606     -1.1859111804     -0.4409534992      0.0983328349      0.3809754268      0.1701013064
H       0.6859042683      4.5238145447     -1.3276479714     -0.2974027934      0.0675730486      0.1295166362      0.1197925406
H      -1.0086524149      5.0652423894     -0.9491751534      0.3571499411     -0.3059229316     -0.1561308467      0.0989942910
H      -0.7806154806      4.5044628596      1.3502409269      0.2883270393      0.0854819138     -0.0945163292      0.0903003775
H       0.9029388362      5.0810973394      0.9732710664     -0.2904353127     -0.3489507512      0.1630235421      0.1353744038
H      -2.2289913266      0.6371969771     -1.0607458736      0.1412508286     -0.1066227613      0.1215234297      0.1140009719
H      -1.0620994546     -0.6383707772     -0.5630367733     -0.1086199663      0.2271083585     -0.0034633123      0.1310318192
H       2.2279907408      0.6905448719      1.0629874835     -0.1079172351     -0.0832295444     -0.1619399213      0.1413791362
H       1.0864661990     -0.6096495095      0.5700341429      0.0853114661      0.1921836010      0.0010780774      0.1157788025
H      -2.4142650669     -1.1308096029      1.4604570703     -0.1752931516      0.1587093102     -0.1039407685      0.0995707744
H      -3.5963364958      0.1517958283      0.9964455061      0.1589663879     -0.1956992805      0.0329803464      0.0932603701
H       3.6009538368      0.2346845766     -0.9927590249     -0.1613336276     -0.1921624795      0.0246254781      0.1195716980
H       2.4412015912     -1.0659124231     -1.4636955386      0.1557102012      0.1352869771      0.0922140272      0.0850283274
H      -4.1125562719     -1.0623801652     -1.1205091029      0.1519905220     -0.1746710619      0.0991433004      0.0910081899
H      -2.9011257715     -2.3344229647     -0.7022314431     -0.1771999705      0.1782288138     -0.0077054110      0.0933854502
H       4.1420919968     -0.9820847200      1.1148975245     -0.1473473314     -0.1601019894     -0.1375982200      0.1128815520
H       2.9478173843     -2.2700338685      0.6958799583      0.1597199959      0.1573983139      0.0100880507      0.0802379246
H      -5.4147609367     -1.6258735108      0.9574826030      0.2456363427     -0.1242915545      0.0282756029      0.0916464477
H      -4.2032822831     -2.8968832450      1.3704561689     -0.0961683321      0.2416720016     -0.0932685011      0.0929427701
H       4.2515692103     -2.8059491459     -1.3833316630      0.0848939147      0.2284494205      0.0831827840      0.0814227566
H       5.4476410902     -1.5215626556     -0.9665499882     -0.2511143179     -0.1269846308      0.0019769992      0.1065442556
H      -5.9627874770     -2.8300397803     -1.1660576334      0.1247253424     -0.2421198263      0.1648807952      0.0422021203
H      -6.1984850824     -3.8824826772      0.2802918609      0.1564304404      0.0518053475     -0.3107678147      0.0522316796
H      -4.7400436297     -4.1038222074     -0.7581863152     -0.2708274783      0.1739010184      0.0359049313      0.0432274827
H       4.8066109587     -4.0162066106      0.7381549585      0.2588384193      0.1678399305     -0.0299083489      0.0332568411
H       6.2608568619     -3.7713174487     -0.3007725287     -0.1513020195      0.0547094954      0.3083616137      0.0488485857
H       6.0135381966     -2.7290927506      1.1510836724     -0.1210494691     -0.2354078717     -0.1822096913      0.0532795142
C       6.1418030952      4.5320165505      1.6749763194      2.1972175771      0.1708017092      0.6229248907      0.8157831391
O       6.5656459945      4.9830448753      2.7273293530     -1.1245915614      1.6741057915      3.7048184977     -0.7658120483
O       6.9271931034      4.1302793888      0.8316276647      0.2501761787     -1.8611287356     -4.0958235283     -0.7789600114
C       4.6657484268      4.4626021093      1.4141131192      1.0255118266      0.6029101553      0.4041943063      1.1945720386
F       4.3616997084      5.1905053775      0.2780003126     -0.9228229193     -0.3628599862      0.2376450450     -0.4730734659
F       3.9559927927      4.9806632902      2.4841010246     -0.7956298321     -0.4211939319     -0.8463804495     -0.4681631851
F       4.2967994763      3.1438132402      1.2230029330     -1.0675229672      0.0313456077     -0.1654300678     -0.4924757005
