28
Properties=species:S:1:pos:R:3:forces:R:3:charge:R:1 energy=-166.19213666933638 homo_lumo=3.241246300368345 dipole="0.27013511992768574 -0.1626205669389469 -0.38697914673221173" free_energy=-166.19213666933638
N       0.1883756442      0.3016855985     -0.2519491461     -0.0078176239      0.0052258374      0.0075182287     -0.5287009014
C       1.4196421885     -0.2134585896     -0.8505937131      0.0003010283     -0.0008694680      0.0068203958      0.0105019362
C       2.5772225844     -0.3379505958      0.1416646640      0.0037967444      0.0004384732      0.0081504083     -0.2519862864
C       3.8074416019     -0.9744821200     -0.4957847121     -0.0010798896      0.0001053975      0.0007551061     -0.0709482839
C      -0.0695134673      1.6919586802     -0.3409429065      0.0112420711      0.0057934985      0.0060383737      0.2486820545
C      -0.5419335735     -0.5164131645      0.5664203865      0.0218685657     -0.0132856648     -0.0036984647      0.2489129301
C      -1.4037615084      2.0681390846      0.1437957126      0.0082892690      0.0073855907     -0.0005750234     -0.0629575452
C      -1.6996080628     -0.1098536551      1.1512601383     -0.0085596709      0.0079068050      0.0083128994     -0.0624883391
C      -2.1485664454      1.2172484898      0.8935397560     -0.0109232835     -0.0066025198      0.0057709829      0.0213180530
H       1.1984555852     -1.1973933362     -1.3014079840     -0.0048200920     -0.0044304820      0.0082735522      0.0920083169
H       1.6975154967      0.4688839416     -1.6711268892     -0.0044531390     -0.0056523916     -0.0063350212      0.1016606090
H       2.2421411419     -0.9340349609      1.0080565218     -0.0010519365      0.0100705476     -0.0040852088      0.1078965610
H       2.8255873085      0.6624974302      0.5260788847     -0.0026040374     -0.0047135746      0.0004841354      0.1622677067
H       3.5781006333     -1.9723231238     -0.9032284449     -0.0012703712     -0.0063996447     -0.0008520873      0.0310992227
H       4.6136092711     -1.0914260475      0.2436849278      0.0037367143      0.0036454108     -0.0124372392      0.0469591511
H       4.1955694250     -0.3545181348     -1.3197684409     -0.0041444285     -0.0057357789     -0.0144251997      0.0332603864
H       0.1603693160      2.0560230450     -1.3533602344      0.0118885430      0.0142035200      0.0082483482      0.1278273763
H      -0.1507131961     -1.5274347687      0.6809013979      0.0083022490      0.0210572687      0.0038141743      0.0583013410
H      -1.7454110962      3.0772832896     -0.0884616112      0.0067806623     -0.0034547057     -0.0066012355      0.0409839331
H      -2.2684586825     -0.7968232867      1.7736691089      0.0026767320     -0.0047017322      0.0039894619      0.0109576207
H      -3.1134525668      1.5446219736      1.2870759146     -0.0100616136     -0.0056791531     -0.0221706835      0.0269156335
C       2.2594765884      3.3394362441      2.2526274826      0.0095239119      0.0144001668      0.0106737689     -0.1190554951
C       1.2302011902      2.3786249157      1.7027446286      0.0064705760      0.0008172363      0.0032033627      0.9133522392
O       0.6598888420      1.5455768011      2.3852233093     -0.0096328315     -0.0070792488     -0.0088952131     -0.6910227862
O       1.0523213659      2.5720611314      0.3779606908      0.0015707893     -0.0149418722      0.0122629122     -0.6958496210
H       2.6691301013      2.9277834698      3.1834963705     -0.0013965638      0.0107337009     -0.0022887740      0.0683277521
H       3.0613858321      3.5394500864      1.5290217877     -0.0195718746     -0.0053078122     -0.0018534948      0.0477411128
H       1.7687555893      4.2989835964      2.4797902806     -0.0090605003     -0.0129294050     -0.0100984658      0.0840353220
