28
Properties=species:S:1:pos:R:3:forces:R:3:charge:R:1 energy=-166.21463816574746 homo_lumo=3.1751743878257845 dipole="0.10652432242989232 0.1576713074908074 0.28497505146714164" free_energy=-166.21463816574746
N       0.1936686118     -0.0959007433     -0.5100760337     -0.0843397011     -0.1774841716     -0.1999187173     -0.5435205856
C       1.3539525648      0.7160338895     -0.8741228762      0.0057812947     -0.1676515089      0.5351337329      0.0016615726
C       2.4607943571      0.6320629867      0.1860286379      0.2125248544      0.2742086750     -0.5692270692     -0.2443265590
C       3.7389567903      1.3005308952     -0.3140751591     -0.3209506891     -0.1618388797      0.2303103772     -0.0574191434
C      -0.5457705006      0.2467408292      0.5871309789      0.1171595075      0.0705652278     -0.2746248613      0.2457179688
C       0.0948419821     -1.4063059465     -1.0921370354     -0.6969373991      0.4904288365     -0.2239889152      0.3122785691
C      -1.6168448728     -0.4763816010      0.9844882840     -0.3222189724     -0.3813729047      0.0934874467     -0.0833811746
C      -1.2137292806     -2.0584062638     -0.7876583017      0.6574826031      0.0239584529     -0.3786661330     -0.0512748309
C      -1.9814917428     -1.6400294164      0.2300964063      0.0066991406      0.4503708133      0.3986975330      0.0147853115
H       1.7274403172      0.3556519991     -1.8361425410      0.0477749392     -0.0822494772     -0.1765214312      0.1335022521
H       1.0295342169      1.7559996288     -0.9945123946     -0.0610334470      0.2487243963     -0.0800020073      0.0873670595
H       2.6611936202     -0.4160782487      0.4214344180     -0.0465944525     -0.2435483861      0.0880994830      0.1558842830
H       2.1245544894      1.1216079837      1.1053203455     -0.1147122460      0.0431526365      0.2616013576      0.0862089304
H       4.1049334936      0.8000131407     -1.2111584378      0.1375493731     -0.1399949037     -0.2783066308      0.0431988803
H       4.5115354898      1.2487879439      0.4532350998      0.3037491429      0.0499110365      0.1746681525      0.0326721753
H       3.5553512664      2.3495095413     -0.5519099874      0.0178148944      0.3400566318     -0.0901053912      0.0252016137
H      -0.2648579966      1.1776668203      1.0677186694      0.0845228057      0.1374012563      0.0774945264      0.0557993921
H       0.2988834706     -1.3459782014     -2.1708606423      0.1072451902     -0.0218718499      0.0564707035      0.1074179649
H      -2.2137639921     -0.1622153915      1.8291217170     -0.0941677432      0.1363552201      0.1975379182      0.0053531442
H      -1.4581753450     -2.9267667024     -1.3861782096     -0.1378234168     -0.1894467329     -0.1771693092      0.0332641201
H      -2.9079944066     -2.1492415704      0.4717309381     -0.2062297909     -0.1670348921      0.0296333963      0.0194705124
C       3.1975786313     -3.4474320832     -0.5808447612     -0.2117808482      0.3351612108     -0.1926951337     -0.0924711098
C       2.2665213526     -2.4639542393     -1.2525043913      0.5752867915     -0.7310409109      0.4457088672      0.9095646707
O       1.1649139728     -2.2800767490     -0.5348543454     -0.5190305769     -0.4930630951      1.1456111738     -0.6728296383
O       2.4995326929     -1.9261747238     -2.3043350039      0.4070915036      0.6580090718     -1.3735226251     -0.7120209062
H       3.3831467568     -3.1314718880      0.4439265943      0.0507850478      0.0071517925      0.3669455778      0.0530186825
H       2.7203498160     -4.4259408269     -0.5578435317     -0.1392851255     -0.3222903174      0.0846087068      0.0738430903
H       4.1321956261     -3.5051409992     -1.1327513495      0.2236373202      0.0134327723     -0.1712607284      0.0610337544
