28
Properties=species:S:1:pos:R:3:forces:R:3:charge:R:1 energy=-166.32255265501615 homo_lumo=3.1667930725108495 dipole="-0.05627825104835351 0.35212078319360696 -0.19764981794230377" free_energy=-166.32255265501615
N       0.4612559966     -0.0150852114      0.1335549550     -0.0005151791      0.0035034770      0.0011597613     -0.5333639559
C       1.5465758026     -0.0034448000     -0.8528739599     -0.0009614353     -0.0024427568     -0.0027268122     -0.0049064536
C       2.5222854132      1.1574557251     -0.6535039060     -0.0025928353     -0.0029120011     -0.0027109739     -0.2527499323
C       3.5974969218      1.1891907615     -1.7336862927      0.0014847702     -0.0057794370     -0.0045475451     -0.0783530762
C      -0.4957033980      0.9593002084      0.0701277938     -0.0065731204     -0.0031268283      0.0161661705      0.2434734375
C       0.5843355391     -0.8518855054      1.2733069517      0.0022994684      0.0017474388      0.0060409816      0.2884721623
C      -1.5360951781      1.0130575650      0.9478712912      0.0030944373     -0.0050359862     -0.0039697731     -0.0836967158
C      -0.6652355641     -0.9609252552      2.0440259475     -0.0022528631     -0.0019475556     -0.0022372309     -0.0497361690
C      -1.6367926609     -0.0211003732      1.9273777693     -0.0061698962     -0.0109985113     -0.0055522538      0.0065844622
H       2.0835486233     -0.9599426132     -0.7642755991     -0.0098959677      0.0051490018      0.0003746178      0.1340061446
H       1.0959009925      0.0425833423     -1.8604519773      0.0004031977      0.0067475384      0.0027446025      0.0924217510
H       2.9867058158      1.0632184484      0.3398363551     -0.0071781022      0.0071515315      0.0030330366      0.1735490030
H       1.9591620805      2.1068590854     -0.6497644162     -0.0007578489      0.0030435664     -0.0000639213      0.0924947335
H       4.1806043846      0.2549043784     -1.7372715106     -0.0000566021     -0.0000674356     -0.0005926239      0.0446464109
H       4.2958517027      2.0221016815     -1.5639735803      0.0072933967     -0.0054514852     -0.0143990299      0.0426036337
H       3.1545122630      1.3198584588     -2.7343741814      0.0068629522     -0.0121873549     -0.0014540923      0.0301166974
H      -0.3995385515      1.6505324418     -0.7668003736      0.0107449977      0.0125493501      0.0078650766      0.0607726910
H       1.0543020381     -1.8040259209      1.0046256119      0.0160297052      0.0034539754      0.0068556185      0.1130881020
H      -2.3010802585      1.7787771659      0.8424620936      0.0018217595      0.0131871057      0.0049034937      0.0121300219
H      -0.7451890863     -1.7887960654      2.7487498503      0.0023668350      0.0027023832     -0.0004284097      0.0378761721
H      -2.5275090017     -0.0768334535      2.5565240614     -0.0130874434     -0.0219565599     -0.0091617747      0.0282546109
C       3.8025991282     -0.1124525083      3.1995984272     -0.0062546474     -0.0069037402     -0.0085811854     -0.0990574179
C       2.8789100639     -0.7574901761      2.1970771492      0.0016450756     -0.0068527578     -0.0133565813      0.8897532101
O       1.6429177242     -0.2249780069      2.2637429548      0.0016072163      0.0101425244      0.0020940234     -0.6666255135
O       3.2354313949     -1.6301428805      1.4142703008     -0.0030752839      0.0118403482      0.0081792957     -0.7176688833
H       4.0028353139      0.9252153653      2.8921884852      0.0008690422      0.0060547850      0.0034171897      0.0589189701
H       3.3316631948     -0.0720575043      4.1913883105     -0.0079477135     -0.0059223096     -0.0023075788      0.0704120678
H       4.7442024771     -0.6710182422      3.2373781219      0.0107960846      0.0043116935      0.0092559186      0.0665838354
