44
Properties=species:S:1:pos:R:3:forces:R:3:charge:R:1 energy=-239.88003421122664 homo_lumo=3.425313736629411 dipole="-5.587048948899524 -1.2610363152612345 -0.18867461155916895" free_energy=-239.88003421122664
N       0.9791992410     -0.3088620237     -0.0046606539     -0.3262890074      0.0343821189     -0.0128486070     -0.5215123592
C       2.0465019119      0.0704485127     -0.9819888399      1.5230007706      0.9992035202     -1.7077748189     -0.0286910395
C       1.6517658741     -1.2287170172      0.9642226255      0.6649464739     -1.6910860123      1.6759519383     -0.0128896505
C       0.4893728148      0.9057731433      0.7258505332     -0.7594248798      1.3824930075      0.4095806005     -0.0479676175
C      -0.1196468016     -1.0283269170     -0.7281435742     -1.3818799570     -0.6614227516     -0.3460251248     -0.0407091864
C       3.2540023563     -0.8123418719     -0.7322904961      0.2730393028     -0.4629206836     -0.6440374714     -0.1518273575
C       3.1481970042     -1.1517788052      0.7273569916      0.4974629349      0.3979510965      0.6341538313     -0.1531369549
C      -0.2502902272      1.9383626533     -0.1589162198      0.2039521291     -0.3521704660      0.1363119798     -0.2155985997
C      -1.3048557708     -1.4673961050      0.1648969484      0.3620313323      0.1674788180     -0.1701609706     -0.2144947060
C      -0.5689931203      3.2066216197      0.6432007311      0.0766489605     -0.0332699408      0.0721026614     -0.2143720393
C      -2.3038974548     -2.3071799087     -0.6417857518      0.0602934119      0.0083735111     -0.0521048018     -0.2127116285
C      -1.3052201084      4.2348397301     -0.2107241029     -0.0678455719      0.1558288288      0.0148987099     -0.0898566362
C      -3.4880970732     -2.7417043430      0.2167073531     -0.1452511746     -0.0933473403     -0.0263602813     -0.0897806213
H       2.3859578399      1.1237939701     -0.8513516723     -0.5484514021     -0.3348016260      0.2976768311      0.1710957043
H       1.7261749054     -0.0226690621     -2.0451419452     -0.3313868550      0.0652046970      0.6081736438      0.1330168361
H       1.3557143019     -2.2923188148      0.8117496318     -0.3496539725      0.6011563792     -0.2848164689      0.1407901242
H       1.4242190782     -0.9924019945      2.0291289763     -0.3021440824      0.1475879240     -0.6024415352      0.1351758706
H      -0.1873487967      0.6141583572      1.5595385821      0.2470358323     -0.2658147661     -0.4068089857      0.1517582548
H       1.3519653950      1.4161283791      1.2148340117     -0.0338766096     -0.4769539837     -0.3625871316      0.1738406751
H      -0.5199924513     -0.3989304835     -1.5537878392      0.3600760718      0.0715621935      0.4094789881      0.1560369096
H       0.2968568561     -1.9345231312     -1.2271298545      0.2382699268      0.4273680406      0.3521674712      0.1560048907
H       3.1783682221     -1.7400931493     -1.3422756297      0.1311039837      0.2646522274      0.0848037994      0.0782471309
H       4.2039142684     -0.2862277237     -0.9664119610     -0.1529523138     -0.2246033970     -0.0072227899      0.1882769810
H       3.5872595914     -0.3323470274      1.3394520660      0.1043320437     -0.3536171768     -0.1760156341      0.1464972699
H       3.6573101345     -2.1117307663      0.9636675022     -0.1497671263      0.4814768676      0.1287906926      0.1075739850
H       0.3682718373      2.2143542752     -1.0389257309     -0.1494520255     -0.1026031084      0.1577747006      0.1266025216
H      -1.2068695651      1.5106296642     -0.5255618756      0.2264551042      0.0576713994     -0.0099544273      0.1208831254
H      -0.9426910303     -2.0661724405      1.0273384583     -0.0769411864      0.1874637823     -0.1419574235      0.1207999047
H      -1.8387936444     -0.5767358101      0.5570517867      0.1689937967     -0.1811439122      0.0014149582      0.1272959022
H       0.3739763490      3.6619890564      1.0179940563     -0.2197064136     -0.1930448367      0.0214169660      0.1117403315
H      -1.2044641784      2.9450344373      1.5177818168      0.2520394151      0.0405960617     -0.1049894903      0.0961780080
H      -2.6836561819     -1.7115699630     -1.5010535577      0.1909047283     -0.1826871768      0.1056686593      0.0996630469
H      -1.7981483715     -3.2142250644     -1.0398969507     -0.0747360442      0.2709598399     -0.0285350945      0.0997824914
H      -2.2620565820      3.8128083450     -0.5855347521      0.2498088032      0.2044867212      0.0270143271      0.0418853982
H      -0.6759413885      4.5427950358     -1.0727635175     -0.2677080966     -0.0410222960      0.2025188542      0.0538726292
H      -1.5301049022      5.1328945631      0.4027342626      0.0133266908     -0.2123257581     -0.2963489892      0.0642463190
H      -4.0239709292     -1.8537398201      0.6148341362      0.0947914657     -0.3187869289     -0.0374454940      0.0472875635
H      -3.1411542532     -3.3725666332      1.0625407834     -0.2000808668      0.1961124296     -0.1844410579      0.0498327767
H      -4.1952866086     -3.3346927232     -0.4011475630      0.1270055267      0.1623743000      0.3013965820      0.0631434279
B       7.0190252344      1.1324768946      0.2080509983      0.6611123287      0.3638509629      0.1044943936      1.2908827467
F       8.4386854793      1.1726812190      0.2023471859     -0.0321595559     -0.0390454064     -0.0161144873     -0.5517692346
F       6.5191258983      1.8925548045     -0.8829086529     -0.3620098661      0.0575374464     -0.2693885142     -0.5679148705
F       6.5341387220      1.6780785653      1.4263467203     -0.3110378744      0.0268559919      0.2271960301     -0.5645182789
F       6.5860307554     -0.2142808173      0.0872341422     -0.4838761524     -0.5519605975     -0.0846070191     -0.5746600447
