73
Properties=species:S:1:pos:R:3:forces:R:3:charge:R:1 energy=-395.8137157241621 homo_lumo=5.299270541313297 dipole="-1.5056022237273332 0.32524998795870597 -3.46653976098069" free_energy=-395.8137157241621
N      -1.0062151853      1.1638866263      1.1533053979     -0.0004411110     -0.0026835094      0.0007955098     -0.4837601878
C      -1.1123721769      2.3779752028      2.0704021673     -0.0095177358      0.0038796780     -0.0034552222     -0.0457683019
C      -2.3805719488      0.8542270683      0.5901196783     -0.0030460843      0.0018718892      0.0097513548     -0.0102368869
C      -0.1089158554      1.4982123582     -0.0252436540      0.0013054012      0.0061590153      0.0012215774     -0.0115623292
C      -0.4506551509     -0.0089700568      1.9485112991      0.0041005506     -0.0009611108      0.0049221258     -0.1313067230
C      -2.1713252031      2.2205589355      3.1479714258     -0.0047129424     -0.0065435149     -0.0066891539     -0.2127689783
C      -3.4354690816      0.6514316205      1.6632347396     -0.0003402499      0.0127341909      0.0000841448     -0.1752246149
C      -3.5386749137      1.8832592965      2.5614361649      0.0119247802     -0.0061958356     -0.0020122378     -0.1603955397
C       1.3420026808      1.7620113858      0.3227670386      0.0036139220     -0.0014134515     -0.0011322563     -0.2486068676
C      -0.2182476169     -1.2857440988      1.1645184052      0.0050073178     -0.0027358661      0.0042742251     -0.2252746909
C       2.1458271410      2.1407411147     -0.9225397794      0.0059459042     -0.0004455853      0.0156181804     -0.1590846885
C       0.3434109672     -2.3550083640      2.1081124956     -0.0025190523     -0.0076974255     -0.0091881419     -0.1914779691
C       3.6119517334      2.4056201282     -0.5796603284     -0.0040408548     -0.0006426757     -0.0155010421     -0.2157048179
C       0.6278664244     -3.6751880591      1.3977352890      0.0007622540      0.0032394849      0.0135691016     -0.2038323808
C       4.4429960584      2.7923302030     -1.7987639872     -0.0005178762     -0.0005163365      0.0039195009     -0.0658443884
C       1.1949876130     -4.7229879283      2.3521836323      0.0007215117     -0.0014078506     -0.0053208846     -0.0690356463
H      -1.3470542013      3.2258304151      1.4050439081      0.0001723583     -0.0006497609      0.0033946955      0.1085982990
H      -0.1240002480      2.5269686943      2.5216011367      0.0022225219      0.0028126298     -0.0010713510      0.1969682099
H      -2.2692473907     -0.0258624632     -0.0576464822      0.0032066828      0.0015619471     -0.0046669692      0.1381203339
H      -2.6419071218      1.7181848700     -0.0431733057      0.0000038654      0.0007702243      0.0009573348      0.1268087599
H      -0.5644790577      2.3807897805     -0.5034279256      0.0052453935      0.0000044554      0.0058734550      0.1217680099
H      -0.1972583876      0.6548697741     -0.7269271363      0.0026837602      0.0035060241      0.0001602074      0.1355455295
H      -1.1458354867     -0.1851003045      2.7733894657     -0.0034577768     -0.0039530312     -0.0004387658      0.2354781263
H       0.4753705011      0.3483345161      2.4123633265     -0.0006755055     -0.0023891380     -0.0045446905      0.2454235114
H      -2.1994131476      3.1718509380      3.7023007020      0.0001438249      0.0041732835      0.0110679315      0.1256315715
H      -1.8575109846      1.4643220490      3.8813940774     -0.0045389531      0.0046853157      0.0057523176      0.1943365868
H      -3.2105513537     -0.2465503732      2.2622861382     -0.0047257651     -0.0056584266      0.0017336172      0.1164096411
H      -4.3904544480      0.4541661456      1.1480658886     -0.0056421468     -0.0052236374     -0.0008079283      0.1045554720
H      -3.9140271389      2.7356853465      1.9647117580     -0.0057916822     -0.0018763353      0.0060540917      0.0778216828
H      -4.2637308746      1.7071511804      3.3703051448     -0.0116526779      0.0035721208      0.0052786649      0.0955877897
H       1.4255202734      2.5753086218      1.0590980261     -0.0016015418      0.0035664427      0.0034995999      0.1411742622
H       1.7983623281      0.8726742414      0.7826137538     -0.0006022774     -0.0043498385     -0.0003396871      0.1567070416
H      -1.1556627996     -1.6600799110      0.7165744090     -0.0021201623     -0.0039795187      0.0007526714      0.0886680399
H       0.4987644490     -1.1249054605      0.3409076249      0.0014579769     -0.0022336938      0.0034276378      0.0965008189
H       1.7087806149      3.0411354893     -1.3940806680      0.0004970773      0.0027814042      0.0018584595      0.0789480609
H       2.0830877200      1.3299097546     -1.6724199639      0.0005489602     -0.0053826559     -0.0005719820      0.0826264338
H       1.2645897843     -1.9780558394      2.5824804766      0.0127052958      0.0045455140     -0.0034395132      0.1530263925
H      -0.3649624366     -2.5234066294      2.9373934347     -0.0080068346     -0.0035707049      0.0033765310      0.1178448188
H       4.0385849501      1.5048514383     -0.1035097831      0.0040160090     -0.0071797413     -0.0015984634      0.1029606312
H       3.6646109211      3.2051595388      0.1804444625      0.0008732949      0.0062833850      0.0008636108      0.1010976297
H       1.3395026891     -3.4998097110      0.5698942884      0.0030356765     -0.0015224850     -0.0030203283      0.0766605487
H      -0.3025766927     -4.0543209384      0.9355786133     -0.0044561728     -0.0018789534     -0.0003448168      0.0740797276
H       5.4924320850      2.9729899051     -1.5221706095      0.0005246270      0.0004639597     -0.0049190611      0.0479343530
H       4.4271509401      1.9943174894     -2.5585562924     -0.0009075919     -0.0038838631     -0.0045534712      0.0335689090
H       4.0550816544      3.7109966519     -2.2673266140     -0.0035865124      0.0040145681     -0.0037017922      0.0333838301
H       1.4024376695     -5.6709957655      1.8337412107      0.0019035628     -0.0045436558     -0.0062122690      0.0354891380
H       2.1328664290     -4.3687593702      2.8079046601      0.0026267969     -0.0036978967     -0.0052891869      0.0479358079
H       0.4884645220     -4.9294866175      3.1715355897      0.0005045141     -0.0018637029     -0.0034461863      0.0441701056
P       1.1936714334      0.4920777321      5.8748861350      0.0024547626      0.0073601543     -0.0042608821      1.7245993656
F       1.4570835538     -0.8637248407      4.9264927635      0.0000604031     -0.0008485771      0.0017728231     -0.5319798231
F       1.7788285829     -0.2940180736      7.2059008336     -0.0021958926      0.0111281181     -0.0112572519     -0.5093906078
F       0.5554481488      1.3435453002      4.5382268447      0.0061308988     -0.0070333323      0.0014309195     -0.5547011949
C       3.0355870501      0.9968199759      5.2838300741     -0.0111523504      0.0075322071     -0.0175208804      0.5487230052
C      -0.6481013708     -0.2458915898      6.1189377538      0.0004173851      0.0007913395     -0.0006735130      0.4972504791
C       0.9051734164      2.0700416409      7.0809950063     -0.0023949309      0.0044053375     -0.0045385234      0.5741514472
C       3.3072172169      1.2023344252      3.7524745810     -0.0012059975      0.0021077294      0.0238649843      1.3586206105
C      -0.8828429950     -1.3351762112      7.2053232261      0.0065618600      0.0000753254     -0.0002563061      1.3819464339
C       0.4911971008      3.4453145476      6.4810747065     -0.0004470106     -0.0039194787      0.0149815988      1.3792100515
F       3.8928503294     -0.0089614075      5.6657798788      0.0122305712     -0.0018931917     -0.0038264884     -0.4350333019
F       3.5282035808      2.1647586969      5.8236510903      0.0074467080      0.0096717394      0.0060152573     -0.4469423849
F      -1.0462996105     -0.8711514599      4.9335041456     -0.0053363658     -0.0015895274     -0.0110385843     -0.4740655075
F      -1.5987006803      0.7312442816      6.3199069108     -0.0169714532     -0.0056772041     -0.0043758683     -0.4563626955
F       2.0461327999      2.3062548449      7.8083313230      0.0010690065      0.0025757806      0.0056285119     -0.4396665891
F      -0.0662672186      1.7764212426      8.0153679227      0.0095400107     -0.0032761222      0.0117970143     -0.4472357217
F       4.6457725455      1.3348250565      3.5501537343      0.0033520380      0.0045109798     -0.0104461786     -0.4474851980
F       2.7204702281      2.3393277492      3.2875969784     -0.0105948207      0.0099232319     -0.0054567432     -0.4678401465
F       2.8895489330      0.1729295443      2.9673726931     -0.0024479586     -0.0006355569     -0.0030257486     -0.4762319691
F      -2.1903326361     -1.7401101070      7.1637390169     -0.0014490200     -0.0000484838      0.0017714956     -0.4575318256
F      -0.1130480972     -2.4222358541      6.9677514507     -0.0001064527      0.0031181057      0.0039799861     -0.4431179717
F      -0.6373475079     -0.8831213053      8.4504053452      0.0082482092      0.0028175076     -0.0130304534     -0.4381544230
F       0.4623247059      4.3904896967      7.4596288352      0.0020187643     -0.0032753881      0.0028327723     -0.4478394435
F      -0.7520130407      3.3984998902      5.9298384696      0.0017552017     -0.0057641715      0.0004850129     -0.4641963414
F       1.3575655025      3.8683107685      5.5281399284      0.0001641010     -0.0076018542     -0.0007941002     -0.4526713099
