40
Properties=species:S:1:pos:R:3:forces:R:3:charge:R:1 energy=-214.23851964113715 homo_lumo=6.222665713364283 dipole="-2.097972142476493 1.564706158771786 1.7392625757093672" free_energy=-214.23851964113715
N       0.1108534921     -0.4980357846      0.3551925173     -0.1876440678     -0.0815260111      0.2596616352     -0.5026749167
C      -0.3703364817     -1.3386095651     -0.7913943444     -0.1627821179     -0.0383558846     -0.5079452095     -0.0293963731
C      -0.9800032418      0.5159638330      0.5029948416     -0.2482722332      0.3295202761     -0.2120332076      0.0187714727
C       1.4063615757      0.1651381598     -0.0253204870      0.3314100291      0.3394608461      0.4999711286     -0.0954809572
C      -0.9767077885     -0.3478082084     -1.7765213561      0.0508766916     -0.0414579005      0.1146987681     -0.1362911347
C      -1.4051216993      0.8584194370     -0.9249061685      0.0253670030      0.0070511585      0.1358909039     -0.1458526405
C       0.2384456822     -1.3190469332      1.6040440238      0.4556602803     -0.3958810326      0.1735057116     -0.0572011918
C       2.0388657048      1.0369000134      1.0539480429     -0.0062596781     -0.1816601995     -0.5744991107     -0.2093067528
C       1.3166940040     -2.3891866942      1.5247536159     -0.3950919979      0.3956678461      0.0893687510     -0.0930004490
C       3.3693726272      1.5801194255      0.5134618071     -0.2066690711      0.0963367753      0.5590897834     -0.2032022524
C       4.0637860116      2.4655483110      1.5444803806     -0.1516030922     -0.2098128071     -0.3642515679     -0.0459754776
H      -1.1274992966     -2.0235437298     -0.4022708691     -0.1771907597     -0.1111352337      0.2306139778      0.0974224949
H       0.4579140604     -1.9037212539     -1.2112244456      0.1646544048     -0.1834049962     -0.0357035061      0.2489339791
H      -1.7984037558      0.0443827965      1.0523384119     -0.1159744625     -0.1825556641      0.1567574430      0.1123867307
H      -0.6174103351      1.3731702538      1.0691243978      0.0889178962      0.1248768865      0.2104338171      0.1293821002
H       2.0991810307     -0.6258249257     -0.3052443888      0.0547510698     -0.1386735516     -0.1076261486      0.2916834073
H       1.2059638149      0.7626938598     -0.9157174052     -0.0519658537      0.0493705352     -0.2254024740      0.1649524801
H      -0.2378583816     -0.0573276535     -2.5258789187      0.1429852241     -0.0240508418     -0.2032518101      0.1093646486
H      -1.8256019450     -0.7995185132     -2.2916254283     -0.1373721195     -0.1379607160     -0.1833750501      0.0906442403
H      -2.4840799730      1.0179735255     -0.9641083981     -0.2394951512      0.1389973007      0.0142051522      0.0915367447
H      -0.9149470011      1.7719362861     -1.2669780793      0.0449514719      0.2455682333     -0.0803069697      0.0830414923
H       0.4351532037     -0.6283715008      2.4276628286     -0.0281292987      0.2061222308      0.1498604308      0.1291851007
H      -0.7378939253     -1.7825139412      1.7720015259     -0.2721155699      0.0063717046     -0.0294467659      0.1143902247
H       1.3848114249      1.8719099450      1.3244671281     -0.1207612364      0.2681259600      0.1440581424      0.0816568392
H       2.2367387232      0.4539450429      1.9572393618      0.0742070868     -0.1356181889      0.2630228887      0.1052237123
H       2.3109790739     -1.9557952529      1.4438615898      0.2889523550      0.0309942643     -0.0588170792      0.0833879659
H       1.1599741808     -3.0522421791      0.6768655397      0.0631138164     -0.1994065749     -0.2330405446      0.1081678186
H       1.2694411521     -2.9776087521      2.4407896503     -0.0073623053     -0.1781193787      0.2928855772      0.0467323892
H       4.0183254497      0.7387859918      0.2525391575      0.1122901798     -0.2091459679     -0.1709445261      0.1284161147
H       3.1823120314      2.1557729464     -0.3985771391     -0.0170682289      0.0855538220     -0.2846262864      0.0877483286
H       4.2658621734      1.9044264585      2.4577751998      0.0965982213     -0.1333019187      0.3037895121      0.0293423280
H       3.4406943575      3.3254328441      1.7954631684     -0.1438061143      0.2904273143      0.1225257533      0.0215209429
H       5.0098731951      2.8271649825      1.1425986337      0.3162804459      0.1660356110     -0.0255083068      0.0432631169
P       3.1329464331     -2.5799058680     -2.1686336684     -0.1425300284      0.1661816848     -0.0084275548      2.1943895320
F       4.3694238775     -1.7422956610     -2.8135260479      0.2022702004      0.1267774953     -0.0882101298     -0.4957382771
F       4.0732919240     -3.8714021463     -1.8794583083      0.1414922060     -0.2053723850      0.0606268475     -0.4925961290
F       3.5092557501     -1.9632610843     -0.6509077447      0.1500799185      0.0426324670      0.0452353490     -0.5350779438
F       1.8285668009     -3.3600593782     -1.4552203148     -0.0631466280     -0.1624643514     -0.0447222982     -0.5341414012
F       2.1223799802     -1.2428153239     -2.4005418377      0.1320208374     -0.0632575269     -0.1655092172     -0.5401484515
F       2.6835163958     -3.1548959838     -3.6220381112     -0.0616393235     -0.1029112805     -0.2225538095     -0.4954598563
