40
Properties=species:S:1:pos:R:3:forces:R:3:charge:R:1 energy=-214.34429028129617 homo_lumo=5.96835997786373 dipole="-2.2385520333983417 1.6715135924685183 1.8796951064672522" free_energy=-214.34429028129617
N       0.0819988191     -0.4894470832      0.3838535152      0.0097403439      0.0027037694      0.0087884836     -0.4897564903
C      -0.4145050629     -1.3426589349     -0.7734030566      0.0010145093     -0.0015998306     -0.0127326149     -0.0359160159
C      -1.0192413383      0.5373441477      0.5168927067      0.0008577738      0.0039229431     -0.0219720060      0.0099020899
C       1.3977304507      0.1680346295     -0.0072370983      0.0053281881      0.0031683191      0.0157284887     -0.0989021200
C      -0.9900271095     -0.3403755932     -1.7693064953      0.0045126774      0.0063345979      0.0076051685     -0.1518748549
C      -1.4146310879      0.8884207258     -0.9198857788      0.0036042666      0.0001329072     -0.0022944143     -0.1595230375
C       0.2142210864     -1.3034202528      1.6517207680     -0.0005416426     -0.0013876916      0.0049300920     -0.0610312517
C       2.0338404800      1.0437680188      1.0575862053     -0.0036519792     -0.0106036421     -0.0121492294     -0.2184663030
C       1.2900350813     -2.3679501696      1.5881861945     -0.0046133867      0.0084002450      0.0008124303     -0.1120231402
C       3.3649484181      1.5904825932      0.5234932825     -0.0179455879     -0.0130646987     -0.0094765495     -0.2098112305
C       4.0800068733      2.4738065391      1.5411257673     -0.0064252407      0.0001080286      0.0050019936     -0.0684198636
H      -1.1986977505     -1.9881193742     -0.3476758760      0.0062288544     -0.0088076083     -0.0040004388      0.1077278998
H       0.4071562873     -1.9529304799     -1.1703327243      0.0007963869     -0.0039077557      0.0031406421      0.2368518544
H      -1.8419177631      0.0361126959      1.0488925611     -0.0030811332      0.0006490655      0.0113579236      0.1201440428
H      -0.6629706256      1.3800596720      1.1213566202     -0.0031430746      0.0007549526      0.0081866580      0.1299264887
H       2.0750624245     -0.6439998969     -0.3009066811     -0.0027809836      0.0019653577     -0.0022708765      0.2823369755
H       1.1905492005      0.7484451224     -0.9167349740      0.0028461900     -0.0078924525      0.0079598823      0.1723434578
H      -0.2295106247     -0.0749780326     -2.5173097565     -0.0027841844     -0.0012769800     -0.0006223770      0.1192549368
H      -1.8358946829     -0.7885160826     -2.3092100627      0.0051097406      0.0035383577      0.0020377594      0.1002905479
H      -2.4959411960      1.0823645429     -0.9728964320      0.0130421449      0.0008976977      0.0000415680      0.0994974315
H      -0.9049858461      1.8016353899     -1.2597604112      0.0031025359     -0.0060734274      0.0044283620      0.0910588693
H       0.3937048327     -0.5843605457      2.4652403701     -0.0029804336     -0.0101936869     -0.0038078243      0.1324964928
H      -0.7801796644     -1.7509078157      1.8098378126      0.0113518745      0.0015470237      0.0045630133      0.1181016712
H       1.3827499677      1.8900932807      1.3428082003      0.0039523465     -0.0108849642      0.0025302972      0.0855534992
H       2.2389567118      0.4619719566      1.9726658257      0.0020298164      0.0066255885     -0.0024760699      0.1100716842
H       2.2989861672     -1.9434018416      1.5033974173     -0.0091081973     -0.0054938000      0.0018228956      0.0876873522
H       1.1542548018     -3.0495367066      0.7370055894      0.0108356402      0.0061226532      0.0107808202      0.1105615944
H       1.2434855730     -2.9578083657      2.5160070244     -0.0041395106      0.0111321498     -0.0027558063      0.0593590764
H       4.0057917345      0.7392387268      0.2354967720     -0.0030308958      0.0140191076     -0.0039393656      0.1344321941
H       3.1768073679      2.1622731075     -0.4030803521      0.0051848978     -0.0046673597      0.0110246560      0.0933860117
H       4.2984333030      1.9166071707      2.4663990614     -0.0061288082     -0.0044924599     -0.0013712338      0.0360637597
H       3.4694280680      3.3510972325      1.8099045241     -0.0053980054     -0.0066038024      0.0053741758      0.0278176746
H       5.0364324360      2.8408127957      1.1401463297     -0.0020951747     -0.0027334849     -0.0074409402      0.0517651095
P       3.1997451702     -2.6272621391     -2.2612496459      0.0167870883     -0.0147731398     -0.0053038636      2.1855099122
F       4.4726724243     -1.8287698208     -2.9088658859     -0.0081185799      0.0005926312     -0.0024478153     -0.4966906164
F       4.1215121755     -3.9311809378     -1.9093542561     -0.0138543725      0.0129921820     -0.0003724783     -0.4943251870
F       3.5639480730     -1.9690363313     -0.7508824864     -0.0001667434      0.0042035864     -0.0080928139     -0.5360102203
F       1.8684779169     -3.3802359038     -1.5494204625      0.0001787738      0.0086115991     -0.0081353713     -0.5355251194
F       2.2161782849     -1.2916149758     -2.5498443272     -0.0007376106      0.0092275781     -0.0092812148     -0.5377028072
F       2.7765089283     -3.2501632841     -3.7131514235     -0.0057785043      0.0068064437      0.0048279935     -0.4961623689
