40
Properties=species:S:1:pos:R:3:forces:R:3:charge:R:1 energy=-214.65519181455838 homo_lumo=3.3350811191558023 dipole="-0.9121885528529581 -0.2634094117088017 2.1013527050241176" free_energy=-214.65519181455838
N      -1.8844641053      0.0494847854      0.1436436569      0.0888531146     -0.1382921079      0.2465695835     -0.4978863059
C      -2.1220186020     -1.0426158825     -0.8599378039     -0.4759692090     -0.4120854022     -0.1492338291     -0.0095159842
C      -2.9585533081     -0.1818257933      1.1613411286     -0.4506391190     -0.0508182373      0.0465090954      0.0255789645
C      -0.5370129273     -0.0917617025      0.7859981008      0.5655975410      0.2060969118     -0.4419579337     -0.0040333238
C      -3.6364479751     -1.1553422048     -0.9697700277      0.1525849099      0.0376466797      0.1227163455     -0.1266998265
C      -4.1851796286     -0.6296783780      0.3671008708      0.0563927530      0.0683363688      0.0853014523     -0.1407481277
C      -2.0679715715      1.3857610649     -0.5264123339      0.0349793394      0.6864791786      0.3971460600     -0.0895383642
C       0.6355180694      0.0725284165     -0.1775238101     -0.0495134336     -0.1991272644      0.9244325554     -0.1990914473
C      -1.7250239445      2.5812934665      0.3466922733     -0.1517862592     -0.5212832855     -0.0930752900     -0.0807500731
C       1.9520032950     -0.1367831403      0.5761600207     -0.2117091207      0.1867608067     -0.6786612852     -0.1472559824
C       3.1430847560      0.0257018632     -0.3733356290      0.1100801623     -0.2194026820      0.8972543330     -0.1556378183
C       4.4708404422     -0.1924250390      0.3578348656     -0.0541414778      0.1723957890     -0.7009624817     -0.1944441443
C       5.6584903316     -0.0285155697     -0.5892084473     -0.2087814335     -0.0931827669      0.4339807567     -0.0429818447
H      -1.6866971157     -1.9598034377     -0.4565791140      0.1409515590     -0.1693777220      0.2392559413      0.0892418997
H      -1.6331665949     -0.7746120825     -1.8050571355      0.3907156875      0.2283648420     -0.4372449335      0.1889033603
H      -3.1239731167      0.7261560614      1.7405475191      0.0514376044      0.2057337853      0.1803403970      0.1244920640
H      -2.6171247166     -0.9749445693      1.8303855908      0.1760830067     -0.1662907328      0.1162567544      0.1093847445
H      -0.5091208556     -1.0895684997      1.2341054305     -0.1049339748     -0.2320858651      0.1123143350      0.1088859154
H      -0.4849257171      0.6442800577      1.5928745774     -0.0357074622      0.1623322676      0.2151779293      0.1254480963
H      -3.9266397985     -2.1926270144     -1.1433983861     -0.0594207052     -0.2255292670     -0.1346418428      0.0866025762
H      -4.0091362613     -0.5551734557     -1.8020224001     -0.0434930273      0.0965732948     -0.2691422265      0.0867769683
H      -4.8700242568      0.2052715281      0.2063332443     -0.2191151255      0.1682816636      0.0109887576      0.0754811170
H      -4.7212013075     -1.4055861785      0.9165560711     -0.1848887884     -0.1172672092      0.1832331167      0.0864840782
H      -1.4441376807      1.3759265540     -1.4300132724      0.1758806357     -0.2323087617     -0.5042190587      0.2041865822
H      -3.1141380465      1.4384368279     -0.8330824205     -0.2353639922     -0.0948177427     -0.1017488863      0.1403989782
H       0.5577852686     -0.6522549657     -0.9903077596     -0.0592691764      0.0059678398     -0.3359113355      0.1450158860
H       0.6282698924      1.0676031091     -0.6260809682     -0.0287794960      0.1344452872     -0.2766313202      0.1405645249
H      -2.0129892457      3.4771117042     -0.2030331990     -0.0676112117      0.2772090825     -0.1405303168      0.0656159970
H      -2.2644498009      2.5750178238      1.2940610153     -0.1595074854      0.1395023879      0.3390850928      0.0210790157
H      -0.6569492386      2.6404366814      0.5480792778      0.3340347167      0.0690728664      0.0521001546      0.0500474660
H       1.9675392760     -1.1393584387      1.0188360147      0.0605453798     -0.2722465092      0.1754435400      0.0642072064
H       2.0290477306      0.5903006638      1.3928313097      0.0925544398      0.1670444156      0.2816455906      0.0650513050
H       3.1244364918      1.0301469886     -0.8081873153     -0.0233154870      0.2364216446     -0.1973582779      0.0937064010
H       3.0528316829     -0.6939984280     -1.1930026001     -0.0491757880     -0.1225021371     -0.2763290202      0.0994522230
H       4.5580319110      0.5272509632      1.1794973751     -0.0017582115      0.1405252774      0.2634722243      0.0725922566
H       4.4875515926     -1.1982085724      0.7921233785     -0.0214457072     -0.2437639857      0.1783303373      0.0733932919
H       5.6703868724      0.9750973385     -1.0162874346      0.0391981559      0.2950453735     -0.1752933145      0.0293043898
H       6.5926427073     -0.1881537908     -0.0499811516      0.3725529670     -0.0295694241      0.0619160144      0.0246733576
H       5.5991607934     -0.7511243922     -1.4040548117      0.0163634930     -0.1949964932     -0.2837862645      0.0305512538
Cl     -0.5045699111      0.4563412971     -3.1789678486      0.0375202259      0.0507118333     -0.3667427502     -0.7385366771
