40
Properties=species:S:1:pos:R:3:forces:R:3:charge:R:1 energy=-213.27158770180796 homo_lumo=1.0272948489915457 dipole="2.222731117651892 0.15598012757510663 -3.857714597019841" free_energy=-213.27158770180796
N      -1.8836542804      0.1424532392     -0.0927575984      0.1428380746      0.1210862245     -0.1950719601     -0.5240567444
C      -2.0964137411     -1.0735330336     -0.9365999518      0.1878900996     -1.8603772973     -1.5294202078     -0.0055473810
C      -3.0165381610      0.1364880658      0.8834636634     -1.7861760450      0.5239815937      1.7490580266     -0.0199179622
C      -0.5866139474      0.0389992905      0.6533545702      1.5834105969      0.0198878001      0.3836172630     -0.0472732124
C      -3.4751390622     -1.6267481794     -0.6326250540     -0.5599326550      0.0268871618     -0.5702369415     -0.1365918042
C      -3.7168876627     -1.2047050587      0.7890944586     -0.0002603243     -0.5338136352      0.5960093298     -0.1230181462
C      -1.9533585793      1.3670053434     -0.9547029370      0.0653905965      1.5615277532     -0.7407985324     -0.0797524540
C       0.6768787458      0.0390592565     -0.2411872295     -0.4583484434      0.0330375696      0.1473145721     -0.2105287680
C      -1.7276036113      2.6910188327     -0.2028352973      0.0664272114     -0.2445921671      0.1443578557     -0.1203855364
C       1.9377770829     -0.1808404065      0.6041995494     -0.1586630152      0.0155268190     -0.1827242708     -0.1691931021
C       3.1976277479     -0.2101713409     -0.2702993497     -0.0483635596     -0.0217975477      0.4579063207     -0.1682535397
C       4.4568761934     -0.3688038042      0.5903934673      0.0540201112      0.0123413224     -0.2495082959     -0.2083175937
C       5.7152189504     -0.4103103125     -0.2713793340      0.2416304015     -0.0306131632      0.1216797319     -0.0843516448
H      -1.3692268035     -1.8836267789     -0.6984927522      0.0421771983      0.7140986961      0.1704305875      0.1436843356
H      -2.0030294685     -0.8742018321     -2.0287311295      0.2658093649      0.2961815218      0.5459902445      0.1245884923
H      -3.7805431310      0.9132454332      0.6485673846      0.6863165155     -0.0506979656     -0.1782204149      0.1449008977
H      -2.6937713478      0.3213589043      1.9331280542     -0.0312923590      0.0636339836     -0.1974889822      0.1554016414
H      -0.5832077857     -0.8946320226      1.2633134376     -0.4289521387      0.3036505279     -0.3381487931      0.1669418030
H      -0.4930609653      0.8697176064      1.3878601946     -0.4023368986     -0.1966216251     -0.3595637849      0.1732145100
H      -3.5145785089     -2.7320460192     -0.7444185645     -0.0026636116      0.4182728904     -0.2063846564      0.0929351341
H      -4.2286606293     -1.1536021358     -1.3009542224      0.1573727798     -0.2650538952      0.0883774121      0.0913428627
H      -4.8023011512     -1.1242144249      1.0144381817      0.5578664659     -0.0181869462      0.3336272945      0.1157110097
H      -3.2400291939     -1.9296457868      1.4854459446     -0.3624505896      0.2647830883      0.0135904590      0.1073369755
H      -1.2157488683      1.3118765709     -1.7849423322     -0.0975217451     -0.3708557079      0.4158829442      0.1458178138
H      -2.9495129308      1.4242311991     -1.4511975717      0.2403254135     -0.4887041398      0.4026327779      0.1522927130
H       0.6126717161     -0.7612958800     -1.0078861583     -0.0105345643      0.2039829544      0.0869845837      0.1099369022
H       0.7773646066      1.0146489555     -0.7602339970     -0.0660321522     -0.2299528025      0.0003850228      0.1189816773
H      -1.9436164476      3.5381661041     -0.8870655702      0.0376720607     -0.3223580534      0.1517366165      0.0814318443
H      -2.3954193284      2.7825541158      0.6780006310      0.2107248699      0.0087891278     -0.2125674049      0.0949351286
H      -0.6729087662      2.7887129352      0.1248947547     -0.3152801758      0.0186998612     -0.0228742343      0.0709204445
H       1.8523385511     -1.1455046975      1.1519016153      0.0374417954      0.2855491818     -0.0083944167      0.0993490176
H       2.0246652010      0.6423791370      1.3477427049     -0.0041338082     -0.2841052457     -0.0737804136      0.1025315479
H       3.2673619152      0.7359564408     -0.8511830020     -0.0107124370     -0.2524163339      0.0265350944      0.0880065118
H       3.1286387718     -1.0608196096     -0.9839591592      0.0331868868      0.2478342908      0.0595661515      0.0879554332
H       4.5356430086      0.4851956741      1.2979821511     -0.1165114730     -0.2586133504     -0.0531030803      0.0931836416
H       4.3931472484     -1.3098871406      1.1788263680     -0.0678729437      0.2772183835     -0.0162178045      0.0937805321
H       5.8126057457      0.5278297748     -0.8582060090      0.0484469223     -0.3080606416      0.0859117648      0.0396057748
H       6.6077125156     -0.5146832873      0.3811922612     -0.1323432860      0.0266293190     -0.3229696726      0.0506536216
H       5.6791333681     -1.2770591306     -0.9651335420      0.0963239219      0.2834174062      0.1197217265      0.0399228685
Cl     -4.3361443827     -0.0747463131      4.5693070053      0.3051109386      0.0098030407     -0.6438419128     -0.8881752457
