37
Properties=species:S:1:pos:R:3:forces:R:3:charge:R:1 energy=-209.86681592870568 homo_lumo=3.7085193099010367 dipole="-2.292935635928868 0.21551411593987216 -1.5767136542788411" free_energy=-209.86681592870568
N       1.7431492393     -0.0231915526     -1.0475538004     -0.0049182875      0.0011105087     -0.0001300542     -0.5109663298
N       1.4542306229     -1.8237360274      0.1334148571     -0.0058864395      0.0018659851      0.0000009254     -0.5407945935
C       1.6442512744      1.3697142622     -1.5124892445     -0.0001767809      0.0002596358      0.0001627459     -0.0094976782
C       2.8925868932      2.1819792977     -1.1856182678      0.0018258968     -0.0036887389      0.0021192477     -0.2144925411
C       1.1289740458     -0.5306930814      0.0323557944     -0.0033961127      0.0017201833      0.0007697209      0.5991995334
C       2.5029408766     -1.0136908401     -1.6288042971     -0.0073369275     -0.0003391270     -0.0003320255      0.2369133453
C       2.3224219456     -2.1430454330     -0.8861993452     -0.0083679727      0.0002438454     -0.0008659446      0.2412833978
C       3.1313557192      2.3113902779      0.3115977831     -0.0010403864     -0.0009622671      0.0015816645     -0.1327535308
C       1.0527508673     -2.7239924877      1.2099238436     -0.0038455498      0.0022033858     -0.0004507728      0.0744470034
H       0.7540780431      1.7986930105     -1.0263816301      0.0004724966      0.0033309646     -0.0016631580      0.1072519547
H       1.4510911374      1.3300189529     -2.5956735820      0.0007628789      0.0013171669     -0.0000786397      0.1135686172
H       3.7684109383      1.7086092678     -1.6589113186      0.0014835096     -0.0071893552      0.0046815862      0.1359907249
H       2.7585771441      3.1718038822     -1.6560031837      0.0063286575     -0.0040484476      0.0001622772      0.0887687878
H       0.4916861311      0.0163363487      0.7141693059     -0.0014115858      0.0014281455      0.0012437083      0.1002184827
H       3.1427352499     -0.8240032819     -2.4803267471     -0.0070321129      0.0004009912      0.0011589101      0.0562372930
H       2.7746247851     -3.1227514803     -0.9658894837     -0.0145931360     -0.0021118016     -0.0025508082      0.0584378404
H       3.2285472211      1.3202787982      0.7732066369      0.0044882736      0.0004636222      0.0025485648      0.1512716965
H       2.3123109820      2.8567535612      0.8091163668     -0.0045428226     -0.0065723429      0.0011623251      0.0200694681
H       4.0702306818      2.8477738904      0.5099510426     -0.0059441104      0.0066701492      0.0026499961      0.0604959051
H       0.6880266670     -3.6607694107      0.7708421410     -0.0002365623      0.0014118800     -0.0010328613      0.0559056533
H       1.9158619520     -2.8879559042      1.8717236228     -0.0036701587      0.0048791345      0.0001240132      0.1605253045
H       0.2497199050     -2.2491216883      1.7843635244     -0.0070017215     -0.0016320738     -0.0023018363      0.0542641138
N       4.1769488142     -1.0357149938      1.4120669733      0.0029682713     -0.0013501992     -0.0028961276     -0.9126567812
S       4.1869629196     -1.2371668958      3.0230713006      0.0056058248     -0.0036531382     -0.0026775963      1.6421336184
S       5.5171969496     -0.7114402855      0.5619970474     -0.0007510981     -0.0002256407     -0.0059709605      1.6384522606
C       3.2876855635      0.3115624679      3.6206321429      0.0092968551      0.0029650650     -0.0071111150      1.1674147931
C       6.1640120892     -2.4325641972      0.1209556201      0.0017613663     -0.0002998625      0.0114264355      1.1700288885
O       3.2179221239     -2.2861892664      3.3498155608      0.0080410659      0.0004131933     -0.0006559263     -0.7669654762
O       5.4721143007     -1.1997926702      3.6965846435      0.0109953706     -0.0022530893     -0.0045825550     -0.7008691958
O       6.6157348046     -0.0781317800      1.2702564885     -0.0043384894      0.0074734820     -0.0097101236     -0.7012677286
O       5.0868540047     -0.1871185103     -0.7354327949     -0.0005695669     -0.0131957291     -0.0111112775     -0.7771045278
F       3.1241003679      0.2389231488      4.9600111607     -0.0006803927      0.0091319018     -0.0077452811     -0.4326684715
F       2.0423499503      0.4089406402      3.0536108485      0.0125631581      0.0008428826     -0.0149881228     -0.4672439429
F       3.9692268269      1.4397615074      3.3282343699      0.0123080919      0.0018496427     -0.0072472683     -0.4386007470
F       7.3520533734     -2.3149100062     -0.5127084968     -0.0013146175     -0.0020555035      0.0042350735     -0.4330980403
F       5.3041366153     -3.0799645118     -0.7230492740     -0.0021557404     -0.0174645920      0.0275194328     -0.4613453752
F       6.3255824481     -3.1989187473      1.2196569375      0.0103088550      0.0170601431      0.0225558272     -0.4325537224
