42
Properties=species:S:1:pos:R:3:forces:R:3:charge:R:1 energy=-220.6185081904472 homo_lumo=5.037675581878036 dipole="-2.439930659458318 1.7338895401834087 1.5556120314558255" free_energy=-220.6185081904472
N       1.5158088822     -0.1893571958      0.1608070924     -0.1386382882      0.1297138496      0.0941794769     -0.6206937327
C       2.0621283682     -1.0451443376      1.2496855234      0.0764627892     -0.1819382162      0.1207017217      0.0500872814
C       2.6320589709      0.5181352262     -0.5247779780      0.1756464997      0.0278623425     -0.1029168123      0.0383909346
C       0.5830275320      0.8103667464      0.7416036001     -0.0558680052      0.0331786362      0.0393461807      0.0976243373
C       0.7841178391     -1.0344614179     -0.8229055570     -0.1094844658     -0.1758995057     -0.1148033764      0.0677928298
H       2.7299040040     -1.7842382863      0.8149503708      0.1315065021     -0.1041767343     -0.1331324666      0.2134789468
H       2.6114560082     -0.4174534229      1.9484587877      0.1388162371      0.1981397752      0.1791223543      0.0669195576
H       1.2367239400     -1.5395975578      1.7583320814     -0.2867256277     -0.0985954672      0.1329223181      0.0596732278
H       2.2207414068      1.1450290522     -1.3132692227     -0.1629968230      0.1666231796     -0.2120983617      0.0615864574
H       3.1634092507      1.1281534437      0.2029192792      0.1106569332      0.1616401832      0.2388591801      0.0613004898
H       3.3048692658     -0.2200873342     -0.9505375806      0.1765267933     -0.1337139812     -0.1170734938      0.2483912990
H       0.1881913805      1.4331823892     -0.0589352041     -0.0998165448      0.1644911440     -0.2215872871      0.0857196182
H      -0.2310579023      0.2891853052      1.2421242428     -0.2216375273     -0.1505609714      0.1369285753      0.0825399838
H       1.1248376810      1.4260388539      1.4572180145      0.1545746728      0.1604314275      0.1917879764      0.0855668214
H       0.3909553642     -0.3959475385     -1.6114632158     -0.0982138508      0.2042092238     -0.1980151936      0.0711551747
H       1.4757313980     -1.7582588956     -1.2467119794      0.1941759118     -0.1336580581     -0.0713669708      0.1814867696
H      -0.0301258400     -1.5459098981     -0.3131493807     -0.2457120757     -0.0963518368      0.2047717706      0.0632386235
P       4.8794469198     -2.5254195298     -1.9414494007      0.2015694604     -0.2452854099      0.3755670012      1.6920634720
F       3.4059170225     -2.4451596877     -1.0261770542     -0.1288709971     -0.1413995951      0.0134491650     -0.5718834908
F       4.9711357558     -0.8305041336     -2.0279470648      0.1035419087     -0.1906594211     -0.0105817634     -0.5306498182
F       4.7881253819     -4.1929812525     -1.8633175030      0.0047530546      0.2704205763     -0.0880619119     -0.5155919614
C       5.6541813401     -2.3609898608     -0.1391771449     -0.5640923398     -0.6840140445     -0.7033451180      0.5444597677
C       3.5607846621     -2.4475871989     -3.4304373852      0.9977651056      0.1587532006     -0.0110044178      0.5192399253
C       6.5403241153     -2.7121184088     -3.0143337636     -0.5877315386     -0.1719501353      0.8910977318      0.5457142484
C       5.4609542257     -3.4885249992      0.9116865413     -0.1231253208      0.3603664437     -0.7454939751      1.3929750551
C       3.8564062232     -2.2601751802     -4.9474955003      0.0695199550     -0.0605841479      0.7388496779      1.3982683036
C       7.8177697261     -3.4352449687     -2.4859775044     -0.7957389806      0.2276559366      0.1856130997      1.4079800888
F       5.0746320187     -1.2759147150      0.4476286923     -0.3032304198      1.0306048994      0.7754575853     -0.4705749078
F       6.9651604467     -2.0906160554     -0.2154635620      1.2339096497      0.2881948466      0.1231054868     -0.4519396217
F       2.7770538619     -1.3741283074     -3.1210218863     -0.7056020926      1.0863395935     -0.0972783542     -0.4733256870
F       2.7679095969     -3.5250724757     -3.3327567063     -0.7776200443     -1.1681609664     -0.0846294899     -0.4430068271
F       6.9388898785     -1.5249796179     -3.4944921485      0.5598425888      1.1338433644     -0.3492663272     -0.4421837628
F       6.1182980925     -3.4487698903     -4.0657127203     -0.0962239632     -0.8846074540     -0.8770922851     -0.4545962697
F       6.1166904796     -3.1750832883      2.0324093047      0.7293224692      0.3952840076      1.0319614365     -0.4541195390
F       5.8818348266     -4.6741790204      0.5085123615      0.4152560915     -0.9895359276     -0.2999590340     -0.4385939082
F       4.1628914614     -3.5891813987      1.2321746921     -1.0873212375     -0.2077102629      0.3402717009     -0.4690744553
F       2.7659839778     -1.7542761785     -5.5386775518     -1.0824698419      0.4270043112     -0.5692436814     -0.4573254247
F       4.8526099151     -1.4071114988     -5.1569612094      0.7868940782      0.8384368173     -0.1563712903     -0.4488444867
F       4.1309695349     -3.4098271496     -5.5473841061      0.1285237023     -1.0943269652     -0.5518316213     -0.4436092501
F       8.7034958110     -2.5630249321     -2.0188312729      0.8948665072      0.8598553792      0.3103161621     -0.4472867100
F       8.4008255031     -4.1228652563     -3.4646172200      0.5428106733     -0.5677439287     -1.0350035953     -0.4482329742
F       7.5165076893     -4.2929966400     -1.5112631177     -0.1558215988     -0.8421761082      0.6258482257     -0.4541203861
