42
Properties=species:S:1:pos:R:3:forces:R:3:charge:R:1 energy=-220.45171097845173 homo_lumo=4.057320249365602 dipole="-4.957657969025841 -0.2998107326603084 -0.8567286348768239" free_energy=-220.45171097845173
N       0.6880755995      0.0235848284     -0.0337839661      0.0018478169     -0.0006241384     -0.0019160272     -0.6120279867
C      -0.7707686713     -0.2432068837     -0.2436789601      0.0078771466      0.0023348496     -0.0011748652      0.0727133663
C       0.9105570163      0.5198103155      1.3683499593      0.0046191645     -0.0012434580     -0.0063128265      0.0526621938
C       1.1544438685      1.0727891242     -1.0061995784      0.0035747263     -0.0049667039      0.0005959544      0.0474118875
C       1.4597322550     -1.2517368674     -0.2506668413     -0.0014415502      0.0019774868      0.0006500579      0.0242740893
H      -1.0975879738     -1.0024006245      0.4781894588      0.0002136660      0.0082445518     -0.0017931802      0.0984728027
H      -1.3297512436      0.6886355026     -0.0909262128      0.0079319505     -0.0003392368     -0.0069977973      0.0952910150
H      -0.9191378446     -0.6095302343     -1.2670046828      0.0034778909      0.0027414482      0.0020846062      0.0987986268
H       1.9699592373      0.7698599886      1.4880470896      0.0026666327     -0.0078302896     -0.0042918498      0.1609370502
H       0.2833184683      1.4066972459      1.5244867434      0.0094486179     -0.0016773557     -0.0034653881      0.0867623356
H       0.6328201612     -0.2755334694      2.0709484494      0.0003855568      0.0041889554     -0.0066707190      0.0952679724
H       2.2230151987      1.2524206367     -0.8418052689      0.0011870346     -0.0060245880     -0.0001221201      0.1700306092
H       0.9888979866      0.7030780681     -2.0253115953      0.0007101351     -0.0030123002      0.0031477493      0.0891709599
H       0.5736888237      1.9875676954     -0.8305753769      0.0064418012     -0.0053793471     -0.0035035106      0.0840013692
H       2.5185521785     -1.0620934859     -0.0544361961     -0.0046110588      0.0006291351      0.0012530286      0.2129532450
H       1.0735276472     -2.0106539307      0.4412148922     -0.0013274473      0.0034862826     -0.0014351516      0.0812649009
H       1.3180867420     -1.5686789568     -1.2911563436     -0.0018067737     -0.0010741856      0.0041626618      0.0840604569
P       6.7933073015      0.4802984455      0.7714791795      0.0006376317     -0.0011609566     -0.0069957993      1.7383257780
F       7.5152376894      1.1739866782     -0.5562188359     -0.0079841497     -0.0003890520     -0.0000091662     -0.5079344809
F       6.3078284824      1.9439183807      1.3999648899     -0.0033394003      0.0018243247     -0.0062346751     -0.5086449259
F       7.1517060867     -1.0320643753      0.1685984627      0.0094740167      0.0006538350     -0.0086644974     -0.5101467193
C       5.1849184231      0.5976959501     -0.3897261451     -0.0008541126     -0.0022850236      0.0031230695      0.4753236005
C       8.5830511311      0.6949193504      1.6923877371     -0.0011619083     -0.0040269583     -0.0033222765      0.5190807315
C       5.9928597257     -0.5069766130      2.3667217137      0.0107696325     -0.0005352076      0.0157177855      0.5338294719
C       5.0389007087     -0.3367555912     -1.6283329508     -0.0063106993      0.0004799768      0.0073183449      1.3672574785
C       8.7810759628      1.1367393770      3.1860440328     -0.0112298865      0.0043477393      0.0104851417      1.3573655412
C       4.7073991134     -1.4023738934      2.4198789393     -0.0078073841      0.0011251342     -0.0056552858      1.3846372679
F       5.0617211261      1.8685633643     -0.9011066668     -0.0096199484     -0.0016412889      0.0016253196     -0.4396629929
F       3.9962406807      0.4065141445      0.3485058322     -0.0018637645      0.0095224536      0.0066503144     -0.5016773691
F       9.2449872123      1.7043378819      1.0214698138      0.0011793602     -0.0032098238      0.0088742263     -0.4365750014
F       9.3331844222     -0.4484108233      1.5383809219     -0.0010289946      0.0027318212     -0.0015084653     -0.4384738079
F       5.8104108879      0.3671282390      3.4211001118      0.0099104418      0.0035882534      0.0098320021     -0.4475369061
F       6.9805171831     -1.4009012413      2.7279325735     -0.0010876096     -0.0133892920      0.0051570625     -0.4394759107
F       3.8951033697      0.0215825374     -2.3327678437     -0.0069468424     -0.0048938160      0.0018404737     -0.4843265688
F       4.8678908043     -1.6349688566     -1.2862856244      0.0079871451     -0.0013438160     -0.0105207183     -0.4506474390
F       6.0725013183     -0.2338249474     -2.4707936828      0.0062403950      0.0094328965      0.0025745486     -0.4253624195
F      10.1097850423      1.3896384721      3.3804683181     -0.0076596188      0.0069543092      0.0058540115     -0.4507881185
F       8.1024207280      2.2777257605      3.4551750584     -0.0049782353     -0.0119074442     -0.0051656140     -0.4445146972
F       8.4304157780      0.2029807266      4.0973398048      0.0008915667      0.0029161190     -0.0047368125     -0.4474381182
F       3.5652278346     -0.6699752166      2.6202553768     -0.0053043439      0.0029578737     -0.0068406394     -0.4807681652
F       4.7809526142     -2.2615169872      3.4697662541     -0.0064537865      0.0055080652     -0.0037331929     -0.4423428326
F       4.5325817056     -2.1470912141      1.3006239687     -0.0046548147      0.0013087710      0.0101242199     -0.4615482907
