42
Properties=species:S:1:pos:R:3:forces:R:3:charge:R:1 energy=-220.66982815805264 homo_lumo=4.593967224872753 dipole="2.9178630296916177 2.8002889185304918 0.18378582314080513" free_energy=-220.66982815805264
N      -1.8269767404     -1.1871780487     -1.0063698094     -0.0021778352     -0.0032067118      0.0015832828     -0.6057215906
C      -2.0331088188     -0.8140262419      0.4325986620     -0.0042663096     -0.0024807273     -0.0021277233      0.0634346091
C      -0.9697853722     -0.1582782603     -1.6743349912     -0.0032622917     -0.0020372286      0.0039329705      0.0754205612
C      -3.1611727042     -1.2571863684     -1.7007951932      0.0053840461     -0.0015641466      0.0035080380      0.0111521481
C      -1.1479860768     -2.5272865528     -1.0788334415     -0.0012828581      0.0048544241      0.0028473697      0.0308740959
H      -1.0572586250     -0.7982047125      0.9339731083     -0.0025242951     -0.0018977109      0.0044566351      0.0852269542
H      -2.4977236620      0.1790902692      0.4740701302     -0.0093669858     -0.0040050011     -0.0019465452      0.0876243495
H      -2.6888193366     -1.5608420144      0.8946816660     -0.0041678377     -0.0070429958     -0.0033432719      0.1406320352
H      -0.8032135087     -0.4633871862     -2.7147274375     -0.0049356014     -0.0010483721      0.0008989685      0.1010894430
H      -1.4874673446      0.8084228568     -1.6446019649     -0.0064324422     -0.0001590422      0.0031156996      0.0949982478
H      -0.0124791151     -0.0921839116     -1.1423147644      0.0001217671     -0.0012419476      0.0019422702      0.0911978706
H      -2.9914388322     -1.5130542900     -2.7528120601      0.0016566846     -0.0073116548      0.0012819563      0.1044240728
H      -3.7797065039     -2.0271143258     -1.2250956208      0.0002506740     -0.0046642407      0.0048197644      0.2171688968
H      -3.6447198102     -0.2752105260     -1.6182005271      0.0002856507     -0.0011713959      0.0009840633      0.0714836278
H      -1.0933420236     -2.8339392783     -2.1300930576     -0.0017858365     -0.0012934205      0.0012995495      0.1038301965
H      -0.1435964004     -2.4278969043     -0.6480875981      0.0013952147      0.0006596714      0.0073745425      0.0719746455
H      -1.7442586158     -3.2517498001     -0.5152347143     -0.0056003500      0.0016892792      0.0033888399      0.1935857563
P      -5.7995283559     -4.7887076169     -1.0701095286     -0.0045659876      0.0043267600      0.0021566662      1.7056901640
F      -6.9851002916     -4.5043735297      0.0487109114      0.0165586186      0.0139205698     -0.0074244068     -0.5054332252
F      -5.9225714592     -6.4288499258     -0.8958459349     -0.0041058541      0.0048426494     -0.0137917824     -0.5024735577
F      -5.5759378772     -3.1188342778     -1.2418333952      0.0200426258      0.0125412872      0.0013926678     -0.5361464906
C      -7.2616476629     -4.8302380012     -2.3799167635     -0.0068468458     -0.0154029265     -0.0045179692      0.5202410041
C      -4.4857444945     -4.8003474730      0.4977167306      0.0073916756     -0.0192585201     -0.0014822678      0.4985013876
C      -4.3118647216     -5.0338720472     -2.4567682167      0.0066384766     -0.0044517697      0.0077160372      0.5426837419
C      -8.1350626555     -3.5609233906     -2.6378951539     -0.0002162245      0.0005789798     -0.0040026798      1.3565707674
C      -3.3763328341     -5.9410157800      0.6883971530     -0.0126662543      0.0219091442     -0.0010819280      1.3608077529
C      -4.1607699468     -4.2035052242     -3.8072183337      0.0006517774     -0.0005082703      0.0116878752      1.3830896611
F      -8.1625991438     -5.7938080432     -1.9945537228      0.0055288054      0.0143450651      0.0016847525     -0.4328567066
F      -6.7896328244     -5.2071170703     -3.6267201122     -0.0105409253      0.0032033171     -0.0054907033     -0.4567914368
F      -5.2134594707     -4.8426905131      1.6527093849     -0.0134304647     -0.0124550357     -0.0106358306     -0.4249251555
F      -3.7850846356     -3.5803608680      0.5742303300      0.0018930323      0.0017763314      0.0099025939     -0.4856763643
F      -4.1962835749     -6.3400945888     -2.8391577593      0.0057831589      0.0003501719     -0.0093981294     -0.4299540902
F      -3.1308869894     -4.7202105076     -1.7692929984      0.0026366007     -0.0007535419     -0.0139933440     -0.4783869041
F      -9.1323017960     -3.8899318477     -3.5088966143     -0.0056519642      0.0166151385      0.0014647889     -0.4497797001
F      -7.4282866723     -2.5496148364     -3.2031352617      0.0130134198     -0.0007130272     -0.0056879155     -0.4534785026
F      -8.7086677482     -3.0955369812     -1.5077953322      0.0093057381     -0.0016954779      0.0021434826     -0.4401917616
F      -3.5127781022     -6.5286060418      1.9024456737      0.0146539479     -0.0087477463      0.0117903355     -0.4415008846
F      -3.4209050875     -6.9118633995     -0.2380940855     -0.0028604715      0.0012559771     -0.0086507765     -0.4340012113
F      -2.1125729648     -5.4026009802      0.6563055904      0.0121327610      0.0085969466      0.0063868292     -0.4701500147
F      -4.5331663695     -4.9159879535     -4.8832491449     -0.0156945723     -0.0171643423     -0.0105582545     -0.4314389179
F      -2.8333882296     -3.8697910043     -4.0054629298      0.0045253037      0.0021187959     -0.0111164168     -0.4774688689
F      -4.8396845773     -3.0347084468     -3.8058129462     -0.0074677714      0.0066907451      0.0174899657     -0.4553266057
