40
Properties=species:S:1:pos:R:3:forces:R:3:charge:R:1 energy=-219.92680190100538 homo_lumo=0.05344818190897112 dipole="-2.3767146238477603 -3.5841352984144152 -2.17809664040755" free_energy=-219.92680190100538
N      -0.1246464151      0.0122305074     -0.0761705802      0.0887258678     -0.3251392358     -0.3133579438     -0.5220697211
C      -1.0321607218      0.4788080601     -1.1751910122     -1.2645194672      0.5772945729     -1.1075004279     -0.0220426601
C      -0.6363349183     -1.2979943322      0.4435340153     -0.8433911413     -1.3677352773      0.7947990866     -0.0280403809
C       1.2250706310     -0.2098018953     -0.7014282806      1.7382385834     -0.2968285787     -0.2333228342     -0.0414297134
C      -2.5099149766      0.5891604407     -0.7644419098      0.0515389447     -0.0158731548      0.0631063879     -0.1771555400
C      -2.1151077864     -1.2660427503      0.8818268854     -0.0307100346      0.1567141373     -0.0469131023     -0.1671921624
C      -0.0528494082      1.0063156055      1.0507983701      0.2904132330      1.6678147344      1.1315483468     -0.1105713553
C      -3.0175175832     -0.7480271831     -0.2344230864     -0.3168255976      0.0123992309      0.1316399615     -0.1641205601
C       2.3541735559     -0.6444549841      0.2658413569     -0.2651417640      0.1755504261      0.1727294904     -0.2660352177
C       0.5374671281      2.3814759733      0.6916512270     -0.0696185049     -0.3598318509     -0.2620031760     -0.1338325221
C       3.6562104943     -0.8856641952     -0.4950276374      0.0399513659     -0.0032240099     -0.2593893335     -0.0891897352
H      -0.9893817668     -0.2324797338     -2.0332513176      0.3243147832     -0.0512384584      0.5374304159      0.1376245730
H      -0.7024957677      1.4526522108     -1.5925133498      0.3085511014     -0.2871072712      0.4850898981      0.1615404765
H      -0.0488453435     -1.6345967587      1.3245580054      0.1440620337      0.4433096189     -0.4373282874      0.1597909807
H      -0.5349676607     -2.0912932309     -0.3329422624      0.1632101017      0.5571837761     -0.0051527414      0.1334196180
H       1.5603519604      0.7081168912     -1.2341732775     -0.4432115787     -0.0986386771      0.3778491358      0.1665340253
H       1.1496900057     -0.9899052561     -1.4946392519     -0.4425383549      0.2078756980      0.3562281231      0.1385695369
H      -3.1105473282      0.8706393578     -1.6563393646      0.3366727457      0.0679367723      0.1515778298      0.1158749468
H      -2.6611970929      1.3905675204     -0.0124450727      0.0840319129     -0.1360483141     -0.1652036858      0.1212271030
H      -2.2450067819     -0.6492451421      1.7953180425      0.0956199179     -0.1295602866     -0.1830583626      0.1162157396
H      -2.4331063850     -2.2975312001      1.1472713638      0.3175113275      0.2120505049      0.0160325457      0.1176182247
H      -1.0533514327      1.1989442526      1.4830365240      0.0238592480     -0.4632853118     -0.4749800470      0.1689267829
H       0.5351675856      0.5926956312      1.8986209479     -0.0448860196     -0.2301800418     -0.5352388452      0.1722251597
H      -4.0524779309     -0.6253670227      0.1514212460      0.2230300905     -0.1332924760     -0.1839184329      0.1006475989
H      -3.0448017682     -1.4897912449     -1.0629029812     -0.0338214705      0.1449190749      0.1470587623      0.0889248375
H       2.5513246065      0.1399265932      1.0244430534     -0.2015895426     -0.1631415735     -0.0785602104      0.1630928787
H       2.0914296793     -1.5874714550      0.7855069110     -0.0908686964      0.2535709195     -0.0139895650      0.1135271694
H       0.5043713149      3.0256491774      1.5943034013      0.3964833105     -0.1370886603      0.0084312459      0.1389069418
H       1.5976991544      2.3079518321      0.3775815055     -0.3088671114      0.2363107252      0.1937643474      0.1064037137
H      -0.0568475958      2.8980665732     -0.0863701285      0.1576710836     -0.1273945941      0.0734910045      0.0406437218
H       4.4523219603     -1.1924046571      0.2159007829     -0.2319143422      0.1296719510     -0.2797601202      0.0767568575
H       3.5222154541     -1.6943389684     -1.2449981703      0.1562701334      0.2374243804      0.1430341530      0.0375014026
H       3.9807770101      0.0430374054     -1.0109207676      0.0070673178     -0.3232431543      0.1158744847      0.0653830574
C       4.7480364065      4.0648531122      2.7708058105      1.2847106316     -0.2675241435      0.3488244811     -0.1547942387
C       3.2626035281      4.1733037770      2.6364113757     -0.0317488286      0.3240254013     -0.2739423935      0.8395763881
O       2.7776457747      4.9860783200      1.8661556821     -0.1127472149      3.1315865014     -3.2423100912     -0.8123176440
O       2.5318722719      3.4524124078      3.2966561539     -1.5798214209     -3.7926142587      3.0463750857     -0.8294609750
H       5.1916313367      3.7819338353      1.7932524119      0.0262189283      0.2079935649      0.2181970867      0.0034451561
H       5.1653384693      5.0418279319      3.0933022387      0.0242567667     -0.2478333562     -0.2177468124      0.0309265163
H       5.0170668551      3.2938005398      3.5241596309      0.0298116611      0.2131906945     -0.1994054604      0.0029490189
