64
Properties=species:S:1:pos:R:3:forces:R:3:charge:R:1 energy=-345.8701081586395 homo_lumo=5.333326419367874 dipole="-1.3237874324630037 1.011082290300153 3.082954864624261" free_energy=-345.8701081586395
N      -0.4861556753      0.3636438563     -0.5183123579     -0.1086122192      0.2595870414      0.0147146751     -0.4895832357
C      -1.1697788508     -0.2743881207     -1.6966400624     -0.3044484267     -0.6888483424     -0.0904828519     -0.0988145223
C      -1.5340997029      1.0063959599      0.3418980099     -0.3699218410     -0.2332426724      0.4282442711     -0.0090030763
C       0.2933830711     -0.6328253934      0.2978854763      0.4430080819     -0.3184843751     -0.2403446916     -0.0373347256
C       0.4159212632      1.4322558543     -1.0812870054      0.5234437870      0.2580518876      0.4498748526     -0.0862931106
C      -2.2248686333     -1.2920756420     -1.2974065580     -0.1243677996      0.5574076420      0.1386161739     -0.1725248755
C      -2.6267955482      0.0358817232      0.7822060794      0.0168939331      0.1103717548     -0.4598794237     -0.1519324153
C      -3.2893288394     -0.6409562797     -0.4176602262      0.4215876173     -0.1598330338      0.2141914615     -0.1489487514
C       1.4645484550     -1.2972498208     -0.4220045000     -0.3728530909     -0.0326094853      0.5834562198     -0.2695860575
C       1.2605515007      2.1908612491     -0.0618149314     -0.1613857057     -0.0336208291     -0.3842627700     -0.2504146741
C       2.1505186791     -2.2760461899      0.5391427989      0.1176294395      0.1715860857     -0.5061853025     -0.1958433832
C       2.1057428733      3.2277767030     -0.8034203155     -0.1858773860     -0.2619914487      0.2577694720     -0.0503937484
C       3.3486301906     -2.9450755406     -0.1311452152     -0.3079503959      0.0619658962      0.3286742083     -0.0613554236
H      -0.4050131344     -0.7343115998     -2.3165144305      0.1372858689      0.1248355447     -0.1299776433      0.3005178480
H      -1.6333834053      0.5363252538     -2.2632044167     -0.0274101434      0.1864896863     -0.0724566397      0.1367021375
H      -1.9722760309      1.8170238714     -0.2469805550     -0.0421758243      0.1811443615     -0.1816726972      0.1248226403
H      -1.0369939509      1.4328445928      1.2153596659      0.1545573874      0.1336885941      0.1188468543      0.1336505331
H      -0.4079268446     -1.4018259445      0.6253435105     -0.1469194814     -0.0803161213      0.0685464538      0.1678879720
H       0.6473839737     -0.1024734997      1.1857427478     -0.0008634858      0.1613605101      0.1948724104      0.1250963569
H      -0.2291739094      2.1304374775     -1.6198220813     -0.1710157249      0.0624162637     -0.1293879742      0.1403172638
H       1.0650433892      0.9441336490     -1.8078070481     -0.0244244306     -0.1108205462     -0.1580898031      0.2588538451
H      -1.7726704944     -2.1454310428     -0.7861555565      0.1127178620     -0.2896876817      0.0546490073      0.0943076075
H      -2.6770687562     -1.6638759416     -2.2200547718      0.0122266151     -0.1741467718     -0.2669792590      0.1215155283
H      -3.3680236787      0.6147402693      1.3398893277     -0.1333492250      0.1484487739      0.2488383041      0.1029564827
H      -2.2179614259     -0.7169774300      1.4613910847      0.0724495905     -0.1516892194      0.2338874240      0.0948941303
H      -3.8401908370      0.1048210725     -0.9996558059     -0.1844493039      0.1889706388     -0.1700914239      0.0840311424
H      -3.9999912142     -1.3928533452     -0.0675255487     -0.2867721675     -0.1495831112      0.0598928882      0.0830481038
H       2.1911083920     -0.5546827229     -0.7571191967      0.1763886299      0.1463042055     -0.1417392178      0.1335736051
H       1.1118920639     -1.8432123798     -1.2968836807      0.0132599805     -0.0436364336     -0.1640000346      0.2096392496
H       0.6262155910      2.6963138972      0.6720409475     -0.1200429294      0.1224393221      0.2243745315      0.0876430994
H       1.9255291974      1.5089235362      0.4736396116      0.1550030993     -0.1866097329      0.1591104574      0.1057592092
H       1.4309553842     -3.0394225268      0.8545289471     -0.1936594874     -0.1894561441      0.1442631204      0.0692325574
H       2.4817494454     -1.7373626590      1.4342955767      0.0470047317      0.1017226057      0.2853411251      0.0665718248
H       2.7249873430      3.7730049586     -0.0922360251      0.2052039005      0.2096872130      0.1599175945      0.0422750518
H       2.7534756770      2.7389753752     -1.5306877957      0.2054471016     -0.0751533272     -0.2230617388      0.0684942634
H       1.4666728419      3.9376219389     -1.3287616356     -0.1252715658      0.2405257869     -0.1920857378      0.0372791877
H       4.0802488019     -2.1971951902     -0.4361728108      0.2422660003      0.1568540540     -0.1019016092      0.0425973848
H       3.0301608694     -3.4983823697     -1.0137523330     -0.0169121478     -0.1423287494     -0.2330196961      0.0710691701
H       3.8232050008     -3.6369195591      0.5644993873      0.2136235788     -0.2298138341      0.1614941053      0.0283197408
P       1.2753553689     -1.1687326596     -4.8813370984     -0.3475190914      0.2854486418      0.2632667010      1.6703381804
F      -0.3973852386     -0.9723658152     -4.7491474191     -0.0248260267     -0.0655245595     -0.1315281466     -0.5397015906
F       1.1005912403     -1.8528216022     -6.3795341821      0.1783595757      0.0662576151      0.0479177847     -0.5154868670
F       1.4806886546     -0.4664575587     -3.3017741001     -0.0422879868     -0.2806453828     -0.2722537536     -0.5633873373
C       1.2108886263      0.6594479044     -5.6287396293     -0.1412738035     -0.6587711826      0.9813910803      0.5692764017
C       0.9686453325     -2.8844674270     -3.9454107703      0.2143118419      0.3575831797     -1.0187159595      0.5295928565
C       3.2495016037     -1.4200844769     -5.0403333109     -0.7907055499      0.4742675358      0.6411263733      0.6000304990
C       0.6780652402      1.8034312884     -4.7164087774      0.1449033045     -0.7840036374      0.0570532948      1.3902509740
C       0.6235044760     -4.1448393137     -4.7796431810      0.1742574105      0.8059335337      0.0916815607      1.4061423860
C       4.1753291443     -0.7712482229     -3.9777072391     -0.8542288456     -0.1935424931     -0.2954784290      1.4090572952
F       0.4100844466      0.6359445207     -6.7046590236     -0.8688114039      0.0529002445     -1.0623588300     -0.4382937539
F       2.4149594753      1.1018587920     -6.0340947534      1.0881124455      0.6774557773     -0.4306800581     -0.4514808276
F      -0.0827515728     -2.7347003430     -3.0962545144     -1.0421650715     -0.1020991546      0.7714868900     -0.4776410262
F       2.0123950052     -3.1918091099     -3.1505926009      0.8735009370     -0.4995781976      0.7364054852     -0.4697978550
F       3.6604752817     -0.9812306929     -6.2412854170      0.4954515978      0.3590388732     -1.0973066452     -0.4442605545
F       3.5065786450     -2.7432054448     -5.0191818670      0.5419682948     -1.1390037526     -0.0464364289     -0.4532855919
F       0.4026390102      2.8867006588     -5.4370898334     -0.1774027598      1.0146085419     -0.8608970658     -0.4483892082
F       1.5899283311      2.1520013529     -3.8018409152      0.8744344129      0.4319546947      0.5740841191     -0.4733895785
F      -0.4374293486      1.4834272328     -4.0447854846     -0.9274923890     -0.0995263470      0.2307126577     -0.4801395261
F      -0.5086627311     -3.9551097919     -5.4511847820     -1.0533188348      0.2292932382     -0.5581955147     -0.4460569693
F       1.5802307577     -4.4621300573     -5.6397499576      0.8715018986     -0.3194429881     -0.6782499274     -0.4423890524
F       0.4418720728     -5.1893669236     -3.9632937671     -0.1318050847     -0.9732006982      0.8944145163     -0.4589333489
F       3.9339914863      0.5352534848     -3.8606957919     -0.0714037477      1.1290471612      0.0088451044     -0.4603371811
F       5.4582340218     -0.9228761257     -4.2968240293      1.2123598137     -0.2519740131     -0.4447113642     -0.4506921619
F       3.9882298618     -1.3249551647     -2.7759705639     -0.0572353608     -0.5484626389      0.9144694596     -0.4700540988
