47
Properties=species:S:1:pos:R:3:forces:R:3:charge:R:1 energy=-259.77117905431663 homo_lumo=3.3936522352224716 dipole="-3.1445737701982392 0.46513830405083195 1.9044173322823934" free_energy=-259.77117905431663
N       2.9378300940     -0.8748779811     -0.1929309891      0.1377074109      0.3332450127      0.1670150238     -0.5123328189
N       2.1139975016     -1.8613572880     -1.9182525760     -0.2922136484     -0.0840590171     -0.4475723014     -0.5398937674
C       3.6183470326      0.1193561457      0.6314404046     -0.2548332999      0.0533968676      0.5623752972     -0.0249813114
C       2.7565943504      0.5226872821      1.8271391567     -0.1959133973      0.1841227194     -0.5452072729     -0.2122675421
C       2.5986605614     -0.7071222354     -1.4686894313     -0.1657642149      0.1958048290      0.0949100922      0.6154184248
C       2.6788565557     -2.1671336139      0.1752616746     -0.1076810125     -0.1413467868      0.1343222089      0.2186889202
C       2.1594592352     -2.7898638609     -0.9146796858     -0.0789712440     -0.1485342971      0.2291871689      0.2406705181
C       1.4630531224      1.2077027481      1.3911786272      0.3594448236     -0.2561367494      0.1967258608     -0.0652898522
C       1.7677738307     -2.1452803872     -3.3014553823     -0.0278262850     -0.1100576187     -0.0151276082      0.0927067350
H       3.8371511121      0.9797212141     -0.0046644269      0.0526062228      0.1011651766     -0.0935228021      0.1406492910
H       4.5624530091     -0.3219488114      0.9628321211      0.2436836778     -0.0837337924     -0.0692364561      0.1362083932
H       2.5246643393     -0.3630223524      2.4257298480      0.0146273073     -0.2146318837      0.2396453159      0.1025911544
H       3.3451112263      1.2043348757      2.4470411038      0.2124160274      0.0964247041      0.2050567241      0.1064966467
H       2.7266732501      0.1936567628     -2.0432737543      0.0590768390      0.1308045500     -0.0926204314      0.1182364237
H       2.9034544050     -2.5403808098      1.1587433079      0.0792972400     -0.0890607414      0.2062317602      0.0477720075
H       1.8389813324     -3.8062828476     -1.0610082348     -0.0309039853     -0.2397769920     -0.0521806686      0.0444645023
H       0.8616380405      0.5352108543      0.7779338089     -0.2498509583     -0.1653357262     -0.1719988473      0.0548445376
H       1.6824357620      2.1049389221      0.8115472718      0.0243893056      0.3092414479     -0.1783031693      0.0378584762
H       0.8818104431      1.4924726170      2.2672973009     -0.2596562832      0.1167756660      0.1936520112      0.0535531990
H       1.6353596035     -1.2055646160     -3.8331456072     -0.0513596114      0.1640230264     -0.1384350694      0.0649676519
H       2.5882180389     -2.7071431511     -3.7503234627      0.1398173813     -0.0545049273     -0.1361262481      0.1130479265
H       0.8509493755     -2.7322513667     -3.3315689081     -0.2567133455     -0.0653536262      0.0239909387      0.0703417739
P       6.7892500551     -1.8849153026     -3.4870520407      0.0416860231     -0.4326552385      0.3415926676      1.7042611401
F       7.8006774108     -3.1773830939     -3.1862060352      0.0161610807      0.0032646119     -0.0664192019     -0.5238790233
F       5.9511470344     -2.7871052441     -4.6296372386     -0.0298836730      0.1634428767      0.0672282310     -0.5228274727
F       7.5328443096     -0.9471344803     -2.3030772679      0.0234305388     -0.0312134545     -0.1216702804     -0.5250252725
C       5.6391914347     -2.6131024023     -2.0615102799      0.9464033786      0.1258920720     -0.3997796685      0.5126645200
C       8.1227009915     -1.2737805324     -4.7722166351     -0.9536563317     -0.7124396529      0.0210692408      0.5562798596
C       5.4877434884     -0.3894251219     -3.8831401445      0.9998334357     -0.2604586963      0.4612833294      0.5763923246
C       6.2119085707     -3.6474224732     -1.0602137877     -0.0005023752      0.4869260981     -0.6388226234      1.4052699204
C       8.1670118672     -1.9600811293     -6.1631836540     -0.2729557655      0.1193428995      0.8637017305      1.3783623678
C       5.5483213398      1.0031822953     -3.2001229712      0.3375166935     -0.8119753420     -0.0450889778      1.4110371372
F       4.5083941610     -3.1871661119     -2.5407855340     -0.8628609993     -0.8717828260     -0.4812603636     -0.4761583419
F       5.2274298584     -1.5778287033     -1.2821724704     -0.1412596881      0.7591937699      0.8665323223     -0.4796556377
F       9.3334180956     -1.4455141622     -4.2206387480      1.2710220876     -0.1900360856      0.4308452467     -0.4390634425
F       7.9776966621      0.0482736356     -4.9861799975      0.1070932029      1.3359772940     -0.4139224047     -0.4578392874
F       4.2189839174     -0.8259647780     -3.6019713572     -1.0347951026     -0.2474820658      0.0236074581     -0.4880412338
F       5.4990820545     -0.1658111890     -5.2078477782     -0.1440802508      0.3454558685     -1.1470689618     -0.4440676696
F       5.2964128264     -3.8345192846     -0.0825987177     -0.8556090130     -0.1901358709      0.9116934762     -0.4789335042
F       7.3251351166     -3.2291275822     -0.4788689384      0.9567157089      0.4824596252      0.5002531164     -0.4403859456
F       6.4267925880     -4.8264796921     -1.6235980422      0.1003853594     -1.0422038210     -0.5764579027     -0.4405797234
F       8.2898900632     -3.2781205173     -6.0410648163      0.1987031617     -1.1546819552      0.1392840706     -0.4453776087
F       7.0671869853     -1.7025851577     -6.8662245420     -0.9723324374      0.3073331308     -0.6689064081     -0.4502094008
F       9.2111633090     -1.5140034482     -6.8644920401      1.0577525608      0.5492628330     -0.5925095394     -0.4550055473
F       5.1900764311      0.9054485482     -1.9046609855     -0.1763461993      0.0348141262      1.0023586977     -0.4834427655
F       4.6579430052      1.8271443656     -3.7686500315     -0.9165233156      0.7570694139     -0.6569149090     -0.4629918279
F       6.7343991026      1.5777240802     -3.2518333710      0.9527229696      0.4421585477     -0.1334098732     -0.4345348553
