31
Properties=species:S:1:pos:R:3:forces:R:3:charge:R:1 energy=-172.4137656432535 homo_lumo=3.408381264325094 dipole="-0.7385312014963407 -1.7540801996007243 -0.6041528821851275" free_energy=-172.4137656432535
N       0.7760360108      0.0203448438      0.0982834575      0.3466672600     -0.2162449849     -0.0872334371     -0.5538311772
C       0.3089300308      1.2036182094     -0.6988996562     -0.5825458175      0.6459820809     -0.0439601355     -0.0132240652
C      -0.1485482229     -1.1298577715     -0.1293616785     -0.5902233300     -0.0179493187      0.2443404996      0.0255496282
C      -1.1148550308      1.6087026156     -0.3576405125     -0.0215324709     -0.5924674368     -0.1768108988     -0.1619306233
C      -1.5819016383     -0.7808615191      0.2593391346      0.1655681348      0.1580228822     -0.4138345124     -0.1562670135
C      -2.0790891580      0.4356063459     -0.5237385163      0.2630099030      0.0354701386      0.2909276992     -0.1478739704
C       0.8899467988      0.3358019705      1.5508754479     -0.0635531771     -0.0304422667      0.3646379978      0.0668867350
C       2.1418366458     -0.3257518493     -0.3818150908      0.2100663680     -0.0453998404     -0.0757778419      0.0851405411
H       0.3891130603      0.9224300356     -1.7534914880      0.0339504054     -0.2356234663     -0.2436394452      0.0809893008
H       1.0070702810      2.0145013411     -0.4792471769      0.2618555414      0.0794592345      0.1379425435      0.2381487867
H       0.2196717401     -1.9761359220      0.4562494728      0.1843280379     -0.1754595684      0.1113647551      0.1088430855
H      -0.0953970248     -1.3848382738     -1.1920343478      0.0645602335     -0.0115724612     -0.2569511658      0.1144303943
H      -1.3957674025      2.4173511506     -1.0369924034     -0.0031228226      0.2986553018     -0.1052917946      0.0919118696
H      -1.1478277596      2.0106306068      0.6576160724      0.0905877296      0.2211711624      0.1731027089      0.1298842065
H      -1.6436251789     -0.5883551997      1.3335969681     -0.0313052651     -0.0137807341      0.2834287579      0.1027632490
H      -2.2090692560     -1.6490771179      0.0396095175     -0.1398381106     -0.2829096040      0.0287915874      0.0939125049
H      -3.0726037817      0.7157270122     -0.1658805093     -0.3222510970      0.0545168891      0.0077502174      0.0775494546
H      -2.1618529850      0.1728403541     -1.5843548664     -0.0734077731     -0.0965446912     -0.2944307858      0.0713156608
H      -0.0191789845      0.8090439525      1.9047074873     -0.1467061577      0.1255346692      0.0789430012      0.0974011482
H       1.0853325530     -0.5866444129      2.0954757894      0.0056777685     -0.4547366094      0.0340996577      0.0325383896
H       1.7149869558      1.0366527710      1.6668220966      0.1671352425      0.2766203184     -0.0963812965      0.1781624997
H       2.0990767783     -0.5867386074     -1.4376073841     -0.0998094245     -0.1030762976     -0.3063137461      0.0478948095
H       2.7686008886      0.5556459492     -0.2301907851      0.1034054591      0.3309280933      0.1069927697      0.1422503457
H       2.5201682177     -1.1663300434      0.1972966286      0.0494113882     -0.2741167309      0.1834191331      0.0538408809
C       2.5485301758      4.7369021748      1.5555574494     -0.1285562202     -0.4599035222     -0.2371216894     -0.0725429128
C       1.9399829363      3.3669338105      1.1838218066      0.2172250363      1.1616296118      0.3576896622      0.8963255881
O       0.7433008538      3.1786584798      1.4816284715     -1.1213591643      0.0838599148      0.3356947432     -0.8357056581
O       2.7020104271      2.5449217660      0.6144119508      0.9964797044     -0.9013429299     -0.6473531984     -0.8614418034
H       2.7450098441      4.7467515813      2.6274767036      0.0606837671      0.0789116971      0.3567537552      0.0275374520
H       3.4798999729      4.8977496900      1.0166368420      0.3299300132      0.0867887217     -0.1211709266      0.0170418048
H       1.8365467763      5.5273146924      1.3248645541     -0.2263311626      0.2740197469      0.0103913846      0.0224988885
