66
Properties=species:S:1:pos:R:3:forces:R:3:charge:R:1 energy=-361.5549190375518 homo_lumo=5.061916199131985 dipole="0.17238963542842622 0.9885678504271157 3.005978866462218" free_energy=-361.5549190375518
N       0.3747852492      1.8813981611     -0.4206611240      0.0004367146     -0.0013940672     -0.0015864348     -0.4817800090
C      -0.0371208308      2.6286046551     -1.6802697486      0.0072225247      0.0021337268      0.0018073860     -0.0522349091
C       0.5848300712      3.0098817181      0.5605380686      0.0030655138     -0.0029924701      0.0070437027      0.0067380103
C      -0.7147300816      0.9451200330      0.0499984555     -0.0024550315      0.0032555551      0.0042705706     -0.0097304040
C       1.6681133032      1.1361665278     -0.6982326245     -0.0018265062     -0.0032677142     -0.0032014048     -0.0966883101
C       0.8650212015      3.8595411845     -1.7146134186      0.0066049280     -0.0110185058      0.0031417600     -0.1622423212
C       1.2909174454      4.1036499439     -0.2415021107      0.0008167929      0.0010041032     -0.0004326018     -0.1514955698
C      -0.9650411017     -0.2173519613     -0.8916029391      0.0022225002      0.0029256745     -0.0129931554     -0.2591878901
C       2.2719619508      0.3980317239      0.4797481299      0.0015079257      0.0030595257      0.0050729281     -0.2138964176
C      -2.2477186146     -0.9633574037     -0.5275320256     -0.0070381353      0.0005477187      0.0117483278     -0.1564525560
C       3.5029945936     -0.3740643692     -0.0073180655      0.0018309266     -0.0023694403     -0.0109254897     -0.1723978898
C      -2.5155794016     -2.1061672176     -1.5047982938      0.0077710924     -0.0051290514     -0.0108646387     -0.1749804686
C       4.1739641457     -1.1823584113      1.0985857379     -0.0032335427     -0.0026817208      0.0094935443     -0.1638865730
C      -3.8186244843     -2.8484657054     -1.2260547365     -0.0083764761     -0.0006346810      0.0064691174     -0.2029287199
C       5.3807756544     -1.9725566678      0.5969464359      0.0077024644     -0.0017276682     -0.0080777961     -0.2061344800
C      -4.0708856790     -3.9735241359     -2.2266018768      0.0043611600     -0.0037813171     -0.0027652698     -0.0669837082
C       6.0526083123     -2.7908277554      1.6953976409     -0.0004621447     -0.0021299139      0.0067730155     -0.0655884347
H       0.0589988103      1.9756036655     -2.5521270592      0.0005684709      0.0034860884     -0.0032729574      0.2526963373
H      -1.0967443795      2.8915209438     -1.5439705963      0.0020710765      0.0022977988      0.0013057181      0.1136136777
H      -0.4211960948      3.3268543592      0.8756194980      0.0011847723      0.0028580636     -0.0006936229      0.1225680600
H       1.1331883151      2.6405453647      1.4355511682     -0.0007119015      0.0021307207     -0.0010992031      0.1252833513
H      -0.4307804511      0.6055961530      1.0584560946     -0.0011879190      0.0055497511     -0.0041090617      0.1230157183
H      -1.6165525681      1.5713550507      0.1452333782     -0.0012521027      0.0031293227     -0.0047147899      0.1185007374
H       1.4425344066      0.4354124208     -1.5104183154      0.0028143538      0.0056627795     -0.0015622290      0.2716066461
H       2.3716268255      1.8723369732     -1.1090485401      0.0015972999     -0.0011109216      0.0015883475      0.1750034797
H       1.7326111108      3.6759738237     -2.3639537346      0.0029098079      0.0013101683      0.0021135340      0.1158198050
H       0.3179233157      4.7122349001     -2.1394537692     -0.0019180535      0.0007055292      0.0029055669      0.1043010323
H       0.9904490129      5.0950878134      0.1265845323      0.0005423262     -0.0044983544     -0.0016027287      0.0979032849
H       2.3824764907      4.0332616484     -0.1267917286      0.0028170826     -0.0074225356     -0.0035175597      0.0907816608
H      -1.0523912959      0.1425351864     -1.9288520695     -0.0029913642     -0.0027820181      0.0011635704      0.2097214155
H      -0.1176253826     -0.9208476321     -0.8770232375      0.0006123464      0.0032418658     -0.0053973488      0.1328084208
H       2.5707772335      1.0856481095      1.2907148319     -0.0014756706     -0.0059576861     -0.0023636741      0.0835309894
H       1.5506915729     -0.3207379689      0.9047140371     -0.0023073715     -0.0037760163     -0.0002407241      0.1049273646
H      -2.1857556650     -1.3584026651      0.5046284983      0.0014883935      0.0020874884     -0.0032412915      0.0684191109
H      -3.1015298561     -0.2602094272     -0.5489454573     -0.0005374195     -0.0025485728      0.0008859844      0.0778056553
H       4.2323586326      0.3350041438     -0.4401461893     -0.0003862997     -0.0035722304     -0.0041505163      0.0910577919
H       3.2002992638     -1.0443601395     -0.8314072551      0.0038290850      0.0000628954     -0.0018203110      0.1337094971
H      -2.5345433334     -1.6979537691     -2.5320058098      0.0010946557     -0.0037565841      0.0013798483      0.1242744299
H      -1.6699500181     -2.8182276123     -1.4738585529     -0.0005218582      0.0037898100     -0.0042473778      0.0925062813
H       4.4918031352     -0.5060772944      1.9151073444     -0.0001674296     -0.0028067334      0.0007397461      0.0776856795
H       3.4392208341     -1.8819256193      1.5407793757      0.0014262133      0.0002274104     -0.0030254771      0.0828939011
H      -4.6589609768     -2.1303933981     -1.2568687426      0.0032785961     -0.0022546303      0.0034359652      0.0813600800
H      -3.7961009692     -3.2591486480     -0.1992319295      0.0015895362      0.0004429093      0.0012435142      0.0753929354
H       5.0564751215     -2.6401996811     -0.2213961928      0.0051090651     -0.0007604236     -0.0016095108      0.0952997185
H       6.1116399741     -1.2724700843      0.1528752299      0.0020456484     -0.0043394208     -0.0012822466      0.0877035577
H      -4.1227472758     -3.5773234210     -3.2533462983     -0.0031509674     -0.0059279183      0.0010290139      0.0444285816
H      -5.0149484170     -4.4982269393     -2.0158174696     -0.0036279505     -0.0071810477      0.0007643811      0.0339600392
H      -3.2552679932     -4.7140429944     -2.1971504170     -0.0037060116     -0.0045233225      0.0000656077      0.0353728534
H       5.3465886305     -3.5137152942      2.1353036153      0.0031977959     -0.0013325119      0.0023316285      0.0334953030
H       6.9126300847     -3.3553599311      1.3051451931      0.0083829460     -0.0052269880      0.0066398846      0.0412124826
H       6.4155686839     -2.1404444912      2.5077525977      0.0009830235     -0.0018189671      0.0016023184      0.0312061954
N       0.6539375187     -0.0919654892     -5.4727519052     -0.0044237858      0.0128301254      0.0066539931     -0.8336306698
S       1.6537319488     -0.0775778503     -4.2268970484      0.0067342190      0.0058567099      0.0028389780      1.6003414033
S      -0.6852220131      0.7904571676     -5.4518346441      0.0017046252      0.0109101274      0.0068867096      1.6219785361
C       3.1500091725     -0.8307572645     -5.0815089458     -0.0084906157      0.0105589194      0.0164422396      1.1851035369
C      -0.1389727083      2.5427775346     -5.9795425185     -0.0048752922     -0.0074620674     -0.0017758801      1.1650693721
O       2.1001079544      1.2575903215     -3.7975174254     -0.0007191213     -0.0005353843      0.0050165316     -0.7732119297
O       1.3226861965     -1.0317351510     -3.1588696606      0.0000752785      0.0048605133     -0.0030534923     -0.7633860933
O      -1.2507121586      1.0062048851     -4.1117679171      0.0025628513      0.0050763312     -0.0004145155     -0.7862442682
O      -1.5411695598      0.3589430048     -6.5415843753      0.0017054907     -0.0016430764      0.0213519535     -0.7124050064
F       4.1367091276     -0.9358657926     -4.1502099607     -0.0032382771      0.0038485809     -0.0005903113     -0.4460180245
F       3.5917654352     -0.0456873807     -6.0846253593     -0.0051263960      0.0041895514     -0.0066490837     -0.4283189564
F       2.8808390553     -2.0604560197     -5.5628579927     -0.0042645456     -0.0060112811     -0.0103000672     -0.4276851582
F      -1.1868761675      3.1711663707     -6.5640422762     -0.0147000568      0.0215306118     -0.0020448409     -0.4359754810
F       0.8843651475      2.4995291641     -6.8576928313     -0.0111935412     -0.0086604594     -0.0142309354     -0.4306148141
F       0.2467544083      3.2903261136     -4.9088925162      0.0004982845      0.0034653252     -0.0063488394     -0.4549978708
