66
Properties=species:S:1:pos:R:3:forces:R:3:charge:R:1 energy=-361.03076711491195 homo_lumo=5.106256164947821 dipole="-3.7008523997386873 -0.8659411355375125 0.9790101159605524" free_energy=-361.03076711491195
N       1.1824589093      1.5958562479      0.5540968192      0.1129311254     -0.1596919713     -0.0690314317     -0.4998134200
C       0.8281769172      2.7994162860     -0.2846738222     -0.1525909795      0.4936733266     -0.1975474798      0.0161420375
C       1.9373008690      2.1559242038      1.7281860324      0.0662160560      0.4778342055      0.4065311936     -0.0419549255
C      -0.0595659268      0.9219873638      1.0613777982     -0.3192185481     -0.3171910071     -0.4275502037     -0.0185647382
C       2.0503388931      0.6630836508     -0.2439357326      0.1967592449     -0.5912277119      0.2445071852     -0.0535583183
C       0.9359407824      4.0299243991      0.6201664835     -0.0591799940      0.0182556348     -0.0086745579     -0.1394054802
C       1.2852176024      3.4982381780      2.0106119168      0.0025911115     -0.1910882571     -0.1355633786     -0.1375246350
C      -0.8666958723      0.1764612868     -0.0004181619     -0.0674955281      0.1893085214      0.6776887266     -0.2102966277
C       2.5928994020     -0.5158020916      0.5574792004     -0.0397592493      0.2891248074     -0.6063093680     -0.2060432442
C      -2.2131350339     -0.2562453785      0.5930612129      0.3054566583     -0.0981813071     -0.7255396365     -0.1513825217
C       3.5513641848     -1.3169816400     -0.3309203827     -0.1353633556     -0.0452323934      0.7092568919     -0.1897521066
C      -3.0381634059     -1.0384400573     -0.4334025628     -0.2508175920      0.1706578698      0.8340447959     -0.1582058730
C       4.2039628404     -2.4608074755      0.4491481275      0.1132005978      0.1901842038     -0.8381498662     -0.1623210211
C      -4.3842345382     -1.4739171163      0.1543989511      0.2025414154     -0.1420766095     -0.6849824294     -0.1995132489
C       5.1894247634     -3.2319963077     -0.4344960016     -0.0836626059     -0.1711960277      0.6750963117     -0.2132037453
C      -5.2088406164     -2.2554025215     -0.8666409482      0.1061716537      0.2025408866      0.4128860776     -0.0463863589
C       5.8623111701     -4.3633029740      0.3407947952     -0.1118320922      0.2758788653     -0.3747309881     -0.0458638752
H       1.5450345531      2.8605852537     -1.1035099606      0.1719725947     -0.0435926094     -0.1112241976      0.1540720991
H      -0.1718132436      2.6649451071     -0.6962747931     -0.2088337525     -0.1473281374     -0.0514989676      0.1206473936
H       1.8875154126      1.4605066793      2.5652377429      0.0011440220     -0.2301719638      0.1316608125      0.0904511727
H       2.9746246490      2.2874481274      1.4225916325      0.1311676544     -0.0754740648     -0.1186155377      0.2552453662
H       0.2449680275      0.2233432870      1.8442253723      0.1056155963     -0.0895607120      0.1742732703      0.1369580738
H      -0.6746119859      1.7020014702      1.5171337836     -0.0855166171      0.1987204142      0.1173831504      0.1540878246
H       1.4638061683      0.3210097583     -1.0989013732     -0.1918501297     -0.0391602828     -0.1924058602      0.1166141770
H       2.8835189713      1.2604653828     -0.6152673199      0.0791893998      0.1690535752      0.0027338955      0.2277542831
H       1.7385806451      4.6738869122      0.2538049347      0.1516156012      0.0767493567     -0.0999576577      0.1364390611
H       0.0051405939      4.5988950705      0.6280363524     -0.2063504030      0.1864806932     -0.0018486614      0.0655091204
H       0.3897792857      3.3802082357      2.6265587815     -0.1975882460     -0.0024338592      0.2053599167      0.0682171226
H       1.9817533248      4.1561472582      2.5307043156      0.1059044685      0.1247549212      0.1948203148      0.1087072784
H      -1.0442809402      0.8121751090     -0.8718211302     -0.0433303222      0.1389150884     -0.2639052560      0.1065696955
H      -0.3233834446     -0.7112158817     -0.3336718885      0.1487239664     -0.1971232387     -0.1209385941      0.1217117945
H       3.1436149222     -0.1483894535      1.4265747441      0.1756115458      0.0868229797      0.1941795034      0.1267496037
H       1.7798436153     -1.1587196086      0.9081074623     -0.2103423066     -0.2290156253      0.1166751476      0.0848123081
H      -2.0366941493     -0.8805318687      1.4753212971     -0.0057228516     -0.1500910663      0.2694852767      0.0880686294
H      -2.7709182458      0.6295150384      0.9152854704     -0.1675454088      0.2103389779      0.1241069818      0.0838069184
H       4.3294336588     -0.6447687001     -0.7013904503      0.0866456579      0.1052083466     -0.0708276282      0.1908364908
H       3.0067191331     -1.7155264645     -1.1937161076     -0.1170559283     -0.1228588295     -0.2686751416      0.0575036871
H      -3.2084840459     -0.4120376000     -1.3155856972     -0.0318970254      0.1408073739     -0.2766294660      0.0857621272
H      -2.4753628829     -1.9214679920     -0.7543155611      0.1412280253     -0.2267979846     -0.1351118600      0.0874006660
H       4.7354535455     -2.0493372271      1.3136388569      0.1426566449      0.1113690422      0.2469893339      0.0893208039
H       3.4305744253     -3.1413992327      0.8236811611     -0.1835246451     -0.2073388809      0.1481306810      0.0655233816
H      -4.9438948191     -0.5888434668      0.4752527695     -0.1156458749      0.2242410188      0.1459487375      0.0827119887
H      -4.2100196886     -2.0978923110      1.0374201062      0.0419186504     -0.1044660526      0.2739294609      0.0833539245
H       4.6584089517     -3.6455355952     -1.2986915811     -0.1302354507     -0.0511842667     -0.2642823601      0.0684387764
H       5.9539846937     -2.5440856593     -0.8086215799      0.1262969897      0.1783376960     -0.1407017807      0.1211587839
H      -5.4095053554     -1.6420788083     -1.7460251338     -0.0869056590      0.1494395251     -0.2977949060      0.0307455548
H      -6.1602304647     -2.5541844038     -0.4266881091     -0.3351988281     -0.1524790626      0.0174684348      0.0358389846
H      -4.6749611893     -3.1523238752     -1.1831806214      0.1200460717     -0.2787117399     -0.1328668636      0.0311922275
H       5.1185980489     -5.0700292026      0.7127962315     -0.1910672641     -0.2430831614      0.1417124813      0.0191062521
H       6.5564258602     -4.8984692170     -0.3074165174      0.2580256946     -0.2438215180     -0.1049389663      0.0303947146
H       6.4180667229     -3.9648411994      1.1905439911      0.1887661869      0.0814650020      0.2714050627      0.0302815841
N       5.9697459928      3.0598173220     -1.4247070519      0.0658735023     -0.0310839884      0.2618022976     -0.8280735221
S       4.9643165719      2.9564804130     -0.2143116236     -0.2074738591      0.0844336421     -0.3541478933      1.6237215052
S       7.3870721790      2.2879533999     -1.2377601679      0.0731706347      0.2316800792     -0.3474059953      1.6146222585
C       5.4324586933      4.1430020818      1.1707464972     -0.1054097708     -0.5769301893     -0.7639296627      1.2115298620
C       6.9961944493      0.4667097903     -1.4988321126     -0.0865668736      0.8213528228      0.0944880668      1.1960001605
O       3.6926602937      3.5093822396     -0.6606537376     -0.6955719909      0.5255884129     -0.2780595199     -0.8047946626
O       4.8734903775      1.6680855939      0.4662483712      0.2004715844     -0.5972968402      0.5035120351     -0.7847436318
O       7.9454800648      2.3773701036      0.0856090695      0.3086568572     -0.0854115951      1.1861857866     -0.7300702491
O       8.1983860503      2.6429930194     -2.3658551590      0.5739631164      0.1591380332     -1.1206658401     -0.7241516202
F       4.3050914618      4.3904637042      1.8554368246     -1.0482705460      0.2987181343      0.7627543793     -0.4698512171
F       5.8848571552      5.2852180574      0.6895121844      0.4968525313      1.2058264332     -0.5590994455     -0.4312721533
F       6.3105676055      3.6315626140      2.0040744623      0.9274441634     -0.5239008078      0.8728960961     -0.4226637703
F       7.9516245920     -0.0934665487     -2.2206664598      1.0834070912     -0.5720073845     -0.7181385162     -0.4350453140
F       5.8443907406      0.3359763494     -2.1547846270     -1.1196030549     -0.2094971768     -0.7907351211     -0.4610974978
F       6.8989170184     -0.1813609110     -0.3499756625     -0.0208093615     -0.6701935672      1.2345727334     -0.4524539158
