37
Properties=species:S:1:pos:R:3:forces:R:3:charge:R:1 energy=-198.56652447576488 homo_lumo=3.734507728486445 dipole="0.10339345449970065 1.2388218167054361 1.8126917572051098" free_energy=-198.56652447576488
N      -0.6027768685      0.1739036785     -0.0926290578      0.1238906941      0.0360677245     -0.0417796393     -0.5010328420
C      -1.6000942242      0.7170325790     -1.0803054631     -0.7036644016      0.4133427741      0.1033004038     -0.0177658188
C      -0.9609516372     -1.2527560090      0.2291801221     -0.4037745823     -0.3716920739      0.5328998605     -0.0237202954
C       0.7289172831      0.1858329731     -0.8020054516      0.6510846020     -0.0437793106      0.4491939561     -0.0358223936
C      -0.5669959529      0.9748616883      1.1750677430      0.0824407211      0.4988101678      0.0313131205     -0.0597853208
C      -3.0426115814      0.5901142252     -0.6133408662      0.3245809085     -0.3963929582     -0.0540474639     -0.1564976324
C      -2.3987226597     -1.4222993389      0.7017821804      0.0891694652      0.2239514406     -0.4244265073     -0.1447200628
C      -3.3730262710     -0.8751774483     -0.3383768118      0.1069713984      0.2236618824      0.3061732427     -0.1476575802
C       1.9160494403     -0.2866325082      0.0304293624     -0.1666154250      0.2588992051     -0.5273885281     -0.2093257054
C      -0.1190556286      2.4201091298      1.0108975737     -0.1201676204     -0.4570035529     -0.0246562759     -0.0779910457
C       3.1613795143     -0.3268353699     -0.8654169397     -0.0238393345     -0.1648264726      0.5856858185     -0.1939379644
C       4.3870064750     -0.7942277669     -0.0841292897     -0.2821290579      0.1750243850     -0.3167371004     -0.0453895159
H      -1.4643427919      0.1257866162     -1.9941575990      0.2031459198     -0.3544460556     -0.2992296470      0.1932932911
H      -1.3403906498      1.7575275762     -1.2814350940      0.1904531012      0.2335262385      0.0003460892      0.1023561239
H      -0.2666923811     -1.6061717145      0.9935372471      0.2225801667      0.0360074194      0.1793586185      0.1013692299
H      -0.8150442478     -1.8183810434     -0.6983999036      0.0909839297     -0.0820201914     -0.4837388916      0.1886702644
H       0.8974029169      1.2060623091     -1.1542485205     -0.0382398799      0.2558636457     -0.0690840818      0.1093182377
H       0.6039710387     -0.4669852915     -1.6741077159     -0.2800707581     -0.2373207868     -0.3440219119      0.2065126989
H      -1.5714579805      0.9556426944      1.6011213045     -0.1605205295     -0.1024503357      0.0647727668      0.1607658836
H       0.1032070634      0.4548475204      1.8636026380      0.0929322019     -0.1948690937      0.1032539393      0.1302127559
H      -3.6761806946      0.9695452806     -1.4191640630     -0.1417966392      0.1954919430     -0.2030721386      0.0939774368
H      -3.2310233494      1.2008553235      0.2755972963     -0.1488477802      0.2144602721      0.2384601983      0.0662428998
H      -2.5597991435     -0.9352488237      1.6691901622     -0.1021431230      0.0649455433      0.3108156889      0.0641718085
H      -2.5651787591     -2.4940201135      0.8384423790      0.0190692423     -0.2885643766      0.1097731270      0.0960815632
H      -4.3994418264     -0.9683105302      0.0237092043     -0.3106786426     -0.0594193042      0.0713707126      0.0617913589
H      -3.2749987990     -1.4481548499     -1.2653471033      0.0843750384     -0.1462559082     -0.2631419678      0.1214190553
H       1.7340678708     -1.2883587923      0.4276222278     -0.0165477822     -0.2630930866      0.0834847896      0.1120822159
H       2.1003955502      0.3856625542      0.8741906598      0.1271716126      0.1453900205      0.2865044336      0.0837686526
H      -0.1664606139      2.8934691646      1.9917308118     -0.0073737396      0.1858205005      0.2767544325      0.0581403822
H       0.9049782571      2.4897644651      0.6494448379      0.3178171678      0.0619041755     -0.0953552960      0.0540794109
H      -0.7713558140      2.9711996214      0.3360707147     -0.1864750103      0.2132554572     -0.1678941785      0.0530954537
H       3.3467069165      0.6715096317     -1.2752960082      0.0226986399      0.2383247067     -0.1701908769      0.0819841873
H       2.9802421872     -1.0064820656     -1.7032961706     -0.1100193418     -0.1075231532     -0.2555001003      0.1100243877
H       4.2261751247     -1.7961288999      0.3156990993     -0.0035642765     -0.3059146627      0.1354380224      0.0311716317
H       4.5949915962     -0.1174309158      0.7460566451      0.1145207813      0.1736675074      0.2755098194      0.0214849163
H       5.2569773907     -0.8176458366     -0.7400701296      0.3442117782     -0.0497615738     -0.1107165248      0.0377391674
Cl     -0.7515606201     -1.7834535790     -2.9419507602     -0.0016294444     -0.2230821126     -0.2934279100     -0.7261068361
