35
Properties=species:S:1:pos:R:3:forces:R:3:charge:R:1 energy=-199.97175846651962 homo_lumo=0.027307085726227222 dipole="1.6416625197477088 -4.034609156944636 1.8883941003266094" free_energy=-199.97175846651962
N       1.0163566109      0.3576938644      0.4509939709      0.1009051640     -0.5639523642      0.3556775490     -0.5174164182
N      -1.0145119713      0.3568917064     -0.4543242236     -0.0218921316     -0.5056133730     -0.3050579877     -0.5167058631
C       2.2704037067     -0.1151923451      1.0346515622      0.5739302932      0.0447263848      0.1333023414     -0.0154308038
C      -2.2702385148     -0.1168179306     -1.0334334325     -0.6456466199      0.0376599607     -0.2166944677     -0.0211831961
C       0.0019075920     -0.4033028638     -0.0031804000      0.0051374288     -2.6099519161      0.0019113815      0.4859448123
C       3.4391526966      0.0791643838      0.0625473771      0.1057425569     -0.1283213003     -0.1648315912     -0.2302241825
C      -3.4371713397      0.0849652232     -0.0605414993     -0.0867715490     -0.0998227363      0.1910650386     -0.2332095082
C       0.6298124241      1.6385691436      0.2815469792     -0.8432180850      1.6909357535     -0.3415420514      0.2090997526
C      -0.6318879242      1.6380454698     -0.2788915587      0.7671668572      1.7533175896      0.3133111376      0.2133702930
C       3.2683061828     -0.7510137356     -1.2090252007      0.0155749874      0.0776256063     -0.1523637897     -0.1062901688
C      -3.2645823848     -0.7362279173      1.2166882683     -0.0222381490      0.0654867938      0.1329512275     -0.1042264627
H       2.1858072119     -1.1919044453      1.3016968907     -0.2536973894      0.3734410916     -0.1493724031      0.1104963454
H       2.4724527370      0.4444411550      1.9734991263     -0.2833119214     -0.0875041493     -0.2084269939      0.1204081179
H      -2.1880604042     -1.1951923420     -1.2944846781      0.2674749814      0.3729055520      0.1512799327      0.1074009460
H      -2.4724487195      0.4383484249     -1.9748983793      0.2870498509     -0.0683432008      0.2290730496      0.1402826009
H       0.0027940119     -1.4862644851     -0.0040241273      0.0031966691      0.0365272622      0.0034623747      0.0719779699
H       3.5340516756      1.1534362594     -0.2059878090      0.0304728458     -0.2205095287      0.1708086783      0.1187740855
H       4.3784748763     -0.2323651544      0.5685357020     -0.2604834558      0.1915932293      0.0419899711      0.1075420877
H      -3.5310440699      1.1611572177      0.2005735490     -0.0428773073     -0.2199934295     -0.2007649000      0.1290866696
H      -4.3775522374     -0.2295470822     -0.5626311380      0.2759462448      0.2041863897     -0.0435443765      0.1124165440
H       1.2168035352      2.5073226718      0.5501356517      0.1564954177     -0.0590513737      0.0591536633      0.0534128413
H      -1.2237987638      2.5060866259     -0.5385319936     -0.2039669552      0.0413498702     -0.1380039653      0.0939037114
H       2.3996512194     -0.3857093934     -1.7967417123      0.2415008121     -0.2011230922      0.0960523401      0.0770040836
H       3.1147369336     -1.8217973609     -0.9556805170      0.0472691166      0.2560668379     -0.1541570225      0.0414513678
H       4.1794179867     -0.6617349026     -1.8370063914     -0.3364819179     -0.0892366656      0.0940103609      0.0709123892
H      -2.3943342454     -0.3677314530      1.8000640336     -0.2336226451     -0.2015402866     -0.0881172429      0.0678993721
H      -3.1127357760     -1.8089910995      0.9708316841     -0.0437667750      0.2481719858      0.1584013776      0.0384775390
H      -4.1742816219     -0.6413394532      1.8459161252      0.3320004602     -0.0886559378     -0.0939620351      0.0700419018
C      -1.0285458471      4.6356505134     -3.5299126096      0.7425434646     -0.8796887162     -0.2907671075     -0.2233395651
C      -1.9718332885      5.7205249958     -3.1166276629      0.5033813944     -0.5427099108     -0.2963903028      0.8849500729
O      -2.2846920584      6.5915950945     -3.9121515361     -0.2567836714      2.1419004255     -3.2698233150     -0.7148360044
O      -2.4319764626      5.7388629700     -1.9862220218     -0.9431495257     -0.9899437380      4.0821493152     -0.7408290790
H      -1.4698850345      4.0586414620     -4.3694627849      0.2430391695      0.1442507312      0.1193898610      0.0290468662
H      -0.0670085530      5.0827970348     -3.8592052087     -0.2329493450     -0.2173661732     -0.0432806348      0.0340355599
H      -0.8311762706      3.9436354204     -2.6836608622      0.0120297294      0.0931824283     -0.1768894128      0.0357553216
