29
Properties=species:S:1:pos:R:3:forces:R:3:charge:R:1 energy=-158.77053339525276 homo_lumo=6.051235158544346 dipole="-0.7054547378129306 -2.568378568128059 -0.604004150540755" free_energy=-158.77053339525276
N       0.8477881069      0.4471209550     -0.2794013312      0.3023050786     -0.1517597298     -0.1835546333     -0.5585236501
C      -0.1363476063      1.3806809924     -0.9271767060     -0.6885088512      0.3949284072      0.1253812337     -0.0220061775
C       0.2737668530     -0.9329538274     -0.2501302860     -0.4823007459     -0.2244983975      0.3761142458      0.0192049269
C      -1.4857713892      1.3830651516     -0.2257230876      0.1411819912     -0.5605959191     -0.1815281914     -0.1672581169
C      -1.0526321096     -0.9797069981      0.5015696946      0.0161308478      0.1768419077     -0.4515116031     -0.1581910495
C      -2.0673240240     -0.0260776878     -0.1298272433      0.2862337659      0.1435424218      0.2495808457     -0.1504287099
C       1.2266658566      0.8903661897      1.0931328383      0.0174133717      0.0123534913      0.1599867427      0.0325039775
C       2.0866144401      0.4433832175     -1.1047960327      0.1806360965     -0.0216991103     -0.0965361473      0.0780609170
H      -0.2431346034      1.0502058080     -1.9642964430      0.0346832269     -0.2066295584     -0.2458872440      0.0921361148
H       0.3039213607      2.3784318887     -0.9013681980      0.1581793030      0.0678137628     -0.0608290821      0.2377662543
H       1.0111682389     -1.5893881556      0.2186321584      0.2454631400     -0.1147265095      0.0551512954      0.1147267216
H       0.1305861943     -1.2470438931     -1.2882390263     -0.0060154338     -0.0222384204     -0.2648849220      0.1188656129
H      -2.1542691789      2.0194861466     -0.8106635506     -0.1179406810      0.2823492649     -0.0931685623      0.1013845539
H      -1.3883273316      1.8347440657      0.7640111616      0.0078498287      0.2031812551      0.1662711817      0.1296977860
H      -0.8992136885     -0.7275294778      1.5539447450      0.0415603296     -0.0047376734      0.2895272890      0.1038950710
H      -1.4257266176     -2.0062734189      0.4554337390     -0.0350686862     -0.3080465274      0.0688032606      0.0992460244
H      -2.9787245714     -0.0120123350      0.4722814836     -0.2995333827     -0.0416208694      0.0833966997      0.0830681890
H      -2.3276630142     -0.3863430162     -1.1310486864     -0.1085891208     -0.1281223410     -0.2714869739      0.0762441218
H       0.3370208188      1.1174048009      1.6714858610     -0.1525749157      0.0697208388      0.1177911202      0.0981704872
H       1.7948253129      0.0934457984      1.5699135680      0.1541149084     -0.3306418153      0.0613015296      0.0464093574
H       1.8347733484      1.7890631784      1.0163989644      0.1000932286      0.0616717864      0.0833349412      0.2071364245
H       1.8495696347      0.0978802059     -2.1093557046     -0.1299807414     -0.1399367352     -0.2628214840      0.0556191746
H       2.4729644296      1.4618793856     -1.1373682923      0.0422803050      0.2679484913      0.0304515790      0.1508013034
H       2.8155264732     -0.2209604730     -0.6437615787      0.1678314746     -0.2253904221      0.1563803072      0.0629102663
B       1.5690418342      4.0362895768      0.6203915229     -0.2146962122     -0.3072253535     -0.0702700283      1.3836353034
F       2.4285805856      3.6065831249      1.6326853822      0.6362338145     -0.1405872794      0.6944347468     -0.5522971050
F       1.5536619819      5.3891036210      0.4628357854      0.0105665562      1.0479731727     -0.1213935280     -0.5167346801
F       0.2672117438      3.5274216256      0.8988503347     -0.6450495881      0.1973115511      0.2328281704     -0.5800560767
F       1.9876682392      3.3848355257     -0.5940252300      0.3375010919      0.0028203104     -0.6468627888     -0.5859870223
