51
Properties=species:S:1:pos:R:3:forces:R:3:charge:R:1 energy=-287.67277055374916 homo_lumo=4.924777653974313 dipole="-1.4578061872409254 -0.19420628986108449 -1.8371973963074355" free_energy=-287.67277055374916
N       3.1634626653      0.6177619324     -0.2145938777      0.0802657976      0.3957714187      0.1662572101     -0.4837707333
N       2.8757199975     -1.5111897441     -0.2497141047      0.0215952737     -0.4382355882     -0.0390565817     -0.5033660129
C       1.9079213446      2.7162028565     -0.0977697764      0.0041355039     -0.5518149529      0.3783685611     -0.1509023615
C       3.1992528332      1.9874513535      0.2810886973     -0.4800462622      0.4333115352     -0.2315157453     -0.0280042294
C       1.1668538103     -2.9783357473      0.7224776925      0.1197648110      0.1573118326     -0.7506206021     -0.1901750010
C       2.6120334183     -2.8601124710      0.2360023671     -0.3464939656     -0.1047067343      0.4127321904      0.0021283329
C       0.6743092659      2.0439870538      0.5133693181      0.0196541604      0.6499557440     -0.5043127101     -0.2170963789
C       0.1568176357     -2.5797960609     -0.3586550904     -0.1350062251     -0.1655037037      0.8014989802     -0.1833057316
C      -0.6170228156      2.7697545201      0.1256634646      0.0457390213     -0.7724925847      0.4728165643     -0.1488784380
C      -1.2716310873     -2.5667941628      0.1936010565      0.2318748231      0.2436851456     -0.8551375602     -0.1634901601
C       2.7617274463     -0.4221099977      0.5063417366     -0.3100757092     -0.0678254843     -0.0213141536      0.5908600504
C       3.5488021373      0.1888110443     -1.4545725344      0.0821852720      0.0491901335     -0.2572224347      0.2076582016
C       3.3692739157     -1.1590420563     -1.4765175869      0.0616538289     -0.0789415344     -0.2546683953      0.2088419945
C      -1.8418971550      2.0451958269      0.6931103690     -0.0723798081      0.5768407907     -0.4191430706     -0.2431140317
C      -2.2698675649     -2.0880137553     -0.8651907277     -0.2106626044     -0.1703503370      0.6952699620     -0.2116269286
C      -3.1414480124      2.7366845017      0.2859366498      0.2649559581     -0.3428633085      0.2140485707     -0.0499721347
C      -3.6889537219     -2.0212007878     -0.3038619750      0.3449868844      0.0515936253     -0.3316117027     -0.0525009023
H       1.9848576647      3.7457404516      0.2628588657      0.0395756099      0.2987524072      0.0558715894      0.0896860239
H       1.8117851063      2.7455803205     -1.1883866527     -0.0599855240      0.0812400196     -0.3047599695      0.0808537364
H       1.0327387693     -2.3417267799      1.6020179605     -0.0282277160      0.1004235053      0.2947456018      0.1137946805
H       0.9961333405     -4.0135550629      1.0301080780     -0.0313011831     -0.2565853285      0.1815273280      0.0935971835
H       4.0693720528      2.4800981390     -0.1577191669      0.2733322284     -0.0100748909     -0.0076598837      0.0992254550
H       3.3244929310      1.9325306629      1.3660501154      0.1065767355     -0.0384188791      0.0906563993      0.1810127115
H       3.3066004697     -3.0406045008      1.0638731079      0.1863223895     -0.0379429310      0.0140306515      0.1645671043
H       2.8169446002     -3.5589151684     -0.5784535406      0.0343111852     -0.0577796038     -0.2172065607      0.0865229831
H       0.7736789509      2.0239571297      1.6034729132      0.0373037934     -0.0625065981      0.3133450497      0.0929843206
H       0.6165750658      1.0063255286      0.1645210150     -0.0840433172     -0.2204187817     -0.0514859594      0.1491089029
H       0.2240784933     -3.2770112207     -1.2008365237      0.0242905874     -0.1564619823     -0.2867371174      0.0701015250
H       0.4037153577     -1.5800327434     -0.7337334907      0.0139122645      0.2225474831     -0.1434505523      0.1327536223
H      -0.5890731136      3.7969403852      0.5041906368     -0.0059778286      0.3012566073      0.0546861446      0.0795955131
H      -0.6940005230      2.8175266503     -0.9664490516     -0.0360118589      0.0611710177     -0.2943373899      0.0765253029
H      -1.3161528306     -1.9004138354      1.0621410384     -0.0298544329      0.1518339156      0.2650572028      0.0963779167
H      -1.5446417074     -3.5726047035      0.5296960933     -0.1024867139     -0.2599614410      0.1531916478      0.0811788334
H       2.4353162520     -0.3861554406      1.5311339323     -0.0110354560      0.0966073149      0.1729066906      0.1295274913
H       3.9250059961      0.8616982284     -2.2049395594      0.1004477207      0.1621169296     -0.1474230351      0.0289771640
H       3.5544133919     -1.8836851482     -2.2499025206      0.0519975429     -0.1661119506     -0.1473859421      0.0268418385
H      -1.8518266322      1.0114389986      0.3293559575      0.0366283349     -0.2797551437     -0.0438714438      0.1432082490
H      -1.7719153034      2.0130481377      1.7855333541      0.0578153093     -0.0803316394      0.2881976891      0.0748519455
H      -2.2472112721     -2.7691449507     -1.7227096890      0.0595474046     -0.1303629084     -0.2712495879      0.0760664211
H      -1.9731516128     -1.0944283975     -1.2197154985      0.1229477058      0.2289183088     -0.1409122204      0.0955233988
H      -3.1620110744      3.7619334562      0.6579807250     -0.0572910497      0.3224851069      0.0856695967      0.0283739618
H      -3.2384801450      2.7596353291     -0.8006044565     -0.0757312767      0.0376285873     -0.3267686440      0.0237196479
H      -3.9955578729      2.1997144385      0.6994453309     -0.3579698505     -0.0784244998      0.0710804332      0.0352118476
H      -4.3794434462     -1.6753741556     -1.0734775030     -0.3282432739      0.1033479166     -0.1615028864      0.0280489220
H      -3.7337647775     -1.3298512855      0.5389523920     -0.0620881875      0.2018276757      0.2692662832      0.0407244710
H      -4.0124409402     -3.0056324660      0.0370337968     -0.1495203222     -0.2827586895      0.1300191176      0.0284675820
B       4.7151538114     -0.1611953943      2.6210319844     -0.0487926889     -0.0468307282     -0.3208743589      1.4024560518
F       5.2726104535      0.4946592813      1.5107119575      0.5860057730      0.2724723583     -0.4699815505     -0.5647770557
F       4.2970937135     -1.4604106912      2.1979148415      0.0743525790     -0.6969091250      0.1369675165     -0.5735237709
F       3.5296625406      0.5500184672      2.9727485657     -0.6769961319      0.4050102704      0.4738848463     -0.5778071223
F       5.5829598549     -0.2408602458      3.6699068747      0.6180428884     -0.0509303009      0.8081142317     -0.5170623940
