29
Properties=species:S:1:pos:R:3:forces:R:3:charge:R:1 energy=-167.2431307592814 homo_lumo=0.017915500386493702 dipole="-2.6560635199282254 2.247211620776756 -1.6670907506440102" free_energy=-167.2431307592814
N       0.0559850326     -0.6200657746     -0.4557766324     -0.2568619374      0.3382338722     -0.4652942883     -0.5169082448
N      -2.0068201648      0.1277847813     -0.1009128005     -0.1806039959      0.6117667508     -0.3535055424     -0.5572309693
C       1.4266805003     -0.7146273521     -0.9547253346      0.9260718915     -0.2448113537     -0.1151648523     -0.0194218479
C       2.4366059103     -0.3734961994      0.1469142195      0.0390951022      0.1772171155      0.2484056880     -0.2809106280
C      -0.8590912174      0.3140630828     -0.7805497397      0.5707582593      1.7171087389     -1.5233785944      0.5158924849
C      -0.5348725481     -1.4255965927      0.4503156636     -0.9852153556     -0.8587661441      1.1869258434      0.2316492103
C      -1.8157593571     -0.9596187036      0.6713164821      0.6379847792     -1.6436136010      1.0515527281      0.2211644350
C       2.3095518406      1.0756453137      0.6124411362     -0.0195592786      0.0387049541      0.0593656494     -0.0966809109
C      -3.2026860662      0.9584335485     -0.1503942877     -0.2472724506      0.1975076840     -0.0347892292      0.0703079770
H       1.5699483310     -0.0249316777     -1.8157096054     -0.3878852749     -0.1695953587      0.2754944104      0.1001410085
H       1.6127927117     -1.7482672018     -1.3182068296     -0.2497494513      0.2277916063      0.1401845806      0.1411406884
H       2.2864669766     -1.0489742425      1.0146678545      0.2160167127     -0.0798705885     -0.2906619414      0.2193004950
H       3.4644143125     -0.5372137147     -0.2429645561     -0.3541462598     -0.2521704510      0.0659772687      0.1255693094
H      -0.6847965916      1.1241672310     -1.4781719187     -0.0046053358     -0.0463856057      0.0242891582      0.0768635511
H      -0.0657043665     -2.2794782681      0.9223252713      0.3132078206     -0.0685055721     -0.0149258767      0.0842123152
H      -2.5475161557     -1.3742482884      1.3528581963     -0.1535523351      0.1011913254     -0.0366555032      0.0488534703
H       1.3285229330      1.2394850668      1.1070902703      0.2651982012      0.0950243961     -0.1077908170      0.0482964597
H       2.4071320852      1.7702625072     -0.2487870776     -0.0291173712     -0.0474533931      0.2599010783      0.0199791597
H       3.1140862742      1.3009521221      1.3434490224     -0.3104546933      0.0191579085     -0.1831162186      0.0797069052
H      -3.0613722297      1.8027354603     -0.8587252723      0.0577823350     -0.4267403063      0.2886721766      0.0771293615
H      -4.0682335338      0.3489433658     -0.4846248615      0.2944099750      0.1725085457      0.0825937869      0.0798388152
H      -3.4121758899      1.3698727567      0.8595079504      0.1023649429     -0.1299780182     -0.3142206030      0.0799334281
C       4.8451514016     -2.1594170113      3.0753357361      0.7542456038      0.6568143091      0.6384838890     -0.1921339716
C       3.7227038201     -2.9843985922      2.5293186555      0.7071151800      0.5203197484      0.3942127935      0.8554104438
O       3.8023143333     -3.4543149523      1.4057731863      1.2417244946     -0.9285915372     -4.0409772208     -0.7599384044
O       2.7233455049     -3.1862493775      3.2005344943     -3.0396033829      0.0753461768      3.0085645263     -0.7490767117
H       5.7680985341     -2.7743320534      3.1280289231     -0.1573425061      0.2798461490     -0.0960199908      0.0467611169
H       5.0259752123     -1.2870825983      2.4125831007      0.1236220319     -0.2410938365      0.1336852028      0.0240518589
H       4.6013109681     -1.7895872875      4.0943581333      0.1263722986     -0.0909635148     -0.2818081021      0.0260991946
