53
Properties=species:S:1:pos:R:3:forces:R:3:charge:R:1 energy=-293.46527195735996 homo_lumo=3.6204774155668913 dipole="-2.7604338908026174 -1.3672860487906662 0.935635270889596" free_energy=-293.46527195735996
N       3.2255449667     -1.0144818490      0.6403497578     -0.0059135838      0.0063898083     -0.0023567514     -0.5096542187
N       2.6008377223      1.0667880215      0.6131490919     -0.0006297480     -0.0057158300      0.0013413469     -0.5153531513
C       3.5337489732     -2.3691624577      0.1543042831      0.0015829907      0.0063011011     -0.0032197602     -0.0133916146
C       2.1346241425      2.3650128056      0.0994879430     -0.0053548372      0.0032371910      0.0044909889     -0.0481091020
C       2.5912513236     -0.0772683577     -0.0774187231     -0.0042531158      0.0045381307     -0.0049210031      0.6061227108
C       4.7594810982     -2.3697934024     -0.7523426393     -0.0075057356     -0.0100133965      0.0021632119     -0.2788692265
C       1.1790322067      3.0548365322      1.0629669635     -0.0050269685     -0.0231867668     -0.0061461257     -0.2369864740
C       3.6649712597     -0.4434767979      1.8155593303     -0.0034512317      0.0014383173      0.0004677010      0.2350522217
C       3.2722132550      0.8633600919      1.7984438461      0.0022340770     -0.0017178331     -0.0040080503      0.2244410409
C       5.0592343157     -3.7702574533     -1.2733949128     -0.0011356733      0.0011098290      0.0043269031     -0.0796095950
C      -0.0876741562      2.2518261214      1.3408375077      0.0212416112      0.0026715801     -0.0078353569     -0.0805713121
H       2.6386365817     -2.7400191837     -0.3705740748      0.0031911049     -0.0011954539      0.0043225811      0.1078931407
H       3.6817416903     -3.0013680385      1.0433524907     -0.0000635610      0.0044009943     -0.0025197124      0.1135509631
H       1.6454821303      2.1593561826     -0.8644847131      0.0021332515      0.0017209701      0.0018687198      0.1039176951
H       3.0352950534      2.9637568378     -0.0959296228      0.0040282369      0.0005784314     -0.0020178497      0.2213062054
H       2.1728361335     -0.2147289830     -1.0656900016      0.0090578545      0.0059944462      0.0022541519      0.1051216527
H       4.5899506584     -1.6735894346     -1.5891285619      0.0005608697     -0.0037242455     -0.0040637032      0.1563397868
H       5.6189781933     -1.9651574173     -0.1980856894     -0.0023739138     -0.0006132007     -0.0051490794      0.1775763509
H       1.7070973818      3.2875315808      2.0036112937      0.0010795761     -0.0012170664      0.0033922014      0.1101911532
H       0.9279356932      4.0291006042      0.6116772230     -0.0004626158      0.0111324322      0.0007794867      0.1155939597
H       4.2484711124     -0.9980695881      2.5396482410      0.0053053965      0.0045547038     -0.0108748036      0.0503786459
H       3.4662686873      1.6683826390      2.4950307691     -0.0021172496     -0.0070861701     -0.0032274789      0.0694697101
H       4.2240842791     -4.1671753293     -1.8723076041     -0.0036542643     -0.0076592457     -0.0000162438      0.0309743634
H       5.2548033444     -4.4746615775     -0.4494307829     -0.0014101435     -0.0039354058      0.0034871697      0.0348643890
H       5.9525470729     -3.7483690567     -1.9133566842     -0.0031241785      0.0000602206     -0.0024256354      0.0698954527
H       0.1464725919      1.2779078461      1.7993035315      0.0048783058     -0.0019435241     -0.0047923536      0.0574396253
H      -0.6475715751      2.0654017315      0.4101394927     -0.0020515950     -0.0058206953      0.0011290571      0.0396584519
H      -0.7513940773      2.7941669337      2.0296022789     -0.0050121675     -0.0088324700      0.0012924024      0.0571082138
P       6.6492745898      1.7581133902     -0.8991657854      0.0157046738     -0.0041473224     -0.0007371570      1.7432876155
F       6.4459782439      0.2101587412     -1.5088269184      0.0070414149      0.0016542586     -0.0003077910     -0.5381549178
F       8.1172156536      1.8866070816     -1.6475537261      0.0093120828     -0.0034698320      0.0023919615     -0.5080603960
F       5.1480399371      1.6710229965     -0.1220747729     -0.0114812385     -0.0082133187      0.0036433845     -0.5437275544
C       5.6993345807      2.4088250034     -2.5206673382      0.0034107249      0.0030183380     -0.0032996556      0.5043513423
C       7.4364336853      0.8356232431      0.6829845064     -0.0109101352     -0.0031144981     -0.0003808320      0.5074329873
C       6.9479197968      3.6090525124     -0.1886405685     -0.0066861023      0.0032534972      0.0047992292      0.5734046206
C       4.8966167457      1.3833560085     -3.3873008555      0.0022840951      0.0005097695     -0.0015849950      1.3739240634
C       8.8607149600      0.2213436046      0.5484519823     -0.0030342613     -0.0088332297      0.0091300603      1.3693007417
C       5.9527006309      4.2822971181      0.8133931881      0.0202577242      0.0002162923     -0.0166618324      1.3790163001
F       6.5497476029      3.0007686718     -3.4208595954     -0.0009582229      0.0071945981      0.0078683770     -0.4339372753
F       4.7466196788      3.3551328988     -2.1666559491      0.0008931555     -0.0066575226     -0.0136064072     -0.4602013341
F       6.6172249349     -0.2438129498      1.0146998094      0.0065353349     -0.0102146490      0.0069577656     -0.4700124827
F       7.4752649691      1.6072128993      1.8210091632      0.0000264721     -0.0008554626     -0.0030795149     -0.4495208281
F       7.0201157098      4.4975483764     -1.2415147122     -0.0175564337     -0.0011902592     -0.0001747394     -0.4437348318
F       8.1775847972      3.6516503575      0.4272361905     -0.0018289781      0.0096945718      0.0009829092     -0.4414224169
F       4.1907025779      2.0537045844     -4.3423914271      0.0109180625      0.0076171839      0.0117786067     -0.4502682144
F       3.9759160766      0.6900846784     -2.6426522325      0.0039852591      0.0054245123      0.0077589683     -0.4846881746
F       5.6867399227      0.4962037233     -4.0203825304      0.0017251533      0.0006215462      0.0175953825     -0.4384100543
F       8.9464812613     -0.6262655337     -0.5022185842     -0.0039352240      0.0043149475      0.0069080212     -0.4452706215
F       9.8051670052      1.1762591327      0.4250415147     -0.0135753092      0.0086494195      0.0111519621     -0.4377507510
F       9.1471010643     -0.4979140615      1.6781331060     -0.0156447537      0.0106104286     -0.0043891226     -0.4572575291
F       4.7539865479      4.5546017601      0.2282503271     -0.0009387065      0.0087589465     -0.0151471170     -0.4671125610
F       6.4684082361      5.4654673085      1.2394593555     -0.0004680129      0.0041821085     -0.0077784245     -0.4446318562
F       5.7017034757      3.5292936751      1.9141762497      0.0031705334     -0.0004911764      0.0084389463     -0.4609069103
