51
Properties=species:S:1:pos:R:3:forces:R:3:charge:R:1 energy=-278.7810144440824 homo_lumo=5.522305829381547 dipole="-2.6921343353002634 0.7661828939791699 1.401955953666435" free_energy=-278.7810144440824
N       0.1759283356      0.3780607146     -0.2913912302     -0.0704383146      0.2982801734     -0.0018720081     -0.4964780905
C      -0.2192149491     -0.1143704336     -1.6554799418     -0.4935145778     -0.5153690201     -0.1223296746     -0.0509049116
C      -0.9000744602      1.2813655472      0.2363959084     -0.5861221117     -0.1617635267      0.2366038763     -0.0033432995
C       1.4292229258      1.2000295441     -0.4828939711      0.4325753186      0.0280659884      0.4782374976     -0.0841169436
C       0.3946625644     -0.7547559524      0.6742515130      0.3450822533     -0.4432574660     -0.1296746179     -0.0337569459
C      -1.5775693912     -0.7990643346     -1.6690567506     -0.0098600686      0.5311231630      0.1233162127     -0.1634809175
C      -2.2814974827      0.6353943496      0.2514720568      0.1950932225      0.0974683604     -0.4240884552     -0.1537726345
C      -2.6643398844      0.1342110051     -1.1402098584      0.2558803813     -0.2819418764      0.3261102755     -0.1534878776
C       2.1776824153      1.5830297051      0.7892898279     -0.0840569253      0.1054986090     -0.5858174273     -0.2199414530
C       1.4614499899     -1.7648877465      0.2618899363     -0.4533231528      0.1624903472      0.5294865738     -0.2620742880
C       3.3048235364      2.5567937045      0.4140963891     -0.0401115937     -0.2579721922      0.4680449003     -0.2017399560
C       1.6900569421     -2.7527993065      1.4128579085      0.2124832616      0.0222018431     -0.5173698879     -0.1985381151
C       4.2447691382      2.7846089609      1.5945051816     -0.2551457772      0.0038137752     -0.3586352504     -0.0454706054
C       2.7047910753     -3.8228007819      1.0162698568     -0.2576772144      0.2373826736      0.3033042162     -0.0562206312
H       0.5564384615     -0.7959655800     -2.0002802826      0.1738717880      0.0393826152     -0.0503480547      0.2323201574
H      -0.2267653645      0.7569724724     -2.3150780400      0.0978498236      0.2030271387     -0.1038471379      0.1409905935
H      -0.9176659866      2.1638669866     -0.4089248672      0.0664326601      0.1704347443     -0.1639902531      0.1249815435
H      -0.6100754580      1.5876204352      1.2435912064      0.1469941337      0.0978572388      0.1761606312      0.1364084070
H       1.1251765175      2.0983612006     -1.0265340416     -0.1370555622      0.1464421022     -0.1702048097      0.1136085658
H       2.0994242792      0.6279036417     -1.1301307098      0.0602514624      0.0025479443     -0.0507665583      0.2802252421
H      -0.5608679292     -1.2684839691      0.7947255895     -0.1828098538     -0.0327798801      0.0308180083      0.1587156065
H       0.6533955536     -0.3005403641      1.6337894981      0.0235662241      0.1619658522      0.1826644254      0.1367669555
H      -1.5515090913     -1.7206487407     -1.0814818482      0.0008233490     -0.2979748951      0.0917027585      0.0957754015
H      -1.7934229422     -1.0725255679     -2.7048386342      0.0232381674     -0.1743871448     -0.2676685728      0.1078272282
H      -2.9926056567      1.3969510154      0.5826191331     -0.1777034013      0.1837590206      0.2008861517      0.1032510733
H      -2.3179302165     -0.1857010919      0.9721656256     -0.0589266688     -0.1702188782      0.2354819809      0.0930468430
H      -2.7792888487      0.9863065878     -1.8177453128     -0.0640078191      0.2295623682     -0.2055113994      0.0853664008
H      -3.6193789567     -0.3938004507     -1.0914424858     -0.3118360841     -0.0718804372     -0.0493230072      0.0828739629
H       2.6230443299      0.6958791465      1.2461233763      0.1523238043     -0.2230465931      0.1110978188      0.1385224476
H       1.5113034853      2.0514079755      1.5201197071     -0.1367927907      0.1662700462      0.2633535630      0.0764624668
H       2.4000265256     -1.2641938210      0.0257601029      0.1969336755      0.0779875873     -0.0716777364      0.1964095665
H       1.1406768293     -2.3152491176     -0.6246502456      0.0027454533     -0.1173345913     -0.1877933738      0.1328859818
H       2.8706052352      3.5077782590      0.0881365190     -0.1312276851      0.2473908807     -0.1301520047      0.0646586439
H       3.8737583843      2.1375132322     -0.4206013808      0.0755375543     -0.0865951978     -0.2110629258      0.1547611166
H       0.7381368432     -3.2257086365      1.6803521339     -0.2701056968     -0.0973888140      0.1409392670      0.0632209403
H       2.0532880878     -2.2082609275      2.2911806283      0.0406550858      0.1372307525      0.2572531175      0.0770394563
H       4.7351136436      1.8496727037      1.8665310385      0.1708328646     -0.2630104187      0.0727645990      0.0540470603
H       3.6972566190      3.1608568935      2.4601107563     -0.1326844507      0.1458487000      0.3007709099      0.0110202381
H       5.0097996746      3.5107827702      1.3211522670      0.2848163877      0.2166071319      0.0205503914      0.0312411908
H       3.6612348609     -3.3655239524      0.7667105681      0.2511016420      0.0639666243     -0.1288850645      0.0912846561
H       2.3514191854     -4.3795699578      0.1481140324     -0.0419533253     -0.1851823230     -0.2727228248      0.0297226655
H       2.8508771255     -4.5173003650      1.8434082384      0.0750823231     -0.2837959733      0.2169971530      0.0222296737
N       3.7681429027     -0.0333344489     -2.0523192773      0.0830128999     -0.0860025554      0.1221081840     -0.9356810361
S       4.8166006805     -0.8788862952     -1.1943910463      0.2117365513      0.5643151781     -0.0217269933      1.9905266638
S       3.0894358953     -0.7158473505     -3.3095711104     -0.2013966887      0.4881448003     -0.0697458940      1.9562214235
F       6.1985683815     -0.6768788707     -1.9881159345      0.6471973708      0.1192205429     -0.4800909929     -0.4560838325
F       2.2270138450     -1.9595369282     -2.6496268157     -0.2440588261     -0.5896678752      0.1434733821     -0.4870003961
O       4.9953285946     -0.1690708079      0.0350925060      0.2324554509      0.8200580492      1.2878099664     -0.7694029374
O       4.6172114528     -2.2909540945     -1.1473309567     -0.2174057420     -1.5104805249     -0.2264848108     -0.7377242642
O       3.9266752188     -1.3430713680     -4.2712847553      1.1494626388     -0.8476445294     -0.9106199587     -0.7050435002
O       2.0538429803      0.1763992715     -3.7419095036     -1.0498214169      0.9293504615     -0.4075261666     -0.7681495370
