29
Properties=species:S:1:pos:R:3:forces:R:3:charge:R:1 energy=-162.39959308039718 homo_lumo=2.679473733673469 dipole="-0.22855322678689927 1.9505464353625124 -0.807588519792836" free_energy=-162.39959308039718
N       0.8868473273      0.6275787876      0.5069356179     -0.0014196405     -0.0003999024     -0.0162432168     -0.4968580765
N      -0.9676567631      0.6416346517     -0.6036128093      0.0100609314     -0.0011167278      0.0054332041     -0.5137028811
C       2.0509043161      0.0990978393      1.2327827072      0.0040861806      0.0048654357      0.0196345148     -0.0104862932
C      -2.2365159333      0.1797153577     -1.1739408432      0.0000446809     -0.0057378309     -0.0074521558      0.0023393805
C      -0.0709772627     -0.1627393465     -0.0056166118      0.0062942517     -0.0239066544      0.0045201932      0.4844299393
C       3.2163218317     -0.2185881182      0.2981326428      0.0149984549     -0.0007521407     -0.0044165746     -0.2143877246
C      -3.3362292397      0.0910624866     -0.1169631458     -0.0215511298      0.0034490755     -0.0011941653     -0.2204054300
C       0.6052176475      1.9485364257      0.2212866731      0.0087789361      0.0001510466     -0.0107765178      0.2005229627
C      -0.5722829028      1.9606064722     -0.4691496933      0.0023139186      0.0063981779     -0.0066542092      0.1887659164
C       2.8818443640     -1.3103149759     -0.7157443249      0.0084583068      0.0004765632     -0.0193332706     -0.0974934320
C      -3.0395084201     -0.9315413920      0.9754130674     -0.0057488504     -0.0001316519      0.0214882026     -0.0976328298
H       1.6906391758     -0.8252498852      1.7256416318     -0.0088295493     -0.0153479193      0.0018917996      0.1650654787
H       2.3241833058      0.8470278331      1.9926271364     -0.0050179080     -0.0006692062     -0.0099030927      0.0859273265
H      -2.0437209284     -0.8073681966     -1.6206554793      0.0005506671     -0.0137790385      0.0068802696      0.1249894946
H      -2.5017373851      0.8777620955     -1.9830968098     -0.0005722875     -0.0130042119      0.0116420658      0.1005983538
H      -0.1083994621     -1.2783896124      0.2428355315     -0.0049327848     -0.0105826069      0.0009465278      0.1726407789
H       3.5541187033      0.7032195325     -0.2100825883      0.0011973478      0.0015839935      0.0028435739      0.0769464274
H       4.0490818509     -0.5496748886      0.9434458957     -0.0137622150      0.0027961325     -0.0036461240      0.0993154213
H      -3.4944255032      1.0940618534      0.3191432163      0.0017411720     -0.0025059675     -0.0040017981      0.0932168361
H      -4.2681175055     -0.1709752838     -0.6488443897      0.0094055945     -0.0111006737      0.0016385466      0.0956754148
H       1.2560020624      2.7579616273      0.5275682754      0.0080715923      0.0060606823      0.0068338974      0.0349086654
H      -1.1508522402      2.7791430825     -0.8784020944     -0.0020340509      0.0196391460      0.0054981767      0.0327201997
H       2.1232364453     -0.9671936327     -1.4378922012      0.0135113328      0.0123520102      0.0025182188      0.0512081160
H       2.4742712688     -2.1993893336     -0.2067484597     -0.0045907488      0.0084467481     -0.0062354863      0.0875205507
H       3.7772075062     -1.5964476806     -1.2887122110     -0.0099952027      0.0096866508      0.0109634161      0.0398496645
H      -2.1524128617     -0.6647486289      1.5690234718     -0.0165961686      0.0073287948      0.0011857768      0.0884499720
H      -2.8358582388     -1.9295596052      0.5565329051     -0.0080362723      0.0079186465      0.0055005014      0.0665709134
H      -3.8899438989     -1.0153675065      1.6688942813      0.0032026766      0.0106179113     -0.0160715814      0.0468137162
Cl      0.1735808866     -2.8208235618      1.3796128062      0.0103707646     -0.0027364825     -0.0034906928     -0.6875088616
