49
Properties=species:S:1:pos:R:3:forces:R:3:charge:R:1 energy=-263.082729209802 homo_lumo=4.984385627553591 dipole="1.0473007322008812 1.4510574667749234 3.0993271363516848" free_energy=-263.082729209802
N       0.7213909837     -0.5560355485     -1.8463569614      0.2177160156      0.3224033167      0.1271522038     -0.5260898806
C       0.8134143101     -2.0487777773     -1.9421145421     -0.1771420107     -0.4978002161     -0.0266567082     -0.0313405226
C       0.0810609595     -0.3405158476     -0.5098770287     -0.3397267176     -0.1473811093      0.3169069411      0.0232325468
C      -0.4911065936     -2.5604709110     -1.3407285449      0.0727178795      0.0511869693     -0.0839526376     -0.1619503312
C      -0.9646659272     -1.4490670822     -0.3905960169      0.0575562653      0.1261923847      0.0379106084     -0.1465629231
C       2.0721676836      0.0907650589     -1.8999346422      0.3971866986     -0.0084419315     -0.4474515060     -0.0490585088
C      -0.1579265142      0.0073306947     -2.9068433410     -0.0086839950      0.0746879593     -0.0977342331      0.0007339953
C       2.8235373270     -0.1754236229     -3.1967174324     -0.2901957301      0.0812915300      0.4067522103     -0.0870575823
H       1.6749545043     -2.3609898044     -1.3468824566      0.2423939971      0.0659193234      0.1993614091      0.1032981957
H       0.9557264289     -2.3442092099     -2.9781822085      0.0024070020     -0.0544159461     -0.1962783671      0.2351186119
H      -0.3363865170      0.6657098815     -0.4644789370     -0.0139822412      0.2798767714      0.0056377244      0.1094359116
H       0.8557553685     -0.4460422969      0.2533765851      0.2468509120     -0.0268091740      0.0915423971      0.1187985096
H      -0.3178554167     -3.4983798276     -0.8113853921      0.0355360906     -0.2686316847      0.0560564135      0.0831158931
H      -1.2279955273     -2.7426054553     -2.1245424348     -0.0540449981     -0.1044152146     -0.1416804779      0.1768598999
H      -1.9510899661     -1.0838969908     -0.6823614926     -0.2564420426      0.0623160367     -0.0089577709      0.0896345568
H      -1.0232553731     -1.7965848383      0.6421158536     -0.0840394663     -0.0063070667      0.2654938707      0.0955026955
H       1.9153859892      1.1637956681     -1.7590070314     -0.0805440114      0.2276485256      0.1000662113      0.1274408746
H       2.6439594526     -0.2942264724     -1.0509812789      0.0258109728     -0.0976706179      0.2411743448      0.1148228189
H       0.2712526251     -0.2113369349     -3.8778059739     -0.0110618744     -0.0871623253     -0.1024968456      0.2049541002
H      -1.1411109373     -0.4488220183     -2.8416475826     -0.1645672017     -0.1316075177     -0.0338089508      0.1662513515
H      -0.2328346875      1.0839098788     -2.7638563142      0.0280199247      0.3199566529      0.1408630725      0.0425647939
H       3.8046278644      0.2913995802     -3.1151178459      0.3067561219      0.1366580211     -0.0007529362      0.0659135147
H       2.9609696390     -1.2415443424     -3.3642791865      0.1019814856     -0.2645178627     -0.0857267473      0.0816629971
H       2.3118473165      0.2502856510     -4.0572817736     -0.0672953702      0.1033910778     -0.2609509430      0.0790146654
P      -0.7705722065     -2.7404800715     -6.0281213144      0.0308197825     -0.4257329130      0.2566356269      1.6784356326
F      -1.0286126321     -4.3181572950     -5.5349593819     -0.0661059601      0.0562861351      0.0202943167     -0.5270580303
F      -0.6415219965     -2.2846765297     -4.3641351302      0.0793069662     -0.1223533621     -0.4741826242     -0.5565450537
F      -0.8806688890     -3.1407776624     -7.6383632749     -0.0401409992      0.0618147957      0.1365702032     -0.5159944129
C       1.1491101261     -3.1609696889     -6.0459046787     -1.0284987594     -0.3459393251     -0.0982803548      0.5206382856
C      -2.7183598784     -2.5456841319     -5.9190072670      0.9399652898      0.0796371404      0.6786718207      0.5678129393
C      -0.4257628671     -0.8014288927     -6.4416305313     -0.4097736951     -0.9558004134     -0.3884307105      0.5647980946
C       1.5797968383     -4.6517865608     -6.0616865853     -0.5879433178      0.5856417290      0.0428634413      1.3988556230
C      -3.3484030175     -2.4156278114     -4.5042073504      0.6754566060     -0.1298331545     -0.5146771012      1.3904083118
C      -0.4711063350     -0.2332177013     -7.8844507532     -0.0782984977     -0.6780721533      0.5423804253      1.4223601621
F       1.7822156537     -2.6331124617     -4.9611025616      0.7901628341      0.2828010537      0.9944252559     -0.4842392265
F       1.6975178970     -2.5864897066     -7.1275878163      0.7249976540      0.2993687911     -1.1404076153     -0.4456905579
F      -3.2765781525     -3.6288204668     -6.4795270300     -0.6689892361     -1.0775274951     -0.4908612109     -0.4376889586
F      -3.1412471807     -1.4806786254     -6.6226738118     -0.7038626135      0.9774873119     -0.6266957676     -0.4535267775
F       0.8013642906     -0.4674470542     -5.9595893057      1.1882324221      0.5178206951      0.2446050382     -0.4814822818
F      -1.2976479526     -0.0704036152     -5.7066255882     -0.7408463826      0.8883927301      0.4690159762     -0.4674043729
F       2.8935434353     -4.7382983429     -6.2942252145      1.2982833644      0.0464139449     -0.2369723122     -0.4572441589
F       0.9530905411     -5.3495902159     -6.9962233592     -0.4900174225     -0.5274428121     -0.9210605242     -0.4406788332
F       1.3506312652     -5.2142041027     -4.8739121895     -0.1318627498     -0.5126121983      1.1040480118     -0.4544443248
F      -4.6767237058     -2.4442064075     -4.5731006478     -1.2923922566     -0.0185115377     -0.2305955513     -0.4484454100
F      -2.9619526615     -3.4009299093     -3.6936245575      0.1823823211     -0.9632598832      0.6167838066     -0.4625769806
F      -3.0050264054     -1.2596816070     -3.9159377557      0.0626913896      1.0978433564      0.4332385016     -0.4798704817
F       0.5159596733     -0.7301164794     -8.6208645654      0.9101096328     -0.4231895260     -0.6100670648     -0.4450261980
F      -0.3250628510      1.0964806843     -7.8491440376      0.1578608166      1.2972714613      0.1752842323     -0.4579188204
F      -1.6212259936     -0.5009389342     -8.4883539558     -0.9887448956     -0.1668722731     -0.4850551030     -0.4437703532
