43
Properties=species:S:1:pos:R:3:forces:R:3:charge:R:1 energy=-238.48280765439424 homo_lumo=3.2656488221339623 dipole="-1.1169256495854725 -1.653126161193587 0.6955296797182651" free_energy=-238.48280765439424
N      -0.2730632033      0.2446602543      0.4526055195     -0.0022613391     -0.0044446068      0.0049441964     -0.4909302151
C      -0.8854971734      1.4106792007     -0.3145760862     -0.0019972879     -0.0043030059      0.0046737639     -0.0547063579
C      -0.8033504497     -1.0553539893     -0.1067845482     -0.0033744189     -0.0013509614      0.0027350510     -0.0071321072
C       1.2356432957      0.3151166112      0.2308263638     -0.0030672293     -0.0033321769      0.0000159619     -0.0847504497
C      -0.5934279727      0.3355428268      1.9343432077      0.0046891721      0.0092414181     -0.0122008736     -0.0697669125
C      -2.3999251576      1.3715023478     -0.3172278781      0.0055816205     -0.0097722177      0.0035389085     -0.1732439328
C      -2.3239461351     -1.1255507773     -0.1745089318      0.0090003506      0.0102011550     -0.0037672064     -0.1582930755
C      -2.9155227856      0.0667532354     -0.9242051400      0.0064882396      0.0029624513      0.0056122309     -0.1590896012
C       2.0598524176     -0.8025397051      0.8403803709      0.0063315492     -0.0019248135      0.0025356742     -0.2134299572
C      -0.3023251599      1.6895157362      2.5562207438     -0.0018123119      0.0036814703      0.0001593453     -0.1077159381
C       3.5442118342     -0.5319067417      0.5608188412     -0.0045533808     -0.0076815009      0.0079505832     -0.1997811796
C       4.4493801304     -1.6146919910      1.1409675186     -0.0069091273     -0.0000959287      0.0003727417     -0.0652922050
H      -0.4629105651      1.3511018640     -1.3303907447     -0.0025584028     -0.0064097354     -0.0009140616      0.1589390862
H      -0.4278888946      2.3229435516      0.1073274200      0.0027307386      0.0005279294      0.0081735623      0.2267706707
H      -0.3938028104     -1.8682316756      0.5088504970      0.0015351275     -0.0029821954      0.0087644711      0.1303218026
H      -0.3705133896     -1.1311015504     -1.1168414455      0.0015460785     -0.0010112072     -0.0088394369      0.1346930518
H       1.5292279584      1.3207542191      0.5847006140     -0.0001873885      0.0042535963     -0.0054067319      0.2536768809
H       1.3669653971      0.3808453077     -0.8600157192     -0.0027600345     -0.0132894429     -0.0011198544      0.1550875448
H      -1.6525061264      0.0734694430      2.0496523014     -0.0086754428     -0.0051785628     -0.0034143747      0.1428743100
H      -0.0049786793     -0.4611229415      2.4096039681      0.0052250045     -0.0069146742      0.0022167440      0.1340931146
H      -2.7390711666      2.2371088813     -0.9090409763     -0.0029959764      0.0111382601     -0.0035252209      0.1035912627
H      -2.8116537309      1.5122723540      0.6983812900      0.0090438769     -0.0061328471      0.0051399632      0.0871235431
H      -2.7543820119     -1.1879576997      0.8396560916     -0.0001343181     -0.0009759779      0.0053615675      0.0880883391
H      -2.5817711467     -2.0744876848     -0.6742622375     -0.0000981878     -0.0071011572     -0.0009578513      0.1027188741
H      -4.0162122226      0.0225672116     -0.9035001356     -0.0082475039      0.0010892157      0.0087684481      0.0761899565
H      -2.6078762130      0.0199742202     -1.9846115152      0.0017084683     -0.0016945033     -0.0081089951      0.0916724529
H       1.7987258208     -1.7908522833      0.4212543394     -0.0050228614      0.0033965073     -0.0023987444      0.0795153020
H       1.9242099127     -0.8662432676      1.9345154253     -0.0018014841      0.0152256622      0.0013685971      0.0902277772
H      -0.2745808647      1.5678365103      3.6495179476     -0.0078045385     -0.0019386441      0.0049546474      0.0447538514
H       0.6500982816      2.1207951402      2.2155459329     -0.0028841736     -0.0093532487      0.0130923435      0.1143965694
H      -1.0842486510      2.4237361363      2.3166748715     -0.0075891444     -0.0131884043     -0.0010685022      0.0526621608
H       3.8120675011      0.4527384625      0.9807571137     -0.0016220056      0.0016240278     -0.0019050069      0.1104265123
H       3.6993054495     -0.4523119993     -0.5291526582     -0.0073413842      0.0002981142      0.0025289583      0.1027588856
H       4.2154148500     -2.6025917633      0.7119508503     -0.0033521201      0.0043923625     -0.0035870907      0.0292105889
H       4.3307604829     -1.6871185006      2.2344303993     -0.0026604822      0.0029536568     -0.0023430938      0.0301668928
H       5.5083421389     -1.4006873996      0.9324966516      0.0044663124      0.0030552659     -0.0035911554      0.0446141334
C       2.5469294522      4.6298936441     -1.2403088669      0.0046610737      0.0073278116     -0.0054351594     -0.0915521128
C       1.7417219929      3.3808199173     -0.8549431486      0.0114519764      0.0126454575     -0.0168109827      0.8890462052
O       1.4909763811      2.5528590386     -1.7766933831     -0.0029338846     -0.0003732792     -0.0120491728     -0.8251474780
O       1.3789833131      3.3027956648      0.3716628137      0.0063748873     -0.0032045532      0.0122131172     -0.8612117419
H       3.0796582275      5.0432480873     -0.3723435329      0.0016982895     -0.0011154106     -0.0070104582      0.0230533522
H       3.2478894024      4.3984611758     -2.0546928918      0.0071781656      0.0122673728      0.0002250489      0.0280265612
H       1.8496459171      5.3994716523     -1.6094604183      0.0029334976      0.0074873204     -0.0008919524      0.0373435822
