43
Properties=species:S:1:pos:R:3:forces:R:3:charge:R:1 energy=-236.37066211214756 homo_lumo=0.022719815801406747 dipole="0.1940982001588574 -2.487220666272626 -4.088371591956986" free_energy=-236.37066211214756
N      -0.5550326073      0.0935395421     -0.1060130396      0.1659482429     -0.1916903846     -0.3834980460     -0.5202831566
C      -1.5514856690      0.5417117837     -1.1329273621     -1.3757909893      0.5073112860     -1.0127160414     -0.0224835822
C      -0.9072553074     -1.2960598928      0.3353822379     -0.6713486764     -1.5268082202      0.7454393134     -0.0313969234
C       0.7805553545      0.0532495746     -0.7959150159      1.6409970826     -0.1200017001     -0.3353192100     -0.0332553321
C      -0.5338148584      1.0096181018      1.0878354748      0.1918719597      1.4731096566      1.3116425910     -0.1296550615
C      -3.0144383468      0.4598346547     -0.6664807980      0.0366263127     -0.0095563468      0.0866843684     -0.1791048140
C      -2.3627534993     -1.4529674209      0.8192089680     -0.0680964434      0.1874624953     -0.0007567218     -0.1710663114
C      -3.3539824009     -0.9615285114     -0.2309879971     -0.2722290514     -0.0473819889      0.1170729804     -0.1638934217
C       1.9895663018     -0.3163356458      0.0982519468     -0.3516168580      0.1750413125     -0.0982102314     -0.2242510807
C      -0.0954072711      2.4592328814      0.8097381564      0.0129389352     -0.2350169199     -0.2489042352     -0.1389565897
C       3.2803727341     -0.3598753993     -0.7287264308     -0.0752136879      0.0086153844     -0.1081627673     -0.2074702782
C       4.4779900209     -0.7401950973      0.1371610688      0.1704910113     -0.0114882855     -0.0096627090     -0.0900433225
H      -1.4702767343     -0.0937546342     -2.0460867477      0.3544922240     -0.0491064991      0.5115348136      0.1351680146
H      -1.3428752981      1.5755177386     -1.4793471755      0.3464915003     -0.2984153035      0.4307743533      0.1551751999
H      -0.2548306485     -1.6262329435      1.1721857565      0.0663189471      0.4925565514     -0.3851877468      0.1633437279
H      -0.7527505506     -2.0207906441     -0.4973875291      0.1126618094      0.5978160465      0.0081635586      0.1300387604
H       0.9951513829      1.0293698592     -1.2854114482     -0.4192624730     -0.1605679727      0.3769077005      0.1545140621
H       0.7504526204     -0.6824692019     -1.6332845138     -0.4328695486      0.1402425583      0.3920946278      0.1370442436
H      -1.5297945529      1.0701765454      1.5668272769      0.1377710445     -0.3326567418     -0.3438486918      0.2085829159
H       0.1248742863      0.5986627574      1.8829857870     -0.1707313568     -0.2134658455     -0.4779903049      0.1857895621
H      -3.6782643081      0.7426715086     -1.5118862871      0.3393106162      0.0947338419      0.1329338084      0.1139250829
H      -3.2181179211      1.1784895498      0.1536747150      0.0853531604     -0.1221734628     -0.1647184031      0.1290675864
H      -2.5222567277     -0.9147825345      1.7766284228      0.1048041447     -0.1139640543     -0.1748042542      0.1350167814
H      -2.5598238256     -2.5282576203      1.0203791133      0.3012591621      0.2541761100      0.0278718364      0.1180940248
H      -4.3829843227     -0.9870255841      0.1875955504      0.2368213691     -0.0804170763     -0.1832888831      0.1049866579
H      -3.3246103316     -1.6375694416     -1.1138987363     -0.0493886741      0.1309276895      0.1501699530      0.0846247960
H       1.8417205100     -1.3137951129      0.5591172864     -0.0095224914      0.2425647979      0.0097058942      0.1212773975
H       2.1248342908      0.4352642160      0.9025244849     -0.1148573383     -0.2378922887     -0.0912342821      0.1459894889
H      -0.0850173008      3.0176804178      1.7691671363     -0.1887807276     -0.2230103061      0.0796512989      0.1690410290
H       0.9289699469      2.5155032084      0.3923667744     -0.2532396721      0.0214754457      0.0168795661      0.0443365798
H      -0.8078804547      2.9797428092      0.1399226150      0.2397742725     -0.0766369304      0.1215014568      0.0499234501
H       3.4676077370      0.6370294791     -1.1839516107     -0.1080367488     -0.2396213933     -0.0155100495      0.0990071985
H       3.1786435104     -1.1061823164     -1.5464433941     -0.0260709368      0.2460797052      0.0629914806      0.0889646456
H       4.3276010182     -1.7467561198      0.5824473221      0.1264666421      0.3076226879     -0.0518767290      0.0469035634
H       4.6173502471      0.0032059524      0.9506229668      0.0308166736     -0.2912303665     -0.1784763412      0.0586727433
H       5.3961949657     -0.7615287043     -0.4866132316     -0.2015238941     -0.0261744567      0.2918329369      0.0584013556
C       0.7518924081      3.3455916179      6.2162992940      0.8599269652      0.0271465823      1.0148554276     -0.1676654714
C      -0.3171731004      3.0846791757      5.2025160168     -0.0599295836     -0.1515359474     -0.0037722427      0.8322208128
O      -0.6503005244      3.9668460990      4.4279299937      0.1198403140      4.2168741816     -2.3616124860     -0.8201847117
O      -0.8592199696      1.9922862406      5.1459400020     -0.8871829576     -4.6220968159      0.8392769493     -0.8130300503
H       1.7001542974      3.6039604299      5.6998025478     -0.1857958951      0.0980335788      0.2158410709      0.0071835295
H       0.4499485644      4.1920220225      6.8685043264      0.2351612061     -0.1185057759     -0.1860421273      0.0275339689
H       0.9208053489      2.4482557984      6.8495332228      0.0053444088      0.2776251713     -0.1282334823      0.0079129287
