53
Properties=species:S:1:pos:R:3:forces:R:3:charge:R:1 energy=-290.06453306185773 homo_lumo=4.239117491313217 dipole="-0.03458668207520239 1.507721999085531 2.4357983470300697" free_energy=-290.06453306185773
N      -0.1557000712      1.4438458951     -0.0541330143     -0.2169746198      0.0198415727      0.2487701454     -0.4928903423
C       0.2317484271      2.4729650766      0.9594909906      0.2170235508      0.4090992049      0.0514191062      0.0188193733
C      -0.7732278605      2.2569718395     -1.1545832588      0.0713264893      0.3978685330     -0.3514068379     -0.0237625631
C       1.0599754809      0.7484717410     -0.6015839375      0.3035654543     -0.3629393190      0.3674483530     -0.1020213522
C      -1.1474445089      0.4834810623      0.5350746910     -0.1649034260     -0.5816250401     -0.4029604370     -0.0074057009
C       0.7288279024      3.6686151110      0.1490879013     -0.0181380699     -0.0956500189      0.0971776316     -0.1459571161
C       0.0677569828      3.5269092749     -1.2316932981     -0.0448105708     -0.1098361831      0.0647089307     -0.1357698491
C       1.8016479874     -0.1647901767      0.3670354999     -0.0426711125      0.2583160092     -0.5767668173     -0.2026650967
C      -1.6112407282     -0.5975601535     -0.4382105920     -0.1481912454      0.2374959245      0.8094337794     -0.2429313276
C       2.9303280952     -0.8547768512     -0.4126512559     -0.1782145549     -0.1933903544      0.6948490110     -0.1802827038
C      -2.6795272359     -1.4719200696      0.2238203426      0.3037216427     -0.0067592319     -0.6493871330     -0.1497483335
C       3.6839938964     -1.8539434805      0.4686049715      0.1589711336      0.1837227391     -0.6115722761     -0.1958080668
C      -3.1446129707     -2.5637076651     -0.7459830873     -0.2671650997      0.0413556080      0.6702736138     -0.2034936474
C       4.7923150860     -2.5503059262     -0.3188101931     -0.2816273977      0.0925801295      0.3724950155     -0.0461931720
C      -4.2095724445     -3.4549277256     -0.1112258639      0.2896350443      0.1872063354     -0.2995349271     -0.0425682299
H       0.9804365188      2.0621721272      1.6361344840      0.0889280236     -0.1674142703      0.1815605574      0.1303537061
H      -0.6639784300      2.7315619655      1.5290941777     -0.2485917393     -0.0289323350      0.0892859337      0.1121205872
H      -1.8026119034      2.4797350007     -0.8655094321     -0.2458417803     -0.0173518984      0.1754444220      0.1003775219
H      -0.7669744795      1.6803846669     -2.0809383337     -0.1343440645     -0.2875189244     -0.1999646566      0.2260487536
H       1.7323032529      1.5263921419     -0.9666941700      0.0820291856      0.1905260140     -0.0873299730      0.1579807301
H       0.7238041517      0.1612897101     -1.4541035402     -0.1107957279     -0.1666090920     -0.1163391366      0.2835524878
H      -2.0013764753      1.0826260462      0.8653723998     -0.1343119454      0.2243007216      0.0816321582      0.1097179904
H      -0.6808549240      0.0392801808      1.4179508870      0.1247170767     -0.0572631598      0.2240391423      0.1243857257
H       1.8169967388      3.6512464213      0.0626618974      0.2572960772      0.0587559823      0.0183588936      0.0818299377
H       0.4426668601      4.5996701102      0.6410132930      0.0204918214      0.2184804093      0.1686075265      0.0904456275
H      -0.5670897057      4.3837583908     -1.4620976694     -0.1314675032      0.1868357145     -0.1468893188      0.0879404726
H       0.8217485272      3.4402691097     -2.0160540565      0.0999063769      0.0325462548     -0.2046314008      0.1037618170
H       1.1315334217     -0.9282098816      0.7701485583     -0.1662916223     -0.2335358306      0.0878627884      0.1053744153
H       2.2193045987      0.4004493173      1.2065336434      0.1380522410      0.0842020157      0.2706896981      0.0712607876
H      -0.7724970214     -1.2280255347     -0.7391201924      0.1765371088     -0.0915600635     -0.2263065476      0.1781279949
H      -2.0226002967     -0.1386917572     -1.3393939260      0.0144520127      0.0326358875     -0.2971025337      0.1585111084
H       3.6252579795     -0.0979443206     -0.7911902075      0.2048685843      0.1821447138     -0.1527004085      0.0747044982
H       2.4998123888     -1.3749394282     -1.2738659368     -0.1008554484     -0.0678795361     -0.2184901783      0.1725840871
H      -3.5336644588     -0.8530085579      0.5219147792     -0.2736780584      0.1213983600      0.1279734942      0.0638136983
H      -2.2683508149     -1.9329199363      1.1292563021      0.0436165040     -0.1572706259      0.2909010594      0.0681595541
H       2.9821333507     -2.6033174302      0.8500631839     -0.2048405352     -0.1648984620      0.1412428743      0.0786912569
H       4.1170998250     -1.3319510340      1.3294889539      0.0703276279      0.1022030086      0.2765651832      0.0669097132
H      -2.2852055832     -3.1732262420     -1.0415101382      0.2349026902     -0.0844287818     -0.1676528919      0.1017948332
H      -3.5487416135     -2.0959932999     -1.6490000948     -0.0055689782      0.1148559239     -0.2799874462      0.0990071348
H       5.3143523779     -3.2625064625      0.3205248415      0.2396074388     -0.2559046774      0.1057589788      0.0277496091
H       4.3732880252     -3.0875485130     -1.1700601077     -0.0894704864     -0.1686499135     -0.2839928403      0.0414331015
H       5.5136904841     -1.8209624004     -0.6896270814      0.2446785911      0.1832871811     -0.1494066434      0.0277175291
H      -4.5241184778     -4.2200774284     -0.8208481002     -0.1847695069     -0.2975792416     -0.1443711326      0.0359217565
H      -3.8167422544     -3.9477787049      0.7795290137      0.0655867363     -0.1802227388      0.2843217289      0.0217686414
H      -5.0827833635     -2.8662306325      0.1745625906     -0.2967163491      0.1292847000      0.1081832216      0.0214848111
S       0.0240216867     -0.7833203894     -3.7814737560      0.1793953997      0.2123416160      0.0268993744      1.7666503342
O      -1.0154430177      0.1762648927     -3.4236901058     -0.9335106666      0.9895029425      0.1901415021     -0.8247620211
O      -0.2135643912     -1.5453543437     -4.9734824219     -0.1219826205     -0.8036180669     -1.4222948006     -0.7590605030
O       0.5294345339     -1.5331840253     -2.6378792211      0.5781926155     -0.7088046988      1.0986396232     -0.8205811331
C       1.4673203240      0.3327556515     -4.1834230342     -0.7746455706     -0.4780783528      0.3701427782      1.1414235548
F       1.3775083827      1.4584544134     -3.4379312019      0.0650654770      1.1445348354      0.4740015835     -0.4846327077
F       1.5098842567      0.6998828685     -5.4527619110     -0.0233578445      0.3548583467     -1.3671229927     -0.4388455546
F       2.6254969204     -0.2398385774     -3.8666978234      1.2708416409     -0.6224598669      0.1873832213     -0.4510437296
