36
Properties=species:S:1:pos:R:3:forces:R:3:charge:R:1 energy=-196.22683106033008 homo_lumo=5.285064219683765 dipole="-3.1522744722894482 0.9339566477363462 -0.6587777017082126" free_energy=-196.22683106033008
N       0.8999216810      0.2840109308     -0.2254773173      0.0076578020      0.0087059886     -0.0050825521     -0.4926169073
C       1.7060811516      0.3267012875     -1.5427614286      0.0080112951      0.0010764903      0.0000042097     -0.0072520247
C       1.4940177914      1.4023779984      0.6415449033      0.0013613386      0.0019864327      0.0022057080     -0.0267713270
C       2.7825302265      1.3869688078     -1.3472680515      0.0020938544      0.0005135265     -0.0032479958     -0.1727163767
C       2.1659915131      2.3511017767     -0.3335366948      0.0021821272      0.0033688102      0.0022748329     -0.1666830941
C       1.0720788947     -1.0461386199      0.4847495599     -0.0051275311     -0.0109296378      0.0021990577     -0.1193634690
C      -0.5531215259      0.5752928109     -0.5359471479     -0.0097113008     -0.0001693848      0.0024678574     -0.0715236753
C       0.4706285784     -2.2283165187     -0.2449295699     -0.0019718999      0.0131349904     -0.0070474687     -0.0993445762
C      -1.5034984086      0.4461836426      0.6384353466      0.0149128274      0.0017930020      0.0011633798     -0.0968773726
H       0.9972856491      0.5968277818     -2.3379849480      0.0084824777     -0.0049113324     -0.0018961411      0.1049992716
H       2.1160055645     -0.6710448698     -1.7325540165      0.0138100179      0.0001843969      0.0037817697      0.1791890409
H       2.2337307892      0.9295144500      1.3027881112      0.0016364096     -0.0009855820     -0.0022700139      0.2103944067
H       0.6927349002      1.8410662837      1.2476883199      0.0042689855      0.0057644031     -0.0003256366      0.1175570786
H       3.0443304322      1.8638317152     -2.3031265400     -0.0060211942      0.0050986865      0.0080321831      0.0726281069
H       3.6979839384      0.9322147425     -0.9362990145     -0.0005445214      0.0012056136     -0.0029234647      0.2039968871
H       2.9247273426      2.9569574951      0.1827130514     -0.0006035761     -0.0075764530     -0.0016128203      0.1216684496
H       1.4347322427      3.0272975029     -0.8096960204      0.0017267254     -0.0064511292      0.0033278208      0.0745805269
H       2.1540439010     -1.1750500285      0.6109879753     -0.0051337215     -0.0035529476      0.0120774527      0.2549907843
H       0.6377196528     -0.9162351236      1.4866563037     -0.0103650721      0.0043140585      0.0037223530      0.1391844950
H      -0.5667605791      1.5970994477     -0.9455911183      0.0006617490      0.0020555887     -0.0074212370      0.1490879588
H      -0.8406991568     -0.1128470996     -1.3442324919      0.0002442341     -0.0008083526     -0.0047741364      0.1467160795
H       0.7251991478     -3.1310041453      0.3296108105      0.0042514492     -0.0097444042      0.0036144336      0.0888700456
H      -0.6245592312     -2.1817498429     -0.3300373093      0.0006374430      0.0043201314      0.0013770619      0.0425746444
H       0.9036446971     -2.3613213199     -1.2464653495     -0.0003627561      0.0042346644      0.0056923750      0.0654640309
H      -2.5021254547      0.7608094451      0.3001351722     -0.0106121711      0.0049976584     -0.0037878121      0.0782049153
H      -1.5864257956     -0.5878607807      0.9984606657      0.0038862545      0.0049934187     -0.0054020153      0.0687119747
H      -1.2260713463      1.0901505566      1.4845358639      0.0011884781      0.0003755011     -0.0074363772      0.0591703632
N       5.3727231919     -0.3507545720      0.1406368045      0.0060552255     -0.0022984226     -0.0106752447     -0.8856265054
S       5.3220790401     -1.9130443857     -0.2489160635     -0.0058991587     -0.0205081146      0.0039941657      1.8924479229
S       4.9275533757      0.1482740851      1.5989321573     -0.0205201283      0.0066853623     -0.0034690598      1.9358049846
F       3.6852849183     -2.0702315413     -0.7258195672     -0.0055609148     -0.0199737266     -0.0035488950     -0.5089032481
F       6.1823572098     -0.2709108938      2.5596835675      0.0131138739      0.0030275413      0.0230261347     -0.4505158594
O       6.0227059939     -2.0914093278     -1.5009723764     -0.0048353554      0.0071543114     -0.0104248466     -0.7041701096
O       5.4320992111     -2.8614669109      0.8395020104     -0.0019480031     -0.0123572380      0.0075713825     -0.6999537630
O       3.7783192914     -0.5404362766      2.1831558844     -0.0173734227     -0.0036109231      0.0081153839     -0.7605489510
O       4.9255814498      1.6002991113      1.5816170270      0.0104081592      0.0188870713     -0.0133018447     -0.7433747082
