37
Properties=species:S:1:pos:R:3:forces:R:3:charge:R:1 energy=-216.8260730846504 homo_lumo=1.223302166582566 dipole="2.4631069963952834 -0.683832321474809 0.5511429759697922" free_energy=-216.8260730846504
N       0.7739963857      0.1638222021     -0.8745858998      0.0005783934     -0.0014697184      0.0014685828     -0.5071040998
C      -2.3984023999     -1.7877115765      0.0242331419     -0.0034836371      0.0032728600     -0.0020329675     -0.1716732942
C      -1.1536554407     -0.9275694956      0.2498162921      0.0034110358     -0.0080787338     -0.0008659537     -0.2191290486
C      -3.3383760291     -1.7721863400      1.2350453780      0.0095945242     -0.0008553266      0.0066763003     -0.1566677896
C      -0.3731058903     -0.7575567222     -1.0481605159      0.0058978421     -0.0036680491      0.0006837845     -0.0325945682
C      -4.1296933395     -0.4693942662      1.3675824991     -0.0005705404     -0.0032565331     -0.0029367060     -0.2498466544
C      -4.9744742161     -0.4259977045      2.6378637326      0.0019956301     -0.0114137908      0.0036440888     -0.0586811381
C       2.0430070614     -0.2885988863     -0.9901801946      0.0065344562      0.0027963790     -0.0014756619      0.2812246147
C       0.5039290046      1.4673648179     -0.6197027114      0.0097666097      0.0032062525     -0.0038535638      0.2374571334
C       3.1142172243      0.5697178183     -0.8444444087      0.0038358334      0.0061486669     -0.0027988612     -0.0381586545
C       1.5580032973      2.3569990285     -0.4653663843      0.0031203003      0.0048782578      0.0003093902     -0.0277694208
C       2.8719991648      1.9173116546     -0.5736914420     -0.0109523175     -0.0005562460     -0.0022399953      0.0257412501
H      -2.0907516119     -2.8232462035     -0.2079706458     -0.0026466212     -0.0109592592      0.0088660776      0.0651194944
H      -2.9437158345     -1.4098022106     -0.8593520223      0.0053616404     -0.0015107539     -0.0019977243      0.1292779540
H      -1.4651831259      0.0696248180      0.5974805548      0.0009373083      0.0076176434     -0.0075219737      0.1789209154
H      -0.5105502177     -1.3786787214      1.0283801712      0.0075007593      0.0013414890     -0.0043753284      0.0672547866
H      -4.0486465444     -2.6147967101      1.1533420619      0.0052995830     -0.0021260137      0.0014237197      0.0765117837
H      -2.7517934497     -1.9506376232      2.1577524655     -0.0011221141      0.0006882033     -0.0002982201      0.0695039346
H      -1.0120958551     -0.2709487524     -1.8173793096     -0.0061419052     -0.0082084279     -0.0017693912      0.2140732730
H       0.0310238420     -1.7110630373     -1.4191858908     -0.0043210617     -0.0007587436     -0.0011397448      0.0809070204
H      -3.4527487896      0.4012519549      1.3430208571     -0.0049756145      0.0014794608     -0.0006369392      0.1316882513
H      -4.7807236777     -0.3612873941      0.4826884668      0.0041919064      0.0055637612      0.0078627779      0.1208246324
H      -4.3392497609     -0.4854243227      3.5370895550      0.0000364160     -0.0032423111      0.0051213590      0.0203787249
H      -5.5579537773      0.5047949678      2.6984229882      0.0009210063      0.0078467814     -0.0121539597      0.0393151531
H      -5.6816081665     -1.2714837573      2.6722652666      0.0038873497      0.0035912547      0.0045454579      0.0235488690
H       2.1547927637     -1.3497838410     -1.2036469522      0.0074530572      0.0009136988      0.0019876190      0.0888158887
H      -0.5759925534      1.7566938049     -0.5641573725      0.0129263338     -0.0098715937     -0.0044048704      0.2138417080
H       4.1269800212      0.1799343189     -0.9440229871     -0.0002287832      0.0006148706      0.0008420901      0.0553885191
H       1.3232933329      3.4028941320     -0.2638615495     -0.0028034947      0.0055987716     -0.0011738773      0.0583833677
H       3.7043732396      2.6124027671     -0.4512172538      0.0015354277      0.0019621782      0.0003543949      0.0565946548
C      -2.7360816071      1.6355992198     -1.6128303356      0.0105405719     -0.0049572886      0.0027276776      0.8934910811
O      -2.0844491775      1.1226614875     -2.5568432815     -0.0098136029     -0.0237725436      0.0023339918     -0.7890667736
O      -2.3421684668      2.0714631276     -0.4995353563      0.0021140543      0.0003363206      0.0009242013     -0.8083952035
C      -4.2727798686      1.7047391358     -1.8776434969     -0.0191470946      0.0096919237      0.0002888598      1.3145674434
F      -4.7856720473      0.4420622477     -2.0662097499     -0.0171207027      0.0077055774      0.0032773554     -0.4691858790
F      -4.5495120678      2.4210223493     -3.0076140859     -0.0122528421      0.0093869631     -0.0036947432     -0.4560806916
F      -4.9782493286      2.2670511128     -0.8586593324     -0.0118597075      0.0100640190      0.0020327534     -0.4584772377
