24
Properties=species:S:1:pos:R:3:forces:R:3:charge:R:1 energy=-140.21624925041226 homo_lumo=2.3147813653843916 dipole="-1.7205045233957386 0.9105517616701788 -1.4919256047284772" free_energy=-140.21624925041226
N       0.6700387208     -0.4377106183      0.8205662374      0.0032134245      0.0064696615     -0.0001988736     -0.5469736920
C       1.0373983417      0.8240090705      1.1324357575      0.0026003551      0.0033343908      0.0038358092      0.2972729966
C       1.4016787021     -1.1786151720     -0.0432198459     -0.0002985981      0.0056322336      0.0004260320      0.2923765785
C      -0.5225116033     -1.0352873072      1.4492249967      0.0027677881      0.0026904525      0.0042755004      0.0501736198
C       2.1574429954      1.3897198858      0.5571915910      0.0033044217      0.0037757186     -0.0002594729      0.0058927027
C       2.5170797758     -0.6471540131     -0.6550359936      0.0001708868      0.0091477297     -0.0023297888     -0.0126090297
C       2.9109755055      0.6521440493     -0.3498387309     -0.0010943824      0.0065222023     -0.0024838200      0.0565904467
H       0.4287052194      1.3306639219      1.8769721419      0.0073522630     -0.0010758393      0.0104242388      0.1074290913
H       1.0762106591     -2.2064029940     -0.1884124234      0.0027042535      0.0043440669      0.0059528424      0.1100330121
H      -0.2934021036     -2.0791289079      1.6939502334      0.0065920070      0.0029564531      0.0015578214      0.1074000285
H      -0.7257727960     -0.5025656903      2.3832793981      0.0023094446      0.0056727487      0.0031435555      0.0983752536
H      -1.3669114170     -0.9582666166      0.7508732052      0.0009973555     -0.0006571612      0.0035328890      0.0902958752
H       2.4526017126      2.3947553075      0.8567129436      0.0022846222      0.0020422483      0.0039181956      0.0659085022
H       3.1093639200     -1.2792383936     -1.3149126305     -0.0025623350      0.0071780184     -0.0007333763      0.0756189893
H       3.8250134599      1.0633672587     -0.7774439520     -0.0036249218      0.0103278648     -0.0080722377      0.0750954839
N       3.4094254737     -0.6902674795      2.5134772413     -0.0070205028     -0.0113960670     -0.0085390680     -0.8956352925
S       4.7316715986     -1.3738670283      1.9078809115      0.0008315939     -0.0132773753     -0.0016636334      1.9350516340
S       2.3419302971     -1.4725690128      3.4080659410     -0.0031501357     -0.0113550527      0.0056002087      1.9521843646
F       4.1324901467     -2.5371073923      0.8639135998     -0.0258951293     -0.0209246563     -0.0066409554     -0.4757297240
F       3.1414469506     -1.9296438282      4.7569027086      0.0198828602      0.0142114760      0.0084482950     -0.4475123813
O       5.3225878687     -0.3946260426      1.0092633699     -0.0146050918     -0.0072100161     -0.0340462185     -0.7419451559
O       5.5423351676     -2.1295156335      2.8358917040      0.0016324593     -0.0057823607     -0.0138031914     -0.6948955028
O       1.8444186046     -2.7171142043      2.8339070008      0.0043711695     -0.0155685200      0.0197112540     -0.7432987545
O       1.3705674569     -0.4845357603      3.8612896490     -0.0027638080      0.0029417833      0.0079439939     -0.7610990462
