24
Properties=species:S:1:pos:R:3:forces:R:3:charge:R:1 energy=-138.2201136780494 homo_lumo=0.16337671077614258 dipole="1.5076782130750144 4.379971888249209 -1.6276876019734567" free_energy=-138.2201136780494
N      -0.7025090431      0.0026270443      0.0300842910      0.6683848853     -0.0195367301      0.0278179540     -0.5731785714
C      -0.0237885866      1.1897598110      0.0149484581      0.9651141820     -0.4111144809      0.0256536472      0.2767405308
C      -0.0251064999     -1.1850454967      0.0142664102      0.7171702093      0.3660554519      0.0291623124      0.2870893196
C      -2.1667190657      0.0028443773      0.0184181307     -1.0616143702     -0.0430230577      0.0934893085      0.0484736663
C       1.3733152058      1.2066432306      0.0022586800     -0.7134464426     -0.5535249577     -0.0186736828     -0.0178048480
C       1.3713583732     -1.2047343884      0.0000005095     -0.4591101659      0.7448752237     -0.0226457896     -0.0069830102
C       2.0724329094      0.0002565319     -0.0039932811     -0.3889017375     -0.1223669781     -0.0044479029      0.0561343721
H      -0.5603360240      2.1313365994      0.0112113533     -0.4964214184     -0.1108958881      0.0341898348      0.1130976745
H      -0.5617836878     -2.1247498785      0.0101520871     -0.6734883731     -0.2369778147      0.0953205247      0.1927181867
H      -2.5663695563     -0.8956770711      0.5367543897      0.3713068292      0.2158759990     -0.2194496604      0.1430785672
H      -2.5656590490      0.8973116537      0.5440199572      0.3830897959     -0.3078588592     -0.2189244824      0.0916904775
H      -2.5287934368      0.0073243874     -1.0311291286      0.1963665877     -0.0382758753      0.3066430436      0.1028993906
H       1.9078553558      2.1477186598     -0.0058160949     -0.0088758974      0.2940872777      0.0074552665      0.0735268047
H       1.9034731397     -2.1471822408     -0.0111287989     -0.0583404852     -0.3471645625      0.0455228868      0.0900189839
H       3.1545878852     -0.0009039787     -0.0163484223      0.3254941997     -0.0013271401      0.0137526737      0.0747738315
N      -2.3029217468     -5.6274850772      2.1536762554     -0.0531821917      0.0677131258     -0.0728182555     -0.8234742983
S      -1.9318681020     -5.6580347824      0.5603521844     -3.9209603181      1.3693822451     -1.5703691091      1.8547024915
S      -1.7266509056     -4.4573700055      3.1419440281      3.8710832240     -2.7987676102      2.2166936796      1.8337201036
F      -0.3397615697     -6.1417252637      0.3734141147     -0.5786175760      0.1652886708      0.1231973206     -0.4442924133
F      -2.5413762152     -3.0265975270      2.8379404146      0.0045662605     -0.1789688675     -0.0348436319     -0.4655399757
O      -2.8347372160     -6.6279487916     -0.1474510211      2.3735072657      0.5998259658      1.6482026842     -0.6979960005
O      -2.0990021682     -4.2876186694     -0.0322595182      1.5909382772     -0.8409048964      0.4975750391     -0.7748428002
O      -0.2603432625     -4.2457057135      2.8891123568     -1.9349633680      1.0420537559     -0.4976051472     -0.7372356060
O      -1.9416355728     -4.8594250535      4.5735723570     -1.1190993725      1.1455500028     -2.5048985137     -0.6973168768
