40
Properties=species:S:1:pos:R:3:forces:R:3:charge:R:1 energy=-212.25317310568818 homo_lumo=3.3375147388796096 dipole="-3.855765793757842 6.385023104777744 -1.0308849545599037" free_energy=-212.25317310568818
N      -0.5171267096      0.0152014997      0.0021222408      0.0762142889      0.0962234219      0.0154348599     -0.5222727720
C      -1.4391683116     -0.5559423948     -1.0279400071     -1.0197065515     -1.2404433912     -1.7643653820     -0.0103418236
C      -1.4147495007      0.6153015982      1.0368046498     -0.9651220129      1.2625277019      1.7406087693     -0.0084235455
C      -2.8460115018     -0.0745688539     -0.7290108695     -0.4288751176      0.4599068810     -0.5754190843     -0.1412882317
C      -2.8352104629      0.1657077734      0.7541016131     -0.4450301927     -0.4465453548      0.5882864295     -0.1434998655
C       0.3323826471      1.0801403304     -0.6244464470      1.1905450315      1.1245654980     -0.2686463811     -0.0450041914
C       0.3007926509     -1.0766761549      0.6243990903      1.3078209493     -1.2994820158      0.2085143388     -0.0582013627
C       1.3523969384      1.7353453589      0.3376829522     -0.1668335939     -0.2891119497      0.0853079557     -0.2576624021
C       1.2952865287     -1.7620140827     -0.3431745629     -0.1823475270      0.2840549034     -0.0264506514     -0.2486483123
C       2.0654086821      2.9036831586     -0.3369575242      0.0004870639      0.1008733756     -0.1731259803     -0.0927994993
C       1.9638352965     -2.9618350431      0.3204394281     -0.0519910810     -0.0652404318      0.1597789054     -0.1089348139
H      -1.1606751565     -0.2787518052     -2.0701927382      0.3253619818     -0.0525762244      0.6037564469      0.1431010485
H      -1.4675268427     -1.6695783479     -0.9986144281      0.5363025496      0.4659781791      0.3008564340      0.1666268608
H      -1.1326249229      0.3388860686      2.0782466056      0.3231069993      0.0160111289     -0.6085783503      0.1482281093
H      -1.4165818142      1.7290744072      0.9990423866      0.4800148570     -0.4578555456     -0.2998328999      0.1477607571
H      -3.0402601266      0.8801582889     -1.2658548923     -0.0905847730     -0.3037358059      0.0723003924      0.1010745199
H      -3.6135883657     -0.8276204032     -1.0124452843      0.3103689062      0.3692308748     -0.1345207772      0.1096016284
H      -3.0448510383     -0.7844885743      1.2932167847     -0.0675487163      0.3194546284     -0.0742694030      0.1133328624
H      -3.5822862366      0.9359757609      1.0457881901      0.2969339234     -0.3789794531      0.1363672383      0.1040598136
H       0.8872356998      0.6733119768     -1.4983631434     -0.3067620416     -0.2336945423      0.4055437423      0.1679755277
H      -0.3235442615      1.8802984745     -1.0397259658     -0.1116185078     -0.4598709757      0.2904596961      0.1490676492
H       0.8723357989     -0.6889933480      1.4962445724     -0.3124202622      0.2163519944     -0.3714705462      0.1640881086
H      -0.3785596575     -1.8558508499      1.0419037884     -0.0769174861      0.4579332462     -0.2908301693      0.1633183078
H       0.8504197006      2.1118706076      1.2532074209      0.0516462258     -0.2066911445     -0.1519713051      0.1196548878
H       2.1263406873      1.0017993238      0.6448618460     -0.3095002072      0.0506080392     -0.0009003619      0.1449115840
H       2.0957727251     -1.0551658065     -0.6451064556     -0.2824653052      0.0030148903     -0.0199666964      0.1209403515
H       0.7797995394     -2.1123557931     -1.2614909199      0.0326361648      0.1957049040      0.1405179212      0.1164535705
H       2.6248038382      2.5487799667     -1.2289539657     -0.1311003920      0.2391685941      0.2309680997      0.0617126128
H       1.3324541606      3.6784994906     -0.6469615571      0.2981935915     -0.1329287460      0.0188156018      0.0486210641
H       2.7852844948      3.3617311259      0.3741003694     -0.2189766748     -0.1200861206     -0.3042084437      0.0772432218
H       2.5442504624     -2.6367657678      1.2103226784     -0.1275078557     -0.2960400527     -0.2446758195      0.0575767175
H       1.2016551462     -3.7074815887      0.6306984294      0.4250350919      0.0484679980     -0.0413190401      0.0782901980
H       2.6576773384     -3.4433673974     -0.4000774147     -0.1969544352     -0.0058557045      0.4191051986      0.1117425197
P       3.6775090851     -6.8204509396      1.1102150431      0.4104822677     -0.7737091422      0.1462872274      2.1069373334
F       5.3057574172     -7.3093949108      1.3562513902     -1.4146914415      0.5872732445     -0.3048155123     -0.5063497083
F       3.2181964968     -8.1482597628      2.0984483501      0.0829574512      1.3417641008     -0.8668095538     -0.5066603816
F       3.7285669999     -5.7772936963      2.4741574844      0.0861544938     -0.8518288279     -1.0764674280     -0.5168834896
F       2.0362031954     -6.3605141141      0.8989563025      1.1529468372     -0.1334667516      0.0623765698     -0.5245893449
F       4.2561710842     -5.5420868209      0.1201464111     -0.7476024153     -0.6968228035      0.7122489162     -0.5223089709
F       3.5279904540     -7.7984144793     -0.2940699933      0.2673479160      0.8058513792      1.2611090428     -0.5084505389
