40
Properties=species:S:1:pos:R:3:forces:R:3:charge:R:1 energy=-214.25260721091735 homo_lumo=6.386462271008903 dipole="0.21028295823595222 -2.6278316790306953 1.8054074332311636" free_energy=-214.25260721091735
N      -0.1520468745      0.4016032722     -0.3308953056      0.2199664374     -0.0640295711      0.0933643313     -0.4983773120
C      -0.9102213489      0.0424389583     -1.5956068175     -0.4618305377     -0.0724630715     -0.3971919536      0.0061735215
C      -1.1010522266      1.2268364467      0.5063035018     -0.5416860148      0.1920464217      0.2461952850     -0.0073226451
C      -2.2630221933      0.7381429582     -1.5060127701      0.0734573325     -0.0308061180      0.0922160322     -0.1515178974
C      -2.4924242386      0.8958536338     -0.0075656946      0.2718568530     -0.0326455073     -0.1182566217     -0.1325208741
C       1.0642510853      1.2093208402     -0.6902545353      0.4403462831      0.2737823094      0.5000100819     -0.0935587775
C       0.2025249926     -0.8401935176      0.4300713148      0.4775423639     -0.3566435297     -0.2632785268     -0.0158047792
C       1.8914944462      1.6646617591      0.5082939339     -0.0231514995     -0.0437530592     -0.4696736946     -0.2422951111
C       1.2057660823     -1.7497520167     -0.2798464499     -0.3186265297     -0.0376611289      0.4326459708     -0.2431203555
C       2.9846763286      2.6161146115      0.0195977433     -0.2615962018     -0.1917681128      0.2213047943     -0.0544825541
C       1.3164495526     -3.0758373187      0.4718937199     -0.0009556507      0.3644272793     -0.2448359849     -0.0469339735
H      -0.3345128802      0.3691044404     -2.4601231961      0.1178419597      0.0811612040     -0.1208903840      0.1602050496
H      -1.0291519562     -1.0415828668     -1.6297236854      0.0271989140     -0.2489489300      0.1299047429      0.1122338201
H      -0.9548593900      0.9960841395      1.5612609873      0.1151283923     -0.0993939806      0.2341296108      0.0966104179
H      -0.8775206806      2.2783219705      0.3257751586      0.0725852167      0.1318941798     -0.1219197319      0.2000127785
H      -2.2167724148      1.7166718784     -1.9878372352      0.0255243316      0.1376009594     -0.0940847577      0.1956654375
H      -3.0389075502      0.1406712353     -1.9857743550     -0.2046829629     -0.1373265169     -0.1695018624      0.0575483936
H      -2.8647570363     -0.0328323013      0.4349958773     -0.1323276908     -0.2340868165      0.1606295841      0.0696469287
H      -3.1892725284      1.7027099954      0.2201297586     -0.2113297875      0.1842963202      0.1091976422      0.0898861159
H       1.6713063985      0.6053611548     -1.3673345546      0.0850448562     -0.1526100472     -0.1953682610      0.1213997212
H       0.7033564267      2.0798918774     -1.2372810363     -0.0555866232     -0.0032090367     -0.0899325951      0.3018675128
H       0.6081175236     -0.5313720518      1.3964422063      0.0532990771      0.1007831435      0.1996434674      0.1406434848
H      -0.7340785145     -1.3764607871      0.6069848006     -0.2525762715     -0.0754491709      0.0475071790      0.1397805283
H       1.2565613082      2.1855635643      1.2298140082     -0.1699436931      0.1268303662      0.2069047734      0.1018491091
H       2.3507240500      0.8093851273      1.0140486046      0.0997714073     -0.2236474568      0.1987776195      0.0833755508
H       2.1887421247     -1.2735407878     -0.3100173393      0.2200222618      0.1647983274     -0.0621579230      0.1209004824
H       0.8910309395     -1.9421002397     -1.3084538808     -0.0475559359     -0.0019577609     -0.2912042363      0.1122893221
H       3.6483186710      2.1061386120     -0.6792937751      0.2391512115     -0.0947990443     -0.2217474410      0.0277208686
H       2.5406428605      3.4736313506     -0.4850175723     -0.0775514526      0.2192812677     -0.1589646993      0.0963173269
H       3.5713718866      2.9687163591      0.8670974147      0.2419450875      0.1059657939      0.2142070690      0.0287202212
H       1.6381440092     -2.9074166325      1.5000635027      0.1018631783     -0.0274566402      0.3323589094      0.0387180630
H       0.3554145599     -3.5908924444      0.4861346952     -0.2607692526     -0.2150999375      0.0369746835      0.0352388062
H       2.0472633678     -3.7157492678     -0.0210004576      0.2022468133     -0.2569274697     -0.0667993897      0.0509870750
P      -0.4251027932      3.9896569741     -2.8377393474      0.0332769321     -0.1010557864      0.0000961233      2.1968288417
F      -0.9612715309      3.5138231599     -1.3034283290     -0.0458685245      0.1527818061      0.0417513915     -0.5450815644
F      -0.6462822767      5.5442825123     -2.4250466837     -0.0397143480      0.2455195369      0.0728703459     -0.4925169903
F       1.1181647676      4.0178750542     -2.2237922081      0.0900850152      0.0697114819     -0.0188116325     -0.5239454418
F       0.1198985114      4.3883825065     -4.3126507001      0.0855610905      0.0652519492     -0.2251425060     -0.4911441862
F      -0.1944584617      2.3564083226     -3.1929085383      0.0246991164      0.0919231793     -0.1719833073     -0.5392389045
F      -1.9650323237      3.8582627154     -3.3776136931     -0.2126611546     -0.0063168326     -0.0689441287     -0.5067580104
