37
Properties=species:S:1:pos:R:3:forces:R:3:charge:R:1 energy=-207.70177257772747 homo_lumo=1.8410686400906293 dipole="-0.9835799815386731 1.7264977496864922 4.100069667308537" free_energy=-207.70177257772747
N       0.0685213978     -0.6386156727     -0.4605811172     -0.8594141127      0.8680074998     -0.5007773045     -0.5087610789
N      -1.9935932894      0.1171747582     -0.1215971198      0.8042586564      0.4151553264     -0.5401767834     -0.5554165046
C       1.4457049256     -0.7307040314     -0.9405752826      1.0785671730     -0.2025041271     -0.3444636437     -0.0597411881
C       2.4442793936     -0.4167079630      0.1804071668     -0.0580576817      0.1943271359      0.1977126311     -0.2294423357
C      -0.8350225318      0.3078643304     -0.7813639889      0.4667041389      0.9392545136     -0.8512673675      0.5983609968
C      -0.5411396582     -1.4569006069      0.4211109342     -0.9600752636     -0.7410900186      1.0549967984      0.2405529559
C      -1.8215215583     -0.9867242873      0.6314807728      0.5129630838     -1.4956966867      0.9823180513      0.2478266625
C       2.2920061314      1.0134032539      0.6987697891      0.0320428789      0.0308885627      0.1389637788     -0.1069656281
C      -3.1796063379      0.9621109249     -0.1656663672     -0.5155605334      0.3715861524     -0.0853849888      0.0628034824
H       1.6032395074     -0.0201065063     -1.7805380650     -0.3292184880     -0.3672150562      0.1077594604      0.1770142585
H       1.6304722426     -1.7561427925     -1.3275525624     -0.3796746603      0.3505679074     -0.0555191090      0.1765805933
H       2.3089195109     -1.1311508434      1.0208865699      0.1278938703      0.0683022612     -0.2107130437      0.1021812394
H       3.4750678552     -0.5455781364     -0.2145277682     -0.3685388008     -0.1611460011     -0.0355152440      0.1314403466
H      -0.6447718946      1.1298786899     -1.4605573710      0.0010976328     -0.0767567403     -0.1080714237      0.1130141577
H      -0.0851776025     -2.3201094866      0.8882438533      0.1920999904     -0.0425267557     -0.1559704387      0.0632281730
H      -2.5632345391     -1.4079416897      1.2976527360     -0.2034460876      0.1076871244     -0.0784640518      0.0582746922
H       1.3054411656      1.1451388003      1.1917548723      0.2626986269      0.0951168619     -0.1020577028      0.0540033702
H       2.3840159552      1.7403824910     -0.1361659891     -0.0171081744     -0.1380706027      0.2703251587      0.0545965747
H       3.0866079827      1.2265848686      1.4443803533     -0.3039628787      0.0572477416     -0.1969885454      0.0694939263
H      -3.0130159273      1.8323670040     -0.8360942768      0.0482707886     -0.4655321580      0.2506983114      0.0921881728
H      -4.0425000806      0.3750370559     -0.5434450096      0.3661459914      0.1506536274      0.0783323967      0.1039612431
H      -3.4080511853      1.3361321418      0.8546815388      0.1663339774     -0.1701618095     -0.3447827999      0.0852564708
N       0.1627593056     -1.6189674985     -4.2042295800      0.0166377729      0.3963310189      0.6943038724     -0.9143438242
S      -0.6922706530     -2.9653461419     -4.5820703776     -4.0802406543      3.5307943043     -5.0100515233      1.5674448402
S       1.3646155388     -1.0356798821     -5.1544513584      4.1815709246     -5.5727580356      1.6739591445      1.5690414946
C       0.0732886423     -4.3779917049     -3.8145254495      1.1460546196     -1.4745528405      0.3758053162      1.1555928354
C       0.7187996050      0.2755225122     -6.1702602237     -0.9777939259      1.1270483879     -1.3812969729      1.1575489836
O      -2.0923179718     -2.8260684720     -4.0557057956      2.2746004666     -0.5493861450      0.9006723895     -0.7382999285
O      -0.7344057066     -3.1673157424     -6.0718215934      0.8240365227     -0.7256197308      2.2836277015     -0.7129649898
O       1.9253384809     -2.1195262557     -6.0332290427     -1.2576379063      2.1557993071      0.2677716316     -0.7128801035
O       2.4577566008     -0.4803034011     -4.2870926858     -2.0621606443      0.7814478377     -0.5645448138     -0.7592697659
F      -0.6411629642     -5.5187851913     -4.1267826147      0.7738524003      0.9458866415      0.4878452393     -0.4243867679
F       0.0870461630     -4.2065796710     -2.4432707634      0.1670432317     -0.4170799634     -0.5464626359     -0.4522583921
F       1.3702178112     -4.5109200687     -4.2719334714     -1.1540952641     -0.1466533502      0.6926375408     -0.4196773151
F       1.7290749161      0.7883016525     -6.9612283557     -1.0472609239     -0.2972493360      0.6884474321     -0.4242840460
F       0.2140161088      1.2782065855     -5.3641323151      0.1990216865     -0.3312399719     -0.7085212383     -0.4441942023
F      -0.2901664478     -0.2155657176     -6.9764515120      0.9323515663      0.7891371171      0.6748527763     -0.4175193995
