39
Properties=species:S:1:pos:R:3:forces:R:3:charge:R:1 energy=-212.14846562078174 homo_lumo=4.903207261633689 dipole="-1.6871544368488007 -0.9085522342948411 -2.945305204830114" free_energy=-212.14846562078174
C       3.1964990223      0.0510862646      1.5691641754     -0.0454670506     -0.0727069194     -0.0021792065     -0.1674783605
C       2.0384889156      1.0488005828      1.5186674151      0.5326160996      0.0173439026      0.2136114645     -0.0314452559
H       1.6066332453     -0.4610216447     -0.7409122195      0.0144652418      0.1638452955     -0.2143683449      0.1221347444
H       0.6481927211     -1.6505999146      0.1822178052     -0.2036787039     -0.1004321290     -0.0927836295      0.1267831669
H       3.3525114779     -1.7332280882      0.3100513009      0.1376845417     -0.2085881663     -0.1561031998      0.0880717457
H       2.4150064212     -1.9618119516      1.7938436043     -0.0265852462     -0.1963281376      0.1765928307      0.0980969360
H       3.5451868452     -0.0848306522      2.5939232451      0.1389526896      0.0114734272      0.1224314396      0.1864461304
H       4.0291035739      0.4243578402      0.9696905293      0.2033476132      0.1187931440     -0.1019271849      0.0808648243
H       1.8226528625      1.5135256595      2.4806700036     -0.0793047106      0.1881500640      0.0468138431      0.2154770424
H       2.2294360831      1.8313112764      0.7825206409     -0.0912790161      0.1807562512     -0.1846107054      0.1121864727
H      -0.6563694717     -0.9745914163      1.9250848805     -0.1944670136     -0.1815300791     -0.1876223737      0.0683440397
C       0.1021838574     -0.2677078593      2.2545168204     -0.1311102501     -0.1573596333     -0.0803921236      0.0312997369
H       0.8170269740     -0.7704029791      2.9012681685      0.2061459739     -0.0934582700      0.2361029878      0.1968793362
H      -0.3572615414      0.5550392790      2.7966576386     -0.0532481548      0.1689425529      0.1269869158      0.0992380549
C      -0.0605638552      1.2139895085      0.2961069797     -0.7030647314     -0.0338937501     -0.0611742205      0.0017959785
H      -0.1886211635      2.0891188076      0.9389129486      0.0979565216      0.2083404466      0.1738131923      0.1457483476
H       0.4986573575      1.5154247244     -0.5937143173      0.1887058436      0.0658192989     -0.1540585025      0.1176084460
H      -1.9733603136      0.2955297741      0.7601974619     -0.2136436230     -0.0026871004      0.2311213193      0.1075108742
H      -2.8751990187     -1.2412384856     -2.5897952220     -0.1261814624     -0.2232041243     -0.2673742441      0.0424992552
C      -1.4584809424     -0.3136925171     -1.2534135810     -0.4902318856      0.2254952106      0.2726836138     -0.2425397309
H      -0.8107413869      0.0395059289     -2.0626882397      0.2262654311      0.0472414772     -0.2067423466      0.0844318856
H      -1.0759610508     -1.2790590082     -0.9105145808      0.1403420268     -0.2174866870     -0.0024966632      0.1198764028
C      -2.8783576137     -0.5070675811     -1.7846471852      0.4866226195     -0.0655146451      0.0676538782     -0.0453913398
H      -3.2736733176      0.4327026977     -2.1711904833     -0.1692940831      0.2684773002     -0.1312095666      0.0356273361
N       0.8209538570      0.2772337712      1.0698929049     -0.3055925658      0.1373221578     -0.1499371517     -0.5292306290
C       1.3795955221     -0.8468684515      0.2555205125      0.3839900064     -0.4730018150     -0.0165692083     -0.0031330254
C       2.6482960518     -1.2566701756      0.9930465919     -0.2015537787      0.1121276707     -0.1282269117     -0.1269168247
H      -3.5366443284     -0.8622881237     -0.9912730234     -0.2568739229     -0.1126328600      0.2048128986      0.0376690631
C      -1.4441093331      0.7011843592     -0.1049600590      0.6673965185     -0.2646034498     -0.2947279341     -0.1761636021
H      -1.9952809096      1.5913696352     -0.4268512233     -0.1645032056      0.2295779781     -0.0342670908      0.1199065670
N       3.5783193137      0.9498378603      4.5645399259     -0.1647423258      0.1827776060      0.0682181088     -0.8988100083
S       2.2663159481      0.3250575228      5.1761217890      0.3578861078     -0.3700272494     -0.1960537124      1.9392849789
S       3.7166467521      2.5374750298      4.4870645730      0.3590033255     -0.1297469128     -0.1111484257      1.9520204308
F       1.0039509708      1.1497273245      4.4825828798     -0.4071048646      0.4401837402      0.0180958768     -0.4922511587
F       3.5194814460      3.0670348628      5.9891350019     -0.1549098689      0.1924290989      0.8304822721     -0.4507012115
O       2.1223685062     -0.9897761796      4.6132905239     -0.1723934517     -1.3940122875     -0.7019785036     -0.7838817477
O       2.0498717390      0.5017947689      6.5706797432     -0.2338769583      0.4132228712      1.5520489867     -0.7018744182
O       2.6707483847      3.1717895450      3.7368971068     -1.1738244075      0.6453276925     -0.5892112153     -0.7554589857
O       5.0653311935      2.8342085421      4.1429819215      1.6215507207      0.2795670302     -0.2763071627     -0.7245254977
