29
Properties=species:S:1:pos:R:3:forces:R:3:charge:R:1 energy=-169.37802538011644 homo_lumo=1.38947922689275 dipole="1.0803838893633064 -0.20485116759074182 -3.213180439969654" free_energy=-169.37802538011644
N       0.8492981312      0.6251338050     -0.0984483043      0.4263484657     -0.1193099771     -0.1536090748     -0.5038563583
N      -1.2933176838      0.6207385048     -0.3153048372     -0.3792235285     -0.0897392581     -0.2616296068     -0.4957361484
C      -0.2377583469     -0.1448111168     -0.0480494158      0.0063798889     -0.1060735662     -0.2462780717      0.6106785055
C       2.2190985308      0.1783931658      0.1447037276      0.1271769752      0.0664409430      0.5995341928     -0.0510671284
C      -2.6851301804      0.1713909919     -0.3346991253     -0.3370898654     -0.0511331769      0.5633916422     -0.0450708477
C       0.4730524252      1.9157788001     -0.3501517922      0.0110782817      0.1838422916     -0.1267780683      0.2321124520
C      -0.8792129921      1.9120631391     -0.4859640553      0.0431524158      0.1784305434     -0.1646264455      0.2413439536
C       2.5997359733      0.3722071407      1.6077538485      0.0365185390     -0.1785488488     -0.4904267630     -0.0765982118
C      -3.2751699078      0.1977629033      1.0694829517      0.1644417674     -0.0787809388     -0.6631356281     -0.0778139176
H      -0.2564250020     -1.2007531364      0.1566875079     -0.0151516163     -0.2047207908      0.0209781940      0.0948079329
H       2.2799125842     -0.8762396735     -0.1375297919      0.0123555718     -0.1666587241     -0.1600743382      0.1049665179
H       2.8746745775      0.7594636711     -0.5103095921      0.0570278668      0.0422157817     -0.2335863747      0.1080365902
H      -3.2319959469      0.8388862622     -1.0060318219     -0.0022411843      0.0887620486     -0.2487244290      0.1023551389
H      -2.7009688040     -0.8406854624     -0.7493991975      0.0195479303     -0.1507951631     -0.2050928771      0.0992563250
H       1.1872459609      2.7178089720     -0.4116520927      0.1644640070      0.1836739704      0.0069873434      0.0388301809
H      -1.5693652714      2.7140615583     -0.6799230970     -0.1777663506      0.1641161954     -0.0251409073      0.0409058752
H       2.4684617230      1.4118701324      1.9018988481     -0.0305694188      0.2655439136      0.1425932367      0.0675976762
H       3.6429382347      0.0900848619      1.7422414644      0.3584459133     -0.0725177555      0.0562909784      0.0481343758
H       1.9753909034     -0.2489969084      2.2462670248     -0.0941831032     -0.0906996641      0.1937580051      0.0914400247
H      -2.7512419432     -0.4990571923      1.7199103638      0.0646738959     -0.0588535749      0.3057090590      0.0952953685
H      -4.3254970221     -0.0838502069      1.0188905010     -0.3635055115     -0.0999334158      0.0194317747      0.0413637513
H      -3.1920597056      1.1904794876      1.5064763441      0.0177001134      0.1856383678      0.2389778731      0.0891966956
C      -1.7288441487      0.7842827663      4.3932519190      1.5016451302      0.2117592824     -1.5966454275      0.9488590928
O      -1.2985747707      0.9608059197      5.5030070860      0.8248442584      0.3464038493      2.1628839757     -0.7331144302
O      -2.7864006136      0.5103537210      3.8623623563     -1.8966656734     -0.4803234824     -0.7793484890     -0.7857696527
C      -0.5115379105      0.9604302182      3.1963930669     -1.0297912971     -0.0571605843      1.1550922964      1.1866610878
F      -0.3433703191     -0.1989888053      2.4679744579      0.0444692891     -1.0740080967     -0.1975801051     -0.5062746265
F       0.7218248239      1.2816154553      3.6305345863      0.7245862458      0.3238470927      0.5606268822     -0.4776493410
F      -0.8220003435      1.8984324467      2.2559885629     -0.2786690067      0.8385827376     -0.4735788476     -0.4888908822
