37
Properties=species:S:1:pos:R:3:forces:R:3:charge:R:1 energy=-197.812533435112 homo_lumo=6.4746772553489125 dipole="-0.2775757549383365 3.059691886953496 -0.04702810861329039" free_energy=-197.812533435112
N      -0.2568743082     -0.1882891648     -0.2367541123      0.2051637924      0.0921901155      0.0212319899     -0.5055100528
C      -0.6071590131     -0.9140503850     -1.5111735656     -0.4265181279     -0.1845841884     -0.3746216830     -0.0338111313
C      -1.3201736260     -0.5922596302      0.7619621531     -0.4911972262     -0.1420497927      0.2681982996      0.0191753080
C      -2.1174236575     -1.0610215795     -1.4859087661      0.1901221132      0.0984435639      0.1378975341     -0.1338070156
C      -2.4165274883     -1.3238611879     -0.0129420562     -0.0202532380      0.0464826916     -0.0026930946     -0.1394048783
C       1.0916441513     -0.6223023561      0.2627243869      0.5999770759      0.1349185189     -0.3135390468     -0.0606450447
C      -0.3135035236      1.2870818162     -0.4983988754      0.1469635748      0.4711927974      0.3680170663     -0.0579228293
C       2.2339900277     -0.3508619284     -0.7126261031     -0.1198946909     -0.1536712074      0.4267932689     -0.2407911673
C       0.1172722900      2.1566392595      0.6751095687     -0.0974593060     -0.3285194313     -0.3654166713     -0.0779307178
C       3.4836462433     -1.0894477203     -0.2330061554     -0.2827228273      0.2168661592     -0.1517525596     -0.0510821804
H      -0.1310227967     -1.8930570290     -1.4747620860      0.0967461368     -0.1758632323      0.0486705334      0.2519941639
H      -0.2362102271     -0.3526995070     -2.3680936170      0.1500876187      0.1733398060     -0.1440788962      0.0859528061
H      -1.6959279219      0.3034488232      1.2570260660      0.0135362027      0.2600688212      0.0390325929      0.1178982757
H      -0.8627938819     -1.2436477078      1.5058163614      0.1256399676     -0.0793391343      0.1026325895      0.1482190219
H      -2.4240283854     -1.8993892794     -2.1117407580     -0.0799146995     -0.1647672788     -0.2020300057      0.1082892639
H      -2.6122394357     -0.1513687956     -1.8380587218     -0.1383388422      0.2235345759     -0.1348890044      0.0647062994
H      -3.4057878977     -0.9651816789      0.2744062129     -0.2707799366      0.0707378371      0.0851790140      0.0567792064
H      -2.3547720836     -2.3944787153      0.1906309875      0.0605587168     -0.1737707671      0.0330620629      0.1624107565
H       1.0181885951     -1.6949792838      0.4432829072     -0.1247952458     -0.1600181716      0.0293406197      0.2540474122
H       1.2667878844     -0.1207956574      1.2168880593     -0.0048137870      0.1471952015      0.2396063311      0.1169545389
H       0.3300363301      1.4914257896     -1.3572727225      0.0911206315     -0.0405003539     -0.2084751838      0.1408224426
H      -1.3448923547      1.5163723771     -0.7774812264     -0.2317834668     -0.0397711389     -0.1184454533      0.1445045679
H       1.9715328540     -0.7144724221     -1.7086881132     -0.0761845476     -0.0991885489     -0.2523668258      0.1198098758
H       2.4396590934      0.7218817680     -0.7818224056      0.0584132618      0.3008167107     -0.0774187601      0.0857790478
H      -0.4083173029      1.8963120697      1.5920235820     -0.1615310171     -0.0190832183      0.3068855702      0.0514223753
H       1.1891037598      2.0852126807      0.8508599723      0.3160694387      0.0074907542      0.0826765704      0.0593960660
H      -0.1187331428      3.1913024476      0.4275945750     -0.0541012012      0.3349621916     -0.0302566668      0.0650529004
H       3.7624853538     -0.7628989547      0.7694361646      0.1511547053      0.0821137281      0.3109156396      0.0234696172
H       3.2977217228     -2.1629944103     -0.2148327109     -0.0365784040     -0.3148476848      0.0182935501      0.0850493471
H       4.3122322029     -0.8877009668     -0.9106786880      0.3091826605      0.0351350590     -0.1456374938      0.0325861323
P       0.1256419334     -4.4748736873     -0.2112531921     -0.0417873446      0.0994472876      0.0317615733      2.2037862097
F       1.2029741030     -3.3798677654     -0.9085754865      0.0665890870     -0.0750399146     -0.0893924909     -0.5381494795
F      -1.0663968086     -3.8467807095     -1.1993603763     -0.0484324084     -0.1195490242     -0.0924425055     -0.5302767326
F       0.5057200329     -5.5738241576     -1.3424858406      0.0677274164     -0.1739072320     -0.1860225784     -0.4915842427
F      -0.9610827459     -5.4637354423      0.4837806812     -0.1682860669     -0.1479147025      0.1100111257     -0.4959172415
F       1.3129102173     -4.9898236515      0.7782097783      0.1772659842     -0.0660223847      0.1326893775     -0.4985612395
F      -0.2642371193     -3.2710408522      0.9123666518      0.0490539995     -0.1365284128      0.0965836108     -0.5427116817
