28
Properties=species:S:1:pos:R:3:forces:R:3:charge:R:1 energy=-148.12854164706192 homo_lumo=1.955177663443364 dipole="-1.1933142696115295 -3.153188185160165 -1.0596808217874925" free_energy=-148.12854164706192
N       0.4242970519      0.2117777090      0.0403807914      0.2335470726      0.1030649211     -0.1315596903     -0.5534637998
C      -0.5156276143      1.2742728537     -0.4381790092     -1.4705292477      1.3255000897     -0.4406802611     -0.0247348853
C      -0.1005706697     -1.1397805944     -0.3226620454     -0.7554988645     -1.4798137772     -0.1321946890     -0.0168373191
C      -1.9755072062      1.0788206210      0.0119127308      0.0926636490     -0.1610344227      0.0071612032     -0.1759344260
C      -1.5427580692     -1.3865636999      0.1550816456     -0.0351061204      0.1168406032     -0.0201410621     -0.1652848174
C       1.7306547313      0.4540636081     -0.6563471271      1.9015234761      0.1352423479     -0.7195653287     -0.0748707425
C      -2.4839979879     -0.3074020085     -0.3689882069     -0.3590794516     -0.0157604449      0.1470178200     -0.1646697259
C       0.6196763268      0.3274850411      1.5115839401      0.1884723875     -0.0546802876      1.5046826460      0.0222855288
C       2.8818730194     -0.4929580450     -0.2697695281     -0.2631874742     -0.0903206271      0.1653182665     -0.1184464034
H      -0.5227577919      1.3079814961     -1.5530231644      0.3693856072     -0.3621250593      0.3904511667      0.1309697023
H      -0.1781735071      2.2779024599     -0.0948072832      0.5219671973     -0.2974028475      0.1706608728      0.1789908477
H       0.5297211719     -1.9423021636      0.1169556189      0.1212217746      0.5790059504     -0.1036250617      0.1483414436
H      -0.0786961821     -1.2770662667     -1.4284413470      0.1710441175      0.4239043265      0.3339800130      0.1342507476
H      -2.6099653081      1.8419069444     -0.4887103138      0.3927014625     -0.0298050623      0.1704568361      0.1235557685
H      -2.0846800538      1.2429665436      1.1035462576      0.0745592386      0.0215723888     -0.2101546137      0.1126038423
H      -1.5861628532     -1.4258446822      1.2640471733      0.0453995896     -0.0210542071     -0.2312726390      0.1075456110
H      -1.8846743059     -2.3749675135     -0.2210155336      0.3233151188      0.1575397222      0.1433183103      0.1122771789
H       1.5992208632      0.3752149410     -1.7600681626     -0.4788056914     -0.0232648346      0.4595998809      0.1292609933
H       2.0826976496      1.4932244153     -0.4606359408     -0.5889906537     -0.0565904294      0.3082856884      0.1819565597
H      -3.4979358005     -0.4599423680      0.0595040104      0.1985356248     -0.0066619119     -0.2421229700      0.0951445050
H      -2.5620497551     -0.3854430224     -1.4757566503     -0.0156136170     -0.0063568820      0.2101001967      0.0889317339
H      -0.3371621873      0.3236996604      2.0680461342      0.1341574114      0.0412291011     -0.5299282761      0.1187838026
H       1.2062842409     -0.5262766893      1.9127620476     -0.1574561079      0.2052963414     -0.4986797258      0.0891430404
H       1.1481068177      1.2699877191      1.7724425661     -0.1073224342      0.1606556455     -0.4274003588      0.1409653388
H       3.7786262096     -0.2251395489     -0.8672292261     -0.3479020201      0.0355231655      0.1358999310      0.0946336100
H       3.1597567252     -0.3841066393      0.7978850517     -0.0515854249     -0.0759023501     -0.3161936793      0.0763873537
H       2.6406619110     -1.5499308415     -0.4978506056      0.1324607741      0.2039627160      0.1273771027      0.0481576602
Cl      1.7772235943      4.1707216727      1.3705688226     -0.2698773942     -0.8285641757     -0.2707915786     -0.8399431486
