40
Properties=species:S:1:pos:R:3:forces:R:3:charge:R:1 energy=-224.1769812274977 homo_lumo=1.6770992086926129 dipole="2.9728957947551637 3.4737761852863236 -2.2748600013034954" free_energy=-224.1769812274977
N       0.3763789337     -1.5310370687      0.2912622237     -0.7733679387      0.4559166033      0.8360263725     -0.5107051626
N      -1.7462409880     -0.8745167075      0.2076702003      0.9711439812     -0.0315368891      0.8734983204     -0.5094849026
C       1.7626138958     -1.6701707779      0.7325706761      0.8904916982     -0.2241434510      0.1297304586     -0.0223459337
C       2.6886772145     -0.7418629807     -0.0636638050     -0.2502561772      0.2638225226      0.1104277133     -0.1966805459
C      -2.9980873793     -0.2012929941      0.5491201927     -0.9964313857      0.3493362602      0.1349790015     -0.0433784871
C      -0.6159009988     -0.8915959784      0.9401623073      0.0612460753      0.6978384681      1.1601438271      0.5850534706
C       2.3525376877      0.7377733389      0.1723892580      0.0805500975     -0.0804577275     -0.1467343080     -0.2566765689
C      -0.1456702314     -1.9410735188     -0.8821709216     -0.8629192847     -0.3521631007     -1.4800917713      0.2374177476
C      -1.4638580977     -1.5366245128     -0.9328145842      0.6091299926     -0.7383972860     -1.3649385877      0.2486725459
C      -3.2493891277      0.9991173091     -0.3734953426      0.2165332923      0.1528500989     -0.0779341039     -0.2315812630
C       3.3390833909      1.6518365887     -0.5469693865      0.0003069915      0.2430891837     -0.0089689610     -0.0884639126
C      -2.1570169234      2.0606266347     -0.2461635416      0.0356901867      0.0828821759     -0.1130811790     -0.1220589903
H       1.8444581889     -1.4338670215      1.8165201138     -0.3417843106     -0.1108680184     -0.3786109404      0.1315227934
H       2.0860131239     -2.7245262757      0.5953357765     -0.3883253816      0.2267507011      0.0738328869      0.1434483628
H       2.6092531565     -0.9772294856     -1.1476742103      0.1162974879      0.0301002398      0.2386499977      0.1133547155
H       3.7363474045     -0.9361837592      0.2536687305     -0.2764801668     -0.0626531435     -0.0977127955      0.1186013697
H      -2.9698809955      0.1460037350      1.6055286232      0.2034807564     -0.3966622038     -0.3176378485      0.1475714978
H      -3.8380771965     -0.9228793666      0.4565733174      0.4306313805     -0.0226587912      0.1562178116      0.1705367653
H      -0.5051532775     -0.4114523818      1.9044162671     -0.0566083971     -0.1106486759      0.0730881478      0.1070272254
H       1.3298820265      0.9571222675     -0.2024764178      0.1487054452     -0.0739523285      0.1928153449      0.1505350370
H       2.3839679324      0.9619197581      1.2608612141     -0.1278820051     -0.1014225687     -0.1823417869      0.0920058126
H       0.3969534742     -2.4736124769     -1.6522452409      0.1708080559     -0.1096169652      0.1336159441      0.0599236732
H      -2.1554512301     -1.6915673441     -1.7505578192     -0.2180002324      0.0049136992      0.1320661762      0.0661805545
H      -3.3100761730      0.6589061561     -1.4296798652     -0.1302090456      0.0507688341      0.2373796997      0.1105455942
H      -4.2258063609      1.4576231330     -0.1066254612      0.1691433150     -0.3452034543     -0.0459836459      0.1272380285
H       3.3164364838      1.4601594473     -1.6408107862      0.1082631955      0.1071119007      0.2924297852      0.0477346581
H       4.3682957963      1.4844993693     -0.1647715835     -0.2523491828      0.1006812918     -0.2046044189      0.0504790525
H       3.0617965676      2.7118359855     -0.3664689324      0.2046497276     -0.2584429543     -0.1410057774      0.0584689302
H      -1.1802780701      1.6565624510     -0.5861854230     -0.1847230540      0.2042685911      0.1273881900      0.0817960612
H      -2.0674477469      2.3999707649      0.8075928979      0.0521432293     -0.0273086962     -0.2974116074      0.0479658485
H      -2.4118605639      2.9349101242     -0.8811823869      0.1954651908     -0.2037845209      0.2227205583      0.0665360285
N      -4.4936661738     -4.3711203495      2.5022716412      0.4225653058      0.2439768627      0.0862668853     -0.8312383807
S      -3.6018200376     -3.4050328566      3.4748998456     -3.0376437946     -1.1288926455      4.4578390637      1.8189178633
S      -3.9001014495     -5.7948277166      1.9583772895      0.4564665687      0.3626128301     -4.4892051496      1.8351144882
F      -2.1608325704     -3.0214684840      2.7162267118      0.0429704499      0.2821512342     -0.1744106421     -0.4739129731
F      -3.5028227007     -6.7702386248      3.2591902012     -0.2721188816      0.4592396229     -0.5183088768     -0.4381637024
O      -4.3674752222     -2.1479640424      3.7735624337      1.5207156949     -1.0414362339     -1.9614222581     -0.7320416509
O      -3.2953160723     -4.1247520174      4.7581127514      0.8956628417      0.9015094109     -2.2101807415     -0.7090787085
O      -2.6627959465     -5.5479401905      1.1417436545     -0.7312119569     -0.5794520227      1.9838400552     -0.7405925722
O      -4.9340698179     -6.4795172659      1.1109164925      0.8972502350      0.7798811461      2.5576291600     -0.7102443701
