40
Properties=species:S:1:pos:R:3:forces:R:3:charge:R:1 energy=-223.81645692227923 homo_lumo=0.7646787215386512 dipole="-6.355053842016326 -2.1408319233269397 -3.042731580310232" free_energy=-223.81645692227923
N       0.3473883581     -1.6114662251      0.3135703261     -0.8940521762      0.4233495855      0.8220501991     -0.5021951478
N      -1.7750073650     -0.9528884633      0.2767247800      0.7789034504     -0.0493759838      0.8390330245     -0.5138382783
C       1.7494660266     -1.7177557593      0.7094047913      1.1588049837     -0.1989012030      0.1793088253     -0.0375438954
C       2.6211886708     -0.7526630702     -0.1041315587     -0.2274606555      0.2909357373      0.0703695995     -0.2054419656
C      -3.0108668305     -0.2620459968      0.6386089550     -0.9107212148      0.3688311449      0.0759509957     -0.0265344270
C      -0.6321976113     -0.9802852306      0.9887920465      0.3454102862      0.6843379245      1.1123349793      0.5692539168
C       2.2320053377      0.7135272050      0.1402460719      0.0412672655     -0.1061609967     -0.0786624336     -0.2679047953
C      -0.1958315749     -2.0069819528     -0.8554149185     -0.8523268423     -0.2767497114     -1.3365272008      0.2415210543
C      -1.5144515746     -1.6014620732     -0.8768187496      0.5170116639     -0.7296537441     -1.4665342496      0.2273831608
C      -3.2511108608      0.9512740055     -0.2693286874      0.1651504654      0.2141636448     -0.0732499090     -0.2407944311
C       3.2040218683      1.6680519825     -0.5446023462      0.0695948499      0.2596072583     -0.0011311924     -0.0931982883
C      -2.1314898143      1.9854675960     -0.1552542469      0.0597178602      0.0340108996     -0.1060227768     -0.1284690798
H       1.8590309746     -1.4928705009      1.7934396511     -0.2940241938     -0.0633309519     -0.3683836663      0.1451530258
H       2.0981681200     -2.7604193501      0.5462509731     -0.3797762403      0.2166123565      0.0722875040      0.1352006831
H       2.5268035721     -0.9898247345     -1.1862945392      0.0957187198      0.0105197296      0.1972760098      0.0934353568
H       3.6807868912     -0.9111059159      0.1885411965     -0.1910211553     -0.0009224310      0.0339454618      0.1786327505
H      -2.9639748091      0.0744101108      1.6979863618      0.2392499929     -0.2938032811     -0.3465293668      0.1304362686
H      -3.8644310338     -0.9671947729      0.5465220729      0.3889225087     -0.0027534946      0.0745364262      0.1375677216
H      -0.4997187464     -0.5012462783      1.9511723707      0.0172260376     -0.0344777659      0.0551029700      0.1123402121
H       1.2125830972      0.9025258773     -0.2584802983      0.0591041953     -0.0572285614      0.1360149333      0.1235553528
H       2.2250438120      0.9287444485      1.2302054969      0.0024027762     -0.1134523832     -0.1674149860      0.1174762727
H       0.3355725523     -2.5219434417     -1.6451878104      0.2086935712     -0.0809427500      0.1103503789      0.0651110452
H      -2.2193161701     -1.7394539016     -1.6861800059     -0.2096309769      0.0467131572      0.1013315493      0.0610377732
H      -3.3399148176      0.6203111783     -1.3265697361     -0.1283743330      0.0427775310      0.2516941782      0.1145690762
H      -4.2112427259      1.4298169307      0.0201083721      0.1415038990     -0.3366556350     -0.0540830424      0.1240624874
H       3.2155748553      1.4861918225     -1.6402825071      0.0788282287      0.0999581138      0.2701440505      0.0260085539
H       4.2280100022      1.5335592879     -0.1368967384     -0.2664165546      0.0454762566     -0.1600018881      0.1064033944
H       2.8845247201      2.7154779953     -0.3603581336      0.2031394585     -0.2626697097     -0.1264137050      0.0474791345
H      -1.1830330685      1.5748382924     -0.5608661081     -0.1758116857      0.2299751099      0.1680165051      0.0998063035
H      -1.9800138793      2.2803372738      0.9050497248      0.0347554953      0.0021395778     -0.3222288455      0.0549122463
H      -2.3998247934      2.8890446401     -0.7420093439      0.2072204948     -0.2384977471      0.2107058996      0.0753296995
N       6.6805879124      1.8926224082      2.8716457683     -0.1791787135     -0.3139107100     -0.4751971889     -0.8432709762
S       5.7717068323      0.5337622183      2.8095057594      4.4141364122     -3.0301298982      0.7812860234      1.8425979543
S       7.0380982885      2.6117033220      4.2968053226     -3.1607578407      3.7056800590      0.6346172923      1.8445758831
F       4.1665443992      0.9332631302      3.0616925062     -0.0200820777     -0.0010454006     -0.2704405433     -0.4676680631
F       8.1108848507      1.6490611682      5.1478481023     -0.3422839431      0.3457666475     -0.5439921842     -0.4408903783
O       5.9214975361     -0.1079148334      1.4597720036     -1.4837738107      1.8116750800      0.9922086707     -0.7490595077
O       6.2064970381     -0.4278072383      3.8796775162     -1.7582747172      1.4659874782     -0.8471520855     -0.7191726123
O       5.7870172563      2.7836738232      5.1118216197      1.9210019917     -1.2571678663     -0.4043720282     -0.7278548205
O       7.6658931071      3.9523618994      4.0406834726      0.3262025242     -2.8506870671     -0.0402281845     -0.7100126607
