37
Properties=species:S:1:pos:R:3:forces:R:3:charge:R:1 energy=-202.30264122487654 homo_lumo=0.0015260496060059976 dipole="-5.326197232987796 2.8055694693429194 -1.4610401231379841" free_energy=-202.30264122487654
N      -0.4024361527      0.1625593670     -0.0754259134      0.0722613168      0.1146841373      0.0121491946     -0.5219017506
C      -0.9595311687     -0.8900345255     -0.9800372289     -0.4268011501     -1.7667027695     -1.5132531270      0.0011294303
C      -1.4710899555      0.4040135463      0.9423273902     -1.4214236663      0.7478994826      1.6723141791      0.0047604631
C      -2.4258793105     -1.0829878165     -0.6425909729     -0.5182775867      0.1117067631     -0.5514390481     -0.1225983477
C      -2.5147666643     -0.6875006144      0.8044683698     -0.1038342985     -0.5162938104      0.6270366864     -0.1248427691
C       0.8328770587     -0.3431340794      0.6078408957      1.7406833893     -0.4174738343      0.2593065942     -0.0485147767
C      -0.1468490758      1.4131969436     -0.8610267111      0.6154181594      1.6535671425     -0.6594181751     -0.0734889759
C       2.0280802046     -0.6026405170     -0.3411608039     -0.2794771862      0.1624629831     -0.0866792364     -0.2418640786
C       0.4605398919      2.5675394745     -0.0427047138      0.0545934230     -0.3336896668      0.1118579188     -0.1181950187
C       3.1739515981     -1.2883030895      0.3969181894      0.0213370875     -0.0758124081      0.1800971743     -0.1226785947
H      -0.4636743460     -1.8773103966     -0.8332224262      0.2441742801      0.6563057268      0.2514640834      0.1464219653
H      -0.8514292013     -0.6439978649     -2.0613227260      0.2973341489      0.2490605930      0.5040031427      0.1213526387
H      -1.9962838019      1.3736051512      0.7792562440      0.5623597055     -0.1671596077     -0.3346769488      0.1221561721
H      -1.0866736137      0.4291854670      1.9876485958      0.3116274867      0.0441140217     -0.5633571446      0.1291796549
H      -2.7544123030     -2.1337756013     -0.7989816550      0.1087632922      0.3376825731     -0.1646754348      0.0852952637
H      -3.0494965802     -0.3997029037     -1.2608500953      0.0704671310     -0.2249159545      0.0981935881      0.0747927702
H      -3.5329954279     -0.3257702001      1.0670090765      0.3220152549     -0.0825554748      0.1286767418      0.0764056053
H      -2.2459113835     -1.5520279740      1.4509510835     -0.1770548290      0.2261710612     -0.1056275413      0.0933661876
H       0.5967085803     -1.2900590084      1.1477696934     -0.3287608981      0.3259997381     -0.3226946200      0.1486999831
H       1.1632272662      0.3710605288      1.3949172911     -0.3833306982     -0.0286157660     -0.3700461067      0.1637681677
H       0.5267547541      1.2092809685     -1.7221675321     -0.2156708313     -0.3530986035      0.4435924647      0.1621825321
H      -1.0985551132      1.7778377055     -1.3122951031      0.0100541835     -0.5553303861      0.3285821076      0.1216340582
H       1.7278528483     -1.2425851744     -1.1965495438     -0.0584457977      0.2078161763      0.1211020502      0.1144557100
H       2.4148801306      0.3551141038     -0.7460580184     -0.2279588073     -0.1582744753     -0.0169505326      0.1247099248
H      -0.1211757263      2.7677476227      0.8798428202      0.1753914445      0.0170189724     -0.2402885364      0.0678569484
H       1.5137310446      2.3533483283      0.2307877302     -0.3097254184      0.1025050205     -0.0085338604      0.0850779156
H       0.4587520386      3.4909971186     -0.6594414091     -0.0663353640     -0.3136809702      0.1259943245      0.0832114407
H       3.5172228014     -0.6534836298      1.2410879313      0.0368522864     -0.3258675488     -0.2171582870      0.0717982947
H       2.8472764145     -2.2751028093      0.7886416478      0.2729290803      0.2712231174     -0.0410572630      0.0632904882
H       4.0250384432     -1.4466840927     -0.2992311760     -0.2144570739     -0.0022598904      0.3847671439      0.1066687085
C       6.8687716114     -1.3563688226      1.7514907703      0.0544799324      1.2941872188     -0.2662087649     -0.2161787481
C       6.8814590351     -2.8507864253      1.8157122228     -0.0041628434      0.3267932973     -0.0069990471      0.8502666436
O       6.5936287484     -3.4180533484      2.8573498277     -1.2300461182     -0.5625134035      4.0386473043     -0.7535995924
O       7.1788461606     -3.5069176825      0.8304014127      1.0884782146     -0.9939387477     -4.0442777874     -0.7497705857
H       5.8511831943     -0.9826549588      1.9870259348      0.2477017311      0.0272484321      0.0807753702      0.0363479722
H       7.5865867755     -0.9445617032      2.4916418667     -0.2755277560      0.0163426796     -0.1219497642      0.0346421295
H       7.1549823781     -1.0044057428      0.7370638435     -0.0656312246     -0.0146058192      0.2667311570      0.0041621697
