37
Properties=species:S:1:pos:R:3:forces:R:3:charge:R:1 energy=-205.46623881244537 homo_lumo=3.2891596839704746 dipole="-1.3129597363541605 -0.9277176310110048 -1.3662281785774382" free_energy=-205.46623881244537
N      -0.2685140740      0.3256519871     -0.2103368629     -0.0009336354     -0.0250084982     -0.0014548191     -0.4846203519
C      -1.1750768593     -0.6943464732     -0.8561032906      0.0072030674      0.0032761424     -0.0059590562      0.0166433359
C      -1.1221739048      0.8863829910      0.9143123437      0.0000064635      0.0017505726      0.0016488671     -0.0398186650
C      -1.9099934534     -1.3666924088      0.3025131072      0.0030141513     -0.0012308217     -0.0016455967     -0.1535422839
C      -1.8856109379     -0.3241586213      1.4537301127      0.0070943912      0.0153425280      0.0171675597     -0.1453508337
C       0.9542246785     -0.3276633975      0.4157713866      0.0104968885     -0.0065596039     -0.0013875425     -0.0997406592
C       0.1061018121      1.3988003545     -1.2066354293      0.0068627902      0.0075031774     -0.0039615626     -0.0557157981
C       1.9559982397     -0.9254791168     -0.5541650388      0.0019986502     -0.0003427737     -0.0102269663     -0.2457254021
C       0.9675353699      2.4999244878     -0.6297829339      0.0095689001      0.0137417013      0.0125039197     -0.1089730403
C       3.1564667689     -1.4267823504      0.2570287181     -0.0054198257     -0.0047801062     -0.0034283220     -0.0689400279
H      -0.5781138433     -1.3689972096     -1.4827943235      0.0029798277     -0.0012297217     -0.0014511018      0.1245541118
H      -1.8704076736     -0.1304753925     -1.4961057465     -0.0049462984      0.0066420396     -0.0042779465      0.1137700706
H      -1.8034153774      1.6113858365      0.4422938874     -0.0028647411      0.0109922804     -0.0014380558      0.0937570388
H      -0.4408637419      1.3890899049      1.6418330759      0.0094752714      0.0084602598     -0.0023836011      0.2243758445
H      -1.4079161590     -2.2980139403      0.6009787385      0.0093260034     -0.0092990153      0.0029549301      0.0859534095
H      -2.9322295733     -1.6316823367     -0.0039543732     -0.0026507201     -0.0086780988      0.0074189850      0.0908426192
H      -2.8977929624     -0.0249847623      1.7604429558     -0.0027046749      0.0005069243      0.0078387620      0.0940694909
H      -1.3848213881     -0.7317287380      2.3436517970      0.0072123033      0.0021290563      0.0103075827      0.0916491697
H       0.5680552097     -1.0957539992      1.1021542281     -0.0029882253     -0.0021497371     -0.0062339982      0.1367376420
H       1.4688557222      0.4576786690      1.0149786796      0.0045106979      0.0031438761      0.0021258441      0.2923739169
H       0.6010818200      0.8835229878     -2.0437004143      0.0056543233     -0.0019504171     -0.0040889963      0.1251654334
H      -0.8552851296      1.7917984477     -1.5751977198     -0.0081844804      0.0011640837     -0.0063494175      0.1076804026
H       1.5293304881     -1.7483942169     -1.1554763658     -0.0048408934      0.0038916143     -0.0091059156      0.0690454910
H       2.3123431575     -0.1508140505     -1.2530233115      0.0100390968      0.0040808121     -0.0032040565      0.1091199806
H       0.4756762505      2.9957774360      0.2196113969     -0.0071468823      0.0110928755     -0.0022050953      0.0871537103
H       1.9303982678      2.1304545249     -0.2446346196      0.0011524514      0.0024385454      0.0132715390      0.1183407720
H       1.1492567091      3.2435779113     -1.4206841431      0.0053516328     -0.0077506486     -0.0052615880      0.0376779807
H       3.5691675324     -0.5954865670      0.8493853071      0.0003425911     -0.0083242626      0.0022221964      0.1023175134
H       2.8575002448     -2.2276120138      0.9518935266     -0.0077639892     -0.0133797752     -0.0060060408      0.0212229274
H       3.9386128441     -1.8252666161     -0.4053533850     -0.0050089932     -0.0039808525     -0.0076120869      0.0263379967
C       2.9456994212      2.7551936176      3.7824521437     -0.0098720134     -0.0001187226     -0.0004893873     -0.0956157872
C       2.1719236288      2.0979646753      2.6325012290     -0.0031635027     -0.0012146148      0.0014417327      0.9187879105
O       2.8568518735      1.5416696956      1.7178347139      0.0081189747     -0.0084873109      0.0008154983     -0.8482135546
O       0.9038765176      2.1609882091      2.6978931121     -0.0218638431      0.0035944337      0.0066479905     -0.8412775217
H       2.7189484445      2.2268803814      4.7215544832     -0.0069818838     -0.0012672971      0.0053601100      0.0372856892
H       4.0287966174      2.7274660358      3.6026693126     -0.0033310434      0.0015083911     -0.0024340072      0.0277951754
H       2.6135802877      3.7958408446      3.9128774956     -0.0097428305      0.0044929640     -0.0011203572      0.0348762927
