41
Properties=species:S:1:pos:R:3:forces:R:3:charge:R:1 energy=-223.11618178432627 homo_lumo=2.6911737228901487 dipole="-4.518671536087324 -2.619467988455219 3.2096476840970816" free_energy=-223.11618178432627
N      -1.3751709823      0.1785424910     -0.0743602787     -0.0058394261      0.1253447680      0.0381994510     -0.5249437792
C      -1.6450905278     -1.0160170076     -0.9327940846      0.1162190143     -1.8368003526     -1.5060612414     -0.0077965091
C      -2.4809154450      0.1903245200      0.9320395529     -1.6055041896      0.5674749674      1.6090921073     -0.0051223817
C      -0.0617308422      0.0226089847      0.6322878925      1.8213639101     -0.0770681783      0.3604089426     -0.0489013806
C      -3.0137207495     -1.5651541622     -0.5734044917     -0.6070781575     -0.0737836462     -0.5886907640     -0.1411694108
C      -3.2104164827     -1.1363647061      0.8529478397     -0.0497800094     -0.5135722587      0.6925185390     -0.1412821865
C      -1.4272017275      1.4198499648     -0.9125733491      0.1198156083      1.7681469231     -0.8078373135     -0.1017978724
C       1.1770098110      0.0294486869     -0.2975164292     -0.4639609669      0.1575588607      0.1094414271     -0.2344917474
C      -1.1525842412      2.7236482769     -0.1402700992      0.0875111868     -0.3069771797      0.1560243983     -0.1223445552
C       2.4412682223     -0.3553148341      0.4820944405     -0.1172179972     -0.0026505340     -0.1380710804     -0.1688949530
C       3.6834544886     -0.3246757471     -0.4152558745      0.1162455431      0.1429974963      0.0889311285     -0.2346030405
C       4.9337222916     -0.7237925552      0.3631624611      0.1284964312     -0.0725374502     -0.0369292477     -0.0842261847
H      -1.6065174890     -0.7912745281     -2.0234331036      0.2844551853      0.2729329918      0.5880783202      0.1534557568
H      -0.9126233580     -1.8367485245     -0.7545389832      0.0614114892      0.7519229311      0.1639210811      0.1571715947
H      -2.1262331592      0.3640951464      1.9735654714      0.2284442573      0.1300763867     -0.6397253686      0.1422294228
H      -3.2342472496      0.9836087324      0.7184349621      0.6871937102     -0.0722172370     -0.2524104478      0.1506511714
H       0.0714097920      0.8270683235      1.3892223396     -0.3932729805     -0.1139440110     -0.3840925886      0.1586977071
H      -0.0656830002     -0.9302334172      1.2110276909     -0.4012360558      0.2325455546     -0.3341686237      0.1438896231
H      -3.7906586828     -1.0994403603     -1.2193112052      0.1637184442     -0.2603954428      0.1305495819      0.1050795743
H      -3.0583381724     -2.6718436771     -0.6754315616     -0.0212451809      0.4575636418     -0.2087233900      0.1043348594
H      -2.7357183577     -1.8715617719      1.5398779153     -0.2576887057      0.1703812427     -0.1159832380      0.1042541514
H      -4.2891006032     -1.0329874610      1.1032160637      0.4708371035     -0.0542026021      0.1479974038      0.1030851314
H      -2.4302783847      1.5117613738     -1.3889900156      0.2131357316     -0.4997208408      0.3529481385      0.1475309520
H      -0.7040598024      1.3587136287     -1.7548903156     -0.0740214924     -0.3432927698      0.4301788969      0.1975774108
H       1.3253103642      1.0438861333     -0.7227188168     -0.0089130794     -0.2828381996     -0.0853331107      0.1837106923
H       1.0432224009     -0.6822697541     -1.1387761114      0.0181090271      0.2135997427      0.1151343108      0.1225261736
H      -1.8035910955      2.8178782298      0.7521836311      0.1635074338      0.0300653342     -0.2149308424      0.0580537618
H      -0.0914654486      2.7875339532      0.1736459918     -0.2999049740      0.0463704668     -0.0934953439      0.0985526709
H      -1.3553009421      3.5894606033     -0.8050485724      0.0827266629     -0.3478474285      0.1331251424      0.1069067301
H       2.3171692055     -1.3788924861      0.8992710134      0.0218197039      0.1934082771      0.0669066587      0.0711144066
H       2.5822886340      0.3558965436      1.3258245485     -0.0112092289     -0.2203822905     -0.0858435606      0.0861197603
H       3.5501840675     -1.0265558575     -1.2674400592     -0.0528300617      0.3240958488      0.1048364548      0.0967709599
H       3.8282221841      0.7002852189     -0.8195328470     -0.1707355361     -0.3226488642     -0.1711688261      0.1768849043
H       5.8168540337     -0.6949292675     -0.3087673611     -0.1915180783     -0.0133490647      0.2849315737      0.0659839961
H       5.1048388180     -0.0187346427      1.2043582164      0.0430755265     -0.2554880367     -0.1827462892      0.0356417013
H       4.8263642299     -1.7541180732      0.7644468560      0.1325526394      0.2549621436     -0.0057686887      0.0205901376
B       3.6579166035      3.0305273004     -3.6586481097      0.4267116595      0.4616419963     -0.4255401498      1.2810528293
F       4.9643937666      3.2289208037     -3.1375282282      0.0973892457     -0.0754163795      0.1792329646     -0.5598036992
F       3.0957165696      1.8544610112     -3.0961148588     -0.3996387700     -0.5969177145      0.4377512851     -0.5777665049
F       3.7273880221      2.8916984776     -5.0703861885     -0.0667651910     -0.0962194411     -0.0949759666     -0.5551174605
F       2.8432436018      4.1470679569     -3.3319540201     -0.2863794327      0.1371803488      0.1822882752     -0.5636044136
