57
Properties=species:S:1:pos:R:3:forces:R:3:charge:R:1 energy=-311.69973359331175 homo_lumo=5.554205170603675 dipole="-1.6658851195389586 -0.5197634619930898 -2.692178254531222" free_energy=-311.69973359331175
N      -0.5425447952      0.6845062952      0.2516366801     -0.0605085677      0.2125245585     -0.2531548593     -0.4942824727
C      -0.6473721621      1.7227784993      1.3395301047     -0.2694240201     -0.0031566435      0.6146356121     -0.0684536106
C      -1.8087921244      0.7024106869     -0.5503498209     -0.5744116323     -0.2913723893      0.1613907894     -0.0007929036
C       0.5743615288      1.0809415015     -0.6840969542      0.6449768137     -0.1757427303      0.1704751894     -0.0109744144
C      -0.2742263548     -0.6579784229      0.8688633915      0.0292820563     -0.5449653151     -0.4172611663     -0.0906951833
C      -1.8811061191      1.5625906765      2.2155743289     -0.1983753955      0.0552416084     -0.5284814292     -0.1685676573
C      -3.0535481965      0.4790725977      0.3008537578      0.2327465736      0.4764574969     -0.0224275884     -0.1622330592
C      -3.1593456698      1.5523259369      1.3835847400      0.2842382966     -0.3789671185      0.0329299440     -0.1437300309
C       1.9768158682      0.9549135308     -0.0931588264     -0.3756999963      0.3153889855     -0.4737954953     -0.2649442118
C      -0.1851474495     -1.8214701178     -0.1131290394      0.0297428141      0.1983071770      0.5775147777     -0.2116978417
C       2.9821995472      1.7408340156     -0.9413311470      0.0923378206     -0.3852828818      0.6200490929     -0.1492412611
C       0.2655196824     -3.0715425886      0.6546475061     -0.1546729420      0.0584393635     -0.7852546927     -0.1623477610
C       4.3568855843      1.7349031493     -0.2643543087     -0.0999406674      0.3198658306     -0.6069491047     -0.2087277405
C       0.3833047492     -4.2808609405     -0.2771599037      0.1161468417     -0.0093504845      0.6630839419     -0.1992150712
C       5.3897234253      2.4927280451     -1.0950328199     -0.1914804266     -0.2583079629      0.3210008651     -0.0445460436
C       0.8471748143     -5.5203738750      0.4855250532     -0.1452270954      0.2702550348     -0.3746539829     -0.0474791591
H      -0.6612968861      2.6976219335      0.8449791887      0.0444746775      0.2065751771     -0.1974666140      0.1028190469
H       0.2473317400      1.6473718875      1.9540586229      0.1453106359      0.0605310283     -0.0751732043      0.2662453309
H      -1.7264404616     -0.0594666280     -1.3277132121      0.1203087927     -0.1235675598     -0.1927796303      0.1301632367
H      -1.8615004049      1.6840894651     -1.0303343045      0.0604335847      0.2352501913     -0.1049290383      0.1257467254
H       0.3791336199      2.1185951277     -0.9685424900     -0.1159744652      0.2243939820     -0.0229997703      0.1250061693
H       0.4815981553      0.4618507677     -1.5802386014     -0.1121537471     -0.1201713789     -0.2066657755      0.1169550695
H      -1.0624129962     -0.8507164386      1.5965129065     -0.0485411634      0.0447207060      0.1556811412      0.1783513641
H       0.6624780083     -0.5636660888      1.4164343803      0.0340391362      0.0892617296      0.1063180697      0.2573147066
H      -1.8844631081      2.4066384406      2.9094616934      0.0855577719      0.1239767621      0.2228651359      0.1240825434
H      -1.8099252450      0.6521888869      2.8135532533      0.0828371388     -0.1154219221      0.2208806432      0.1239265386
H      -3.0353798260     -0.5156970895      0.7532306078     -0.0337244902     -0.2979770983      0.0826532360      0.1035931650
H      -3.9193645413      0.5268018458     -0.3649925605     -0.2204647432     -0.0918248992     -0.2121809305      0.0947751223
H      -3.3089731421      2.5304412018      0.9143291065     -0.0940957604      0.2801585593     -0.1346797531      0.0747356765
H      -4.0198020272      1.3463130016      2.0239785612     -0.2793439698      0.0377162904      0.1544116763      0.0808762036
H       2.0008384054      1.3475383954      0.9228221453      0.0399476404      0.1005353832      0.1888200455      0.2385567134
H       2.2792984444     -0.0943297612     -0.0545058736      0.0848811744     -0.2690572737      0.0437690599      0.1023206253
H      -1.1564241995     -2.0134155331     -0.5788050202     -0.2369015440     -0.0960928233     -0.1700719875      0.0891144568
H       0.5361349756     -1.6094292106     -0.9067054717      0.1945952853      0.0219330821     -0.2333570989      0.1051466157
H       2.6368725473      2.7744513417     -1.0532434311     -0.0657153458      0.2879917131     -0.0489765367      0.0804123345
H       3.0520712622      1.2994476245     -1.9418523619      0.0539717462     -0.0583330140     -0.3238769399      0.0664512058
H       1.2335685295     -2.8750308185      1.1258979455      0.2270742160      0.0411945305      0.1950282942      0.1153768049
H      -0.4553468334     -3.2877259328      1.4495166912     -0.1324918499     -0.0650870696      0.2704782674      0.0940398379
H       4.6881077523      0.7008988514     -0.1237412076      0.0508084663     -0.2680520849      0.1133925968      0.0827512583
H       4.2689669047      2.1969382177      0.7237008170     -0.0657472155      0.0321859889      0.2852930302      0.1216294760
H       1.0970139797     -4.0555700878     -1.0769976163      0.1377482253      0.0807745754     -0.2469419853      0.0795810600
H      -0.5886092443     -4.4792747389     -0.7421242532     -0.2357549889     -0.0164977880     -0.1791841627      0.0764873243
H       6.3530450950      2.4857163145     -0.5852466177      0.3510168479      0.0697076777      0.0693693726      0.0361111028
H       5.5112933341      2.0279801849     -2.0748321697      0.0811857472     -0.0982877466     -0.3228888274      0.0202433001
H       5.0804161677      3.5290365209     -1.2382318859     -0.0472487565      0.3297330175     -0.0680038980      0.0273569804
H       0.9260803164     -6.3686852358     -0.1943557196      0.0598934435     -0.3433779420     -0.1186822097      0.0327957120
H       1.8231421073     -5.3455508273      0.9394484701      0.2915479056      0.0073400236      0.1689216855      0.0380566148
H       0.1371981902     -5.7710169543      1.2745305636     -0.1786756286     -0.1124928593      0.2621644257      0.0336591236
N       2.1822878076      1.2024142552      4.7908264658     -0.0180207723      0.0568830527     -0.1031729940     -0.8451347150
S       1.8534735330      2.5822984783      4.0771493329      0.1044450828      0.0721791070      0.5614321698      1.9482300773
S       1.6247476957     -0.1105662255      4.1170275136      0.1946915146     -0.2141870945      0.3040345365      1.9465237197
F       0.2212540868      2.7084268473      4.1521221297     -0.6193708036      0.0589064200      0.1609504776     -0.4785042907
F       2.4228049363     -0.2271168631      2.6737122031      0.4682109936     -0.0334536223     -0.4626814965     -0.4898286612
O       2.3356700919      3.6390077614      4.8941612457      0.5051317957      1.2053990939      1.0287008969     -0.7132439390
O       2.1033412272      2.6365280970      2.6617709410      0.1515273341     -0.1180766614     -1.4130623181     -0.7839918281
O       0.2496591726     -0.0816182806      3.6882117741     -1.0808506480      0.2152911436     -0.3006201159     -0.7833169759
O       2.0792756870     -1.2380530248      4.8532055776      0.6557062622     -1.3000149267      0.8441286322     -0.7174864109
