40
Properties=species:S:1:pos:R:3:forces:R:3:charge:R:1 energy=-223.26169771707845 homo_lumo=3.787793008901166 dipole="-1.4744721898323676 -2.6441451619336647 -0.6217964286395633" free_energy=-223.26169771707845
N      -0.0732367196      0.6092040063     -0.0053274134      0.0020556637      0.0050963739     -0.0027188647     -0.5123326447
C      -0.9145548244      1.5771364052     -0.8324742121      0.0001959024     -0.0106366783      0.0066260311     -0.0172320389
C      -0.6177726353     -0.7920040019     -0.1515730488     -0.0009225062      0.0034097093      0.0075898177     -0.0010986706
C       1.3448311817      0.6840678985     -0.5685612675     -0.0080727648     -0.0117728920      0.0023828898     -0.0412790424
C      -2.3968561108      1.4934010607     -0.5112462372     -0.0000217558      0.0056012221     -0.0120303651     -0.1720506085
C      -2.0968164072     -0.8947651601      0.1891975004     -0.0040906867      0.0079471786     -0.0098652665     -0.1612093029
C      -2.9297781474      0.0681740160     -0.6557882468      0.0032664818      0.0063007014      0.0028420986     -0.1641537039
C      -0.0581846035      1.0441188259      1.4332980533     -0.0069241396     -0.0182359283     -0.0037859454      0.0255485791
C       2.3841573586     -0.1370641940      0.1726146039     -0.0014543444      0.0121962356     -0.0057094653     -0.2234783194
C       3.6949676821     -0.1394089181     -0.6199740678     -0.0049561406     -0.0038993377      0.0048454769     -0.2024953818
C       4.8196524475     -0.8214729825      0.1513134125      0.0122904230      0.0028583739     -0.0168001348     -0.0668808654
H      -0.7327978094      1.2908354704     -1.8820099567     -0.0069562369      0.0074714598      0.0109142295      0.1118993566
H      -0.4860207614      2.5763524217     -0.6464024498      0.0044763010      0.0004391788      0.0132103922      0.1914561899
H      -0.0115127275     -1.4437070014      0.4920914622     -0.0055335350      0.0055668876     -0.0127959374      0.1393225261
H      -0.4414098229     -1.0758427722     -1.2022807806     -0.0139167385      0.0024354074     -0.0037427263      0.1226810619
H       1.5974558878      1.7599087157     -0.5211890603     -0.0030851102     -0.0072056119     -0.0020240564      0.2265041659
H       1.2568844921      0.3583622032     -1.6182655722     -0.0062801785      0.0005635753      0.0086690481      0.0940638545
H      -2.9142577464      2.1780815775     -1.2038699523      0.0070234166     -0.0014037264      0.0100648260      0.1143491559
H      -2.5936451227      1.8824122383      0.5015293951     -0.0002399617      0.0037770791      0.0054931628      0.1049691811
H      -2.2544772336     -0.6976942517      1.2631953090     -0.0028550822     -0.0047694653     -0.0065576588      0.1021539361
H      -2.4034880613     -1.9403933504      0.0173121583      0.0035525366      0.0147198506     -0.0045849020      0.1051429232
H      -3.9900354158      0.0165178938     -0.3609096691     -0.0007854791      0.0035674125     -0.0117345194      0.0876397265
H      -2.8733058631     -0.2378289001     -1.7170488313     -0.0020889632      0.0052508206     -0.0038653472      0.0872759185
H      -1.0844139768      1.0738635616      1.8116979156      0.0105071817      0.0056623148     -0.0046500541      0.0837580677
H       0.5317900730      0.3206642602      2.0079403616     -0.0233568229      0.0011444144     -0.0074267513      0.0701901246
H       0.4055498567      2.0463817227      1.4462559639      0.0037669413     -0.0005996786      0.0040365276      0.1916782132
H       2.0620146097     -1.1822003125      0.3249725344      0.0054721539      0.0049752053      0.0017127046      0.0873236581
H       2.5782940175      0.3122825079      1.1596211956     -0.0017164847     -0.0020015094     -0.0074726314      0.1412528330
H       3.9783641333      0.9030161093     -0.8392456464      0.0022115844      0.0058794611     -0.0056905559      0.1304021986
H       3.5368028509     -0.6452667669     -1.5899600942      0.0028573466      0.0017341981     -0.0013042947      0.0730524917
H       4.5645995974     -1.8666288920      0.3903213662     -0.0019793073     -0.0071195476     -0.0003172937      0.0244137601
H       5.0127948077     -0.2920192465      1.0974451122      0.0098859179      0.0031506183     -0.0034881065      0.0489864643
H       5.7520949841     -0.8246986445     -0.4316642236      0.0120269622     -0.0030460916      0.0065691358      0.0423888873
C       1.8883752607      4.3690666213      0.8472566302     -0.0027393064      0.0100761709      0.0019047524      0.9120021783
O       1.0673158492      3.5427418858      0.3323909047     -0.0028971063      0.0021758041     -0.0164940549     -0.8637490919
O       1.8552989794      5.5958194277      0.9620803514      0.0032640001     -0.0124489009      0.0040668739     -0.7166220916
C       3.1653108970      3.6480951685      1.4165762933     -0.0048790453     -0.0069002971      0.0096559345      1.2390765247
F       3.9014488459      3.0596994097      0.4033642558      0.0008086973     -0.0078681398      0.0073646812     -0.4810125402
F       2.8332831046      2.6152532323      2.2834056295      0.0126873755     -0.0178015914      0.0099378891     -0.4860772696
F       4.0126883685      4.4567786581      2.0939115965      0.0094028104     -0.0062902573      0.0251724600     -0.4478604053
