32
Properties=species:S:1:pos:R:3:forces:R:3:charge:R:1 energy=-181.91909056959042 homo_lumo=0.000941567542342678 dipole="3.4374601363846176 -2.3775044272832293 -0.33363858645023475" free_energy=-181.91909056959042
N       1.1099047533     -0.0053491962      0.5432805013      0.1973781247      0.0051099258      0.3841139118     -0.5311455417
C      -1.2485285538     -0.0091090956     -0.1392950555     -0.1465285883     -0.0378681791      0.0628007471     -0.1962911072
C      -0.2710833765     -0.0186478936      1.0402059080     -0.8052955387      0.0378387705      0.1333995375     -0.0190757229
C      -2.7025691221     -0.0417276311      0.3401011229      0.0019557260      0.0881579455      0.0419258950     -0.2382841681
C      -3.6692639895      0.0013500588     -0.8397487142     -0.1506676757     -0.0313816970     -0.0653945960     -0.0876891617
C       1.7360770384      1.1885805345      0.3075606732      1.1336224953     -0.0095396320     -0.5208588270      0.2405134252
C       1.7430493761     -1.1868898553      0.2674989551      1.1483849680      0.0268291046     -0.5433437710      0.2367111542
C       3.0279712035      1.2187031521     -0.2225675746     -0.9097151608     -0.4482531723      0.3253585796     -0.0153239495
C       3.0348851530     -1.1918157333     -0.2631678148     -0.8987549244      0.4157689628      0.3342275764     -0.0165121542
C       3.6774296895      0.0197825171     -0.5116166219      0.1338863131     -0.0199291612     -0.0663310124      0.0217096942
H      -1.0533252915     -0.8955198391     -0.7820306478      0.0594999687      0.2086576894      0.0408433834      0.1015703395
H      -1.0768382368      0.9086811269     -0.7440860451     -0.0276560515     -0.2312609154      0.0866174922      0.1273692966
H      -0.4451892122     -0.9211755930      1.6682689399      0.3261529412      0.2364271492     -0.2328228433      0.1201789488
H      -0.4553172918      0.8663455352      1.6902172590      0.2737532590     -0.2337706851     -0.2700615092      0.1452958851
H      -2.8858702073     -0.9681990353      0.9260966991      0.0959848940      0.1678077446     -0.0266749503      0.0732636518
H      -2.8991108077      0.8287503530      0.9982903601      0.0284986193     -0.1052290265     -0.0728780110      0.1722152233
H      -4.7146578850     -0.0011031750     -0.4659246333      0.2858881226      0.0495178171     -0.2234873860      0.0672823786
H      -3.5086172153      0.9238923805     -1.4379576390     -0.1399677024     -0.2804412619      0.1639461465      0.0649630203
H      -3.5206957056     -0.8873909436     -1.4894779014     -0.0989623000      0.2508819956      0.0693976261      0.0254964339
H       1.2336477570      2.1261952845      0.5149167706     -0.4863195326     -0.1163728104      0.2102194697      0.1142420848
H       1.2460486135     -2.1337723218      0.4432920481     -0.4562797622      0.1166482662      0.2107725559      0.0982004605
H       3.5164928075      2.1646688434     -0.4169060913     -0.0160289486      0.2977083230      0.0220768339      0.0624890534
H       3.5285438385     -2.1280313575     -0.4890901509     -0.0025085402     -0.3020234950      0.0112900606      0.0579836915
H       4.6738231420      0.0296026276     -0.9333444725      0.2823477903     -0.0031001104     -0.1051388025      0.0530454352
S      -4.2431062421      4.4673959409      1.4067569103     -1.7006791545     -6.9040495665     -7.0203358130      1.6233597013
O      -5.6120540834      3.7719584618      1.4413920933      1.2190264950      2.3087434637      1.8526214066     -0.7002747391
O      -4.1228353297      4.9369502339     -0.0503908623      0.3429693617      1.6308259001      2.6969184398     -0.7028954389
O      -3.2561280334      3.2949494283      1.4735919975      0.1408315689      2.2483475101      1.8166940474     -0.7543065007
C      -3.9816059813      5.7467022125      2.6651410131      0.0923655575      0.9710482145      0.9459400391      1.1312165322
F      -4.1143028136      5.1882674908      3.9222224584      0.1839630261      0.7095410843     -0.9436597393     -0.4255006604
F      -4.9168204122      6.7510601602      2.5052173894      0.9498855741     -0.7859122972      0.3451312760     -0.4217546164
F      -2.7111821864      6.2725650232      2.5271733367     -1.0570309257     -0.2607278569      0.3366922360     -0.4280526493
