32
Properties=species:S:1:pos:R:3:forces:R:3:charge:R:1 energy=-184.76685020167898 homo_lumo=1.1948011307951931 dipole="1.224765773307705 -0.056562404818628724 -2.049527794826695" free_energy=-184.76685020167898
N      -0.9642150607     -0.1238630594      0.6701253762     -0.0085072103     -0.0003426572      0.0008115801     -0.5040645658
C      -2.1849774599      0.1341882441     -1.4813497668      0.0136099397     -0.0019407097     -0.0010608758     -0.1686748220
C      -2.2963932607      0.0272886270      0.0337977905     -0.0050715304     -0.0003748363      0.0016713676     -0.0397953165
C      -3.5582439240      0.2925463071     -2.1360608203      0.0057012448     -0.0011522122      0.0048547708     -0.2183179572
C      -3.4598652423      0.3990784509     -3.6557095726      0.0071583001     -0.0004797788      0.0005806435     -0.0684423139
C      -0.2783480061      0.9805129804      1.0322248024     -0.0048818146     -0.0009341868      0.0020260009      0.2884678914
C      -0.4933779856     -1.3559395234      0.9533561820     -0.0036492404      0.0016620969      0.0000389087      0.2887922494
C       0.9462516121      0.8723752292      1.6626269744     -0.0049703023      0.0074726423     -0.0093141818      0.0035826214
C       0.7258801111     -1.5141612301      1.5838872984     -0.0059027362     -0.0083881238     -0.0116626441      0.0016475489
C       1.4560258867     -0.3886665480      1.9474419346      0.0047633436     -0.0007294989     -0.0086478275      0.0524461639
H      -1.6858766234     -0.7665881055     -1.8834470065      0.0144587909     -0.0074034823      0.0117154447      0.0998818586
H      -1.5478377712      0.9967321752     -1.7495325576      0.0151087205      0.0019099205      0.0120441424      0.1012073019
H      -2.8929219003     -0.8338646769      0.3653699827      0.0010325212     -0.0049575333      0.0028860181      0.1499537332
H      -2.7528788160      0.9122756532      0.5016660627     -0.0017610163     -0.0006836184      0.0047619054      0.1562374400
H      -4.1965716030     -0.5663359423     -1.8629395286      0.0167668768     -0.0050124851      0.0106553160      0.1001146185
H      -4.0568606043      1.1908442336     -1.7304970328      0.0186793598      0.0002787096      0.0117622205      0.1007820125
H      -4.4552753574      0.5148164270     -4.1096842560      0.0050860516      0.0007477022     -0.0022113523      0.0490800874
H      -2.8502807198      1.2672380429     -3.9527905819      0.0004395404     -0.0013384116     -0.0020213952      0.0385376338
H      -2.9946921541     -0.5024215114     -4.0860811449     -0.0009322788      0.0012671800     -0.0025913086      0.0381506867
H      -0.7597868457      1.9324033625      0.8248752855     -0.0168341667      0.0008324017      0.0186773940      0.1052095285
H      -1.1397865111     -2.1884579429      0.6885487065     -0.0153191920      0.0003538384      0.0116402970      0.1034045020
H       1.4680505512      1.7796144494      1.9636091784     -0.0080158127     -0.0036789692      0.0037185038      0.0589919649
H       1.0712993975     -2.5189991057      1.8228715987     -0.0077232740      0.0023020391     -0.0001300226      0.0592195333
H       2.4017506298     -0.4932785078      2.4815344372     -0.0086072600     -0.0001957882     -0.0161515164      0.0602270829
S      -2.2761171903     -0.0715294548      3.5534524238     -0.0038243590      0.0067040811     -0.0201819329      1.7398980213
O      -0.9136787035     -0.2552434370      4.0815296737     -0.0090957404      0.0078937956     -0.0199503628     -0.7831687917
O      -2.8181760327     -1.2324928830      2.8092444341     -0.0102480219      0.0098494735     -0.0003448214     -0.8045937564
O      -2.5174005456      1.2351775148      2.8952107695     -0.0155979855     -0.0041476686     -0.0013989639     -0.8061052465
C      -3.3529726499      0.0054796272      5.0872252826      0.0052742450      0.0008685791     -0.0018256435      1.1289002290
F      -2.9765435578      1.0297387491      5.8974086163      0.0101183828      0.0025251525     -0.0019246194     -0.4434035453
F      -3.2596686718     -1.1477619437      5.8005814771      0.0120369829     -0.0017284743     -0.0012169166     -0.4432942974
F      -4.6602165664      0.1909728341      4.7593032188      0.0007076413     -0.0011791779      0.0027898712     -0.4448720969
