32
Properties=species:S:1:pos:R:3:forces:R:3:charge:R:1 energy=-184.76132184721632 homo_lumo=1.7416272059843871 dipole="0.8168808455858425 2.2204741979849136 0.9614678146269994" free_energy=-184.76132184721632
N       0.9827875452     -0.2822844462      0.5070824055      0.0036594671     -0.0018778118      0.0005800417     -0.4996466870
C      -1.4174114539      0.0810085394      0.0104207330     -0.0050378724     -0.0134988958      0.0033517960     -0.2205174360
C      -0.3630978435     -0.0943164338      1.0991106972     -0.0027035814     -0.0003660556     -0.0027916470     -0.0132193248
C      -2.8315706870     -0.0058653753      0.5804322893     -0.0034956124     -0.0041146850     -0.0241255197     -0.2220160235
C      -3.8828138642      0.1265557517     -0.5190680765      0.0222306471      0.0043807066     -0.0076530043     -0.0692606585
C       1.6226634971      0.7855856522     -0.0349831837      0.0012648738      0.0018554941     -0.0011318396      0.2626018915
C       1.4785611771     -1.5298368706      0.3753044474      0.0046802359      0.0068090787      0.0025725925      0.2962520948
C       2.8293295687      0.6268638857     -0.6743855624      0.0061393081      0.0079562254     -0.0022293372     -0.0342528583
C       2.7089696693     -1.7337870598     -0.2439563529      0.0029585087     -0.0034662554     -0.0027431940      0.0024323683
C       3.3894638164     -0.6554324827     -0.7739588628      0.0060628705      0.0038193691     -0.0017446168      0.0349188724
H      -1.2632414418     -0.7099985377     -0.7414906049      0.0009511303     -0.0000570606     -0.0048427375      0.2059356141
H      -1.2705289426      1.0527814893     -0.4954938503      0.0021177615      0.0080756309     -0.0123120933      0.0861813936
H      -0.5699028763     -0.9928050366      1.6963171490     -0.0055563303     -0.0023848302     -0.0041405989      0.1410397366
H      -0.3084442712      0.7708610131      1.7785218963      0.0029542562      0.0039329674      0.0014867549      0.1015379994
H      -2.9500736031     -0.9822146655      1.0813997595     -0.0046526623     -0.0046402996      0.0012736105      0.1111235521
H      -2.9845924278      0.7733737376      1.3490098082      0.0017562830      0.0116225780      0.0050595060      0.0741056516
H      -4.8994538341      0.0411603187     -0.1089338977     -0.0119751521      0.0002740944      0.0042808425      0.0385764433
H      -3.8014920741      1.0988056022     -1.0312806214     -0.0044995521     -0.0018748939     -0.0022738766      0.0291517493
H      -3.7498408106     -0.6661426124     -1.2705524734     -0.0064834649     -0.0023798279     -0.0064380799      0.0633466325
H       1.1248823173      1.7469143353      0.0767051129      0.0099199513     -0.0048584366      0.0000680407      0.0902783819
H       0.9265317011     -2.3502925222      0.8265590041     -0.0005234856      0.0098401186     -0.0084257816      0.1434816691
H       3.3287726688      1.4992619199     -1.0945252062      0.0003350407      0.0027156022      0.0015470736      0.0525628311
H       3.0597038589     -2.7618602083     -0.3312472510      0.0055246074      0.0040331216      0.0017195152      0.0789714569
H       4.3479188071     -0.7987296224     -1.2758238897     -0.0096789184      0.0062025380     -0.0099521372      0.0564403021
S      -0.0359079851     -3.7510585215     -1.3577567112      0.0025275548     -0.0057765356      0.0165395113      1.7582131650
O       0.1037963761     -2.2742490882     -1.5345438114     -0.0162586010     -0.0192228472      0.0083731888     -0.7924658357
O       0.9560190661     -4.3166725547     -0.4236036729     -0.0172258702      0.0087528696      0.0053705617     -0.7934203380
O      -0.3289799351     -4.4960797462     -2.5764594385      0.0102405316     -0.0106126254      0.0178434701     -0.7411034573
C      -1.6320094859     -3.8671690813     -0.3643290934     -0.0060428897     -0.0048170168      0.0144637695      1.1278354072
F      -2.6726121373     -3.2607633872     -0.9977396495      0.0126899175     -0.0066592586      0.0039620403     -0.4537596759
F      -1.4909956268     -3.2377445007      0.8583386613      0.0031123260     -0.0011725741     -0.0096356258     -0.4801861479
F      -1.9780356075     -5.1496398361     -0.1158305392     -0.0049912786      0.0075095154      0.0119477740     -0.4351387701
