70
Properties=species:S:1:pos:R:3:forces:R:3:charge:R:1 energy=-378.74748736760563 homo_lumo=5.354792641969274 dipole="-3.896151087807776 -0.42220783287138086 0.7553937485165217" free_energy=-378.74748736760563
N       2.9063734633      0.3208543658      0.4442648465     -0.0047304232     -0.0003430380     -0.0015704334     -0.4882424387
C       4.0160597859      0.2735618403      1.4829215334     -0.0015240125     -0.0016265762     -0.0054365410     -0.0482918843
C       3.2298802859      1.6178832603     -0.2810341969     -0.0027655943      0.0014794247      0.0005893893     -0.0233889731
C       2.9676967050     -0.8432480784     -0.5157822011      0.0029323691      0.0001441180     -0.0043032281     -0.0555412857
C       1.5700494101      0.4110393111      1.1516940207      0.0003361553     -0.0008367132      0.0093358937     -0.0245098011
C       4.1549192941      1.7110330492      1.9787151526      0.0092071217      0.0059096870      0.0021563801     -0.1641966869
C       3.6386121292      2.5978242620      0.8153727248     -0.0055502164     -0.0046348534      0.0039986774     -0.1731275682
C       2.8269316667     -2.2072165970      0.1318151567     -0.0057551779      0.0013475663     -0.0043435560     -0.2162885315
C       0.3530920074      0.3982560017      0.2429497397     -0.0064034579     -0.0050171408     -0.0083093354     -0.2192680198
C       2.9693811332     -3.3021876179     -0.9286551663      0.0036289298     -0.0027198959      0.0084895668     -0.1745801122
C      -0.9183064688      0.7177381871      1.0327054503     -0.0042024052      0.0049559799     -0.0051832727     -0.1622727197
C       2.8885758354     -4.7056135256     -0.3315348552      0.0030174338      0.0045804462     -0.0231283148     -0.2083650208
C      -2.1689288204      0.6863033850      0.1546360977     -0.0035390227      0.0038960083      0.0181859320     -0.2087232440
C       2.9860509685     -5.7972371844     -1.3941364260     -0.0003439430      0.0086968436      0.0110532574     -0.0689996589
C      -3.4440764632      1.0081840562      0.9289253720      0.0087506612     -0.0048092965     -0.0098711696     -0.0694364608
H       4.9242803119     -0.0478672259      0.9575689127     -0.0015218500      0.0037950278      0.0045582798      0.2427812596
H       3.7536650443     -0.4585589272      2.2568098778      0.0065122051      0.0043926333     -0.0014151325      0.0954169892
H       2.3685233299      1.9197194730     -0.8892526884      0.0046754123      0.0012733301      0.0039172543      0.1059045597
H       4.0853441008      1.3904984420     -0.9318726117     -0.0044346633      0.0071533846      0.0000569773      0.2093470978
H       3.9402006083     -0.7632462348     -1.0151824756     -0.0032303278      0.0010795847     -0.0041803960      0.2235211036
H       2.1854123039     -0.6723508816     -1.2701374147     -0.0000371073      0.0065263995      0.0025734395      0.1243832326
H       1.5994710029      1.3383132401      1.7407703012      0.0023073669     -0.0025615014      0.0023637913      0.1749650593
H       1.5353768296     -0.4320249476      1.8575708935      0.0024592909      0.0020961638     -0.0039153321      0.1324596626
H       5.2104006630      1.9108440904      2.2026435048     -0.0060939072     -0.0006456583     -0.0026543444      0.1711483566
H       3.5744278743      1.8796967012      2.8981374117     -0.0013091744      0.0079430102     -0.0008395819      0.0662662092
H       2.7944020141      3.2277629048      1.1334846821      0.0028566194      0.0027483007      0.0080317699      0.0707494831
H       4.4276685719      3.2572116477      0.4314622801      0.0040288646      0.0015072484     -0.0013390611      0.1512552982
H       1.8520375381     -2.3162100840      0.6391906735     -0.0040203289      0.0036208411      0.0012632219      0.0950248025
H       3.6159421169     -2.3457883857      0.8894121232      0.0030219477      0.0016274664      0.0060367812      0.1237595608
H       0.2389477923     -0.5891801577     -0.2346429641      0.0020611365      0.0005767807      0.0011770090      0.1166773902
H       0.4631011400      1.1393353032     -0.5664406736     -0.0023770882      0.0019701736     -0.0033907010      0.1161612765
H       3.9370859300     -3.1778527432     -1.4470262994      0.0011522709     -0.0009684690     -0.0060209581      0.1336546270
H       2.1802876004     -3.1812861474     -1.6937922414     -0.0073729709      0.0014017145     -0.0051170183      0.0834227803
H      -0.8214177497      1.7164010701      1.4972234965     -0.0024753561      0.0017622384      0.0051232602      0.0928015970
H      -1.0331671559     -0.0048558812      1.8615298438     -0.0027557481     -0.0036171462      0.0071923654      0.0934818341
H       1.9405658210     -4.8117736535      0.2271871317     -0.0101782400     -0.0027502571      0.0065911226      0.0786540726
H       3.7031758232     -4.8281749524      0.4042425441      0.0038290581     -0.0057029326      0.0084001192      0.0934716437
H      -2.2581134833     -0.3115489471     -0.3110548480     -0.0055760806     -0.0091824089     -0.0053237838      0.0907972948
H      -2.0442510333      1.4068407391     -0.6734895253     -0.0039075073      0.0029383142     -0.0101370759      0.0910749483
H       2.9385829020     -6.7996939958     -0.9429942262      0.0007146340      0.0007312254      0.0010441379      0.0424465566
H       2.1620095756     -5.7139344176     -2.1206386163     -0.0000897550     -0.0002226626     -0.0023331633      0.0338547090
H       3.9337197270     -5.7198453725     -1.9497339157      0.0019784283     -0.0002780134     -0.0024331375      0.0475838652
H      -4.3257962419      0.9828387853      0.2713343098      0.0030221288      0.0006217107      0.0062151040      0.0479469078
H      -3.6085151914      0.2818837588      1.7404120464      0.0024562369      0.0005625179      0.0065612134      0.0390844867
H      -3.3897816369      2.0112850704      1.3809418100      0.0025165564      0.0042288282      0.0044778153      0.0393451114
P       7.7589377917      0.9868057797     -0.5457278273     -0.0059041964     -0.0160495902      0.0120050097      1.7526024814
F       6.3348868348      1.8666429287     -0.7949652332      0.0039804074     -0.0062581807     -0.0028378754     -0.5442834416
F       8.3406209140      1.3535666192     -2.0491277810      0.0072884830      0.0007886637      0.0044632726     -0.5046173517
F       7.1518845546      0.5822776498      0.9751045280      0.0051097285      0.0090041718     -0.0088255507     -0.5311237983
C       8.4849724861      2.7186492131      0.0682460897      0.0057172720      0.0013662964      0.0155152371      0.5158535572
C       6.7474104263     -0.5689175444     -1.4310262852      0.0059708368     -0.0048640211     -0.0044742556      0.4751102790
C       9.3083631508     -0.2276786002     -0.1296908773     -0.0015854972     -0.0087895409      0.0002340435      0.5297348666
C       8.0007900328      3.3629147729      1.4030828875      0.0018020311     -0.0152067855      0.0051375542      1.3685365967
C       7.3461757848     -1.5756613427     -2.4788830800     -0.0150186262      0.0027337624     -0.0024913894      1.3867565828
C      10.4505678422      0.0158683230      0.9163059149     -0.0182498877     -0.0051409788      0.0004918222      1.3888649662
F       8.1942109382      3.6736978506     -0.8842866402      0.0035747312     -0.0006385301     -0.0023194386     -0.4375432938
F       9.8563469061      2.6712986639      0.1585949759     -0.0052073697     -0.0016692907     -0.0051967419     -0.4497195008
F       5.7066371297     -0.0040835426     -2.1699393510      0.0019461869     -0.0010024470     -0.0081567232     -0.4633804065
F       6.1260008396     -1.3781623560     -0.4822145558      0.0006336911     -0.0070963739      0.0036586475     -0.4697806996
F       9.9655120677     -0.5401563238     -1.2970144835      0.0187742129     -0.0098326069     -0.0143930797     -0.4423584594
F       8.7062660361     -1.3860584879      0.3335992939      0.0054992743     -0.0187607685      0.0071618881     -0.4477587958
F       8.6720256695      4.5276637522      1.6107315890      0.0117295299      0.0168047551     -0.0006490402     -0.4462989103
F       8.2035530407      2.5773387596      2.4828358592     -0.0070366609      0.0142298308      0.0126790607     -0.4482500309
F       6.6732193443      3.6682252219      1.3507950291     -0.0116777754      0.0055855530      0.0141934960     -0.4727865427
F       6.3017175344     -2.2940862763     -3.0165544979      0.0013407152      0.0034944058      0.0046167804     -0.4655154991
F       7.9560892923     -0.9295089733     -3.4901303461      0.0014120450      0.0113306625     -0.0241733251     -0.4349409768
F       8.1949022747     -2.4763926492     -1.9523247158      0.0039306251     -0.0235833100     -0.0034690631     -0.4400849237
F      11.4594411755      0.7584067719      0.4149390446      0.0117734155      0.0061419987     -0.0090901969     -0.4414415504
F      10.9890561716     -1.1873803215      1.2697725812     -0.0053192245      0.0052587774     -0.0094099538     -0.4493518485
F       9.9795542430      0.5961685470      2.0442482693     -0.0017544172     -0.0014968578     -0.0028174005     -0.4504326705
