70
Properties=species:S:1:pos:R:3:forces:R:3:charge:R:1 energy=-379.1083459326526 homo_lumo=5.192121784718728 dipole="-0.42374921345782407 1.281664147718457 -3.5129109797893157" free_energy=-379.1083459326526
N       0.3026774124      1.0924100571      0.6330779036      0.0000181943     -0.0011603249      0.0003015081     -0.4792724176
C       0.8397984434      1.8270380324      1.8552365739      0.0027015384     -0.0003379639     -0.0018709089     -0.0632948116
C      -0.0256448274      2.2253283838     -0.3146753360      0.0056243534      0.0009176606      0.0138302822      0.0025949483
C       1.3400605442      0.1824423116      0.0117318528      0.0026655519     -0.0052155881      0.0120520203     -0.0141023598
C      -0.9449771945      0.3253823358      1.0407754706     -0.0082340273      0.0026592626     -0.0028728883     -0.0919577878
C       0.0206681479      3.1201607609      1.9465256883      0.0065558116      0.0090316193      0.0017737727     -0.1584862544
C      -0.6508194602      3.3023859973      0.5614995625      0.0034374057      0.0002046486      0.0006442543     -0.1574893629
C       1.7407953970     -1.0050459697      0.8645111961      0.0038619032     -0.0035445253     -0.0045118540     -0.2561292933
C      -1.6074135752     -0.4686269196     -0.0690602421     -0.0014895950     -0.0033184506      0.0064586506     -0.2214054974
C       2.8670511946     -1.7834116058      0.1798392042     -0.0011279566     -0.0013084261      0.0077060151     -0.1624336293
C      -2.8439092670     -1.1897686574      0.4760597712     -0.0002282678     -0.0060092891     -0.0062648788     -0.1757288063
C       3.2968514421     -3.0073731165      0.9873330270      0.0113150605      0.0018478963     -0.0130916482     -0.2291784435
C      -3.5558302520     -2.0180139590     -0.5912414464     -0.0082179631      0.0029924767      0.0156115337     -0.2043200238
C       4.4327539761     -3.7756932018      0.3196247773     -0.0048096536     -0.0003121898      0.0022853578     -0.0653318610
C      -4.7883517672     -2.7316772265     -0.0415197584      0.0052452540     -0.0000936190     -0.0081820800     -0.0696781660
H       1.9018576087      2.0245464848      1.6507047105     -0.0007435168      0.0028520873     -0.0034188817      0.1190614927
H       0.7613778119      1.1800728690      2.7352454660      0.0014813413      0.0019475472     -0.0064396140      0.2596065033
H      -0.6567255444      1.8545798774     -1.1315904335      0.0000738014     -0.0061992786      0.0073249803      0.1274368715
H       0.9381977506      2.5585589663     -0.7296921663     -0.0007400491     -0.0041606371      0.0027005948      0.1279210913
H       2.2112187485      0.8270739626     -0.1880304417      0.0030875142      0.0016036383      0.0070986931      0.1224656165
H       0.9310760135     -0.1385750920     -0.9589540012      0.0048426553     -0.0015628158      0.0005183285      0.1318790845
H      -1.6363745549      1.0664942980      1.4648672929     -0.0007434979      0.0008805762     -0.0019531982      0.1843015042
H      -0.6360460644     -0.3257850648      1.8668365872      0.0013623665     -0.0011136868      0.0037617088      0.2411989571
H       0.6868660063      3.9594876858      2.1905477311     -0.0042068440      0.0006524694      0.0019222410      0.1031607414
H      -0.7264057802      3.0559047221      2.7477227071      0.0039633832     -0.0008667110      0.0035093707      0.1255672749
H      -1.7410222711      3.1711526917      0.6288350223      0.0010342390     -0.0018280325     -0.0035159738      0.0905064394
H      -0.4708645815      4.2972550578      0.1299691915     -0.0048115763      0.0012953301      0.0006304072      0.1005497527
H       0.8840868478     -1.6785669882      1.0273421045      0.0001393556     -0.0017902772     -0.0003230198      0.1293694154
H       2.0733292398     -0.6733282592      1.8592371416      0.0050564739      0.0043236673      0.0037936185      0.1980899498
H      -0.9120905103     -1.2219761391     -0.4763146880     -0.0006383278      0.0000530680     -0.0008872777      0.1107210543
H      -1.9130687894      0.1819393972     -0.9069224227     -0.0035910752      0.0070832342     -0.0000123898      0.0905059007
H       3.7393686786     -1.1184520048      0.0344705524      0.0045001188      0.0012177026      0.0047689973      0.0799568162
H       2.5433710127     -2.1025439630     -0.8298176784      0.0025663483     -0.0016031873     -0.0038360012      0.0742333088
H      -3.5465664177     -0.4502703596      0.9009778099     -0.0050680903      0.0028702179      0.0005977434      0.0965818870
H      -2.5447125396     -1.8439261414      1.3132270922      0.0049237445     -0.0073587290     -0.0018198393      0.1304549950
H       2.4266499989     -3.6712801453      1.1299565918     -0.0074371291     -0.0072679145     -0.0039584841      0.0995185748
H       3.6024751460     -2.6826738297      1.9955471841      0.0022235354      0.0011457321      0.0011735929      0.1347582023
H      -2.8490210172     -2.7602335862     -1.0048971567      0.0027897176     -0.0052537772     -0.0047018656      0.0860065717
H      -3.8475880802     -1.3617594587     -1.4315769763     -0.0029494501      0.0039441955     -0.0038857245      0.0795565935
H       4.7312136170     -4.6445222169      0.9248711735      0.0006362601     -0.0053760960     -0.0077483209      0.0460944988
H       4.1354142836     -4.1423712274     -0.6763371612      0.0021103401     -0.0010149191     -0.0042457544      0.0264789533
H       5.3203792962     -3.1350220152      0.1914086138      0.0029961269     -0.0027950411      0.0002158375      0.0321066699
H      -5.2832608992     -3.3327395503     -0.8187089295     -0.0031974141     -0.0015959946      0.0003047907      0.0413182218
H      -4.5152133994     -3.4044582636      0.7866076868      0.0000251428     -0.0032276089     -0.0052535899      0.0469915733
H      -5.5221364358     -2.0069632211      0.3460465484     -0.0005405901     -0.0025242344     -0.0002505268      0.0394799200
P       0.6943643631     -0.6067937485      5.4551275181     -0.0062436422      0.0035381150     -0.0109265267      1.7112491008
F       0.6632664221      1.0627852520      5.2800742579      0.0041043632     -0.0054248046      0.0002886617     -0.5307644043
F       1.0776275031     -0.4671382842      7.0553009114     -0.0048008749     -0.0022626939     -0.0115313438     -0.5091938779
F       0.3244408709     -0.8038152800      3.7923637304     -0.0001309230      0.0056375566      0.0085990585     -0.5575069539
C      -1.2523784969     -0.3830259761      5.8506993224     -0.0049062661     -0.0045294131     -0.0053133718      0.5383151399
C       2.6029774931     -0.4624531664      4.8796055895     -0.0059171807     -0.0072810515     -0.0188183632      0.5035420872
C       0.7528208352     -2.5945382638      5.7287605964      0.0018813251     -0.0008942889      0.0194461734      0.5760596514
C      -2.1871604514      0.2051823537      4.7414128998     -0.0052635736     -0.0055177125      0.0078152167      1.3662888963
C       3.6775084102     -0.1221967230      5.9504669223      0.0227594637     -0.0037500923     -0.0032373064      1.3819668796
C       0.2676937668     -3.5417193620      4.5954877490     -0.0059066903     -0.0120776477     -0.0139839182      1.3822611627
F      -1.3635954828      0.4855264950      6.9116806403     -0.0053829589     -0.0008876737     -0.0057049115     -0.4342367167
F      -1.9180505721     -1.5350427208      6.2100235512      0.0003849862      0.0090867401      0.0003042353     -0.4464695349
F       2.7198805913      0.5684078935      3.9448799507     -0.0007431254     -0.0122961861     -0.0016270564     -0.4708061981
F       3.0504898262     -1.5798361504      4.2093947873      0.0075235130      0.0107842012     -0.0018000224     -0.4613923674
F       0.0217651703     -2.9287754150      6.8422281477      0.0051573630      0.0049014587     -0.0087285273     -0.4392553942
F       2.0418135737     -2.9959387960      6.0107299375     -0.0147146708      0.0015370252      0.0132309935     -0.4473615262
F      -3.3973155996      0.5038906841      5.2860008136      0.0025574926      0.0095777656     -0.0101070626     -0.4455429149
F      -2.4092206480     -0.6949219136      3.7463939330      0.0066055583      0.0062476372     -0.0024770247     -0.4663783734
F      -1.7199282882      1.3461972679      4.1655361507      0.0044195867      0.0013489527     -0.0007100642     -0.4764941249
F       4.8979149619     -0.0029635327      5.3401689371     -0.0143731464     -0.0045893568      0.0068898685     -0.4573451192
F       3.4037444342      1.0587537855      6.5496717621     -0.0001577315     -0.0059229088      0.0051686666     -0.4418611411
F       3.7854901522     -1.0810611073      6.8911418712     -0.0130700771      0.0084542678     -0.0076694445     -0.4385083467
F      -1.0034893850     -3.2639512563      4.2124399285      0.0113886144      0.0095553928      0.0060356351     -0.4550638967
F       0.2962166581     -4.8340727249      5.0226318035     -0.0012138392      0.0164598317      0.0100710427     -0.4480918396
F       1.0654618323     -3.4607958965      3.4983678806     -0.0104200797      0.0076211728      0.0148458118     -0.4630748570
