40
Properties=species:S:1:pos:R:3:forces:R:3:charge:R:1 energy=-224.27622451493684 homo_lumo=1.611070917991968 dipole="-4.881283579696611 2.1001015396455895 1.3837743887825407" free_energy=-224.27622451493684
N      -0.6866772855     -0.9033579370      0.4195912027      0.6351726153      0.5017775237      0.7955749211     -0.5182578805
N       1.5020647984     -0.5219732976      0.3451163811     -1.0417561808      0.0712260280      0.7303172317     -0.5097733146
C      -2.0950203174     -0.7991159514      0.7968144298     -0.8865474101     -0.0780205457      0.0852036030     -0.0239942986
C      -2.9001341147     -0.0502931805     -0.2734546403      0.0398472044      0.2234839363     -0.1238262153     -0.2404223808
C       0.3503513980     -0.2625429876      0.9933648255     -0.0140730027      0.9438535106      1.0057160926      0.5610722339
C      -0.1729723544     -1.5969858883     -0.6164640141      0.8019017557     -0.6917100502     -1.3146365523      0.2197036728
C       2.8126643743      0.0565930924      0.6262999717      1.0406491857      0.5038269834      0.2096642614     -0.0934763733
C       1.1847008351     -1.3565456035     -0.6653075001     -0.5686737702     -0.9706571313     -1.2224230078      0.2577550759
C      -2.3963885049      1.3788450822     -0.4764157808      0.0233609292      0.0504527792     -0.1123057933     -0.1106793203
C       3.1245574186      1.1684979004     -0.3700309172     -0.1721135509      0.1841383311     -0.2769653565     -0.1159884805
H      -2.1918406890     -0.2677837802      1.7693019263      0.3352489746     -0.2095330752     -0.3118843746      0.1233940923
H      -2.5141608949     -1.8198281104      0.9285270435      0.3448303135      0.2043112297      0.0257566036      0.1382417618
H      -2.8499395420     -0.5993695715     -1.2384545885     -0.1029657689      0.0421383780      0.2655224776      0.1206399842
H      -3.9650255161     -0.0133897169      0.0423387214      0.2763600345     -0.2234667901     -0.0264300536      0.1206706188
H       0.2620442872      0.4109816085      1.8369912699      0.0127284135     -0.0513749880      0.0518933837      0.0940112004
H      -0.7455006979     -2.2093368467     -1.3009598102     -0.1869278502     -0.0337461342      0.1061070048      0.0573149283
H       2.8291297682      0.4780511028      1.6549865590     -0.2945297251     -0.3696114800     -0.2436550574      0.1110737886
H       3.5893423480     -0.7350471998      0.5696165178     -0.3135377637     -0.0700397540     -0.0836205431      0.2152691312
H       1.8816644884     -1.7410669512     -1.3977224198      0.4177698649      0.0028870128      0.0818696915      0.1122537578
H      -1.3645707761      1.3725681583     -0.8877494850     -0.2683528749      0.1229408677      0.1217809105      0.0790189979
H      -2.4034221551      1.9328904127      0.4862748534      0.0222262940     -0.0556297850     -0.2999471067      0.0482032776
H      -3.0554132314      1.9078884187     -1.1965597708      0.2875918352     -0.0749194262      0.2334239627      0.0766924552
H       3.0882540362      0.7808346203     -1.4098453983      0.2050666982      0.1096650601      0.3176194598      0.0989738497
H       4.1394236678      1.5735094344     -0.1735597163     -0.3209049884     -0.2129409349     -0.1079183681      0.0889757912
H       2.3826351828      1.9888116575     -0.2662032037      0.2235051005     -0.1507669555     -0.0370466362      0.0489792971
N       6.4918552497     -3.2517970281     -1.8006694944      0.0125410576      0.0158367164     -0.1611331473     -0.8495716431
S       5.8216864724     -3.9147540727     -0.4596469263      4.9971563602      3.1569295651      3.8004950787      1.5717166181
S       6.1097304891     -1.7494510091     -2.3328657495     -5.2881731645     -2.9892385495     -3.0425571637      1.5822107113
C       4.3627320937     -4.8276162189     -0.9185610920     -1.1864092421     -1.1269544588     -0.7413056449      1.1565472838
C       7.3171300527     -0.5878808326     -1.7305069883      1.6376769140      0.9192657886      0.8455092606      1.1583526182
O       6.8074203620     -4.8590289125      0.1673441471     -1.9386351469      0.3112087618     -1.8742750466     -0.7135889454
O       5.4513362433     -2.8464616340      0.5312152957     -1.0575528724     -1.2816900463     -1.2271886749     -0.7624525789
O       4.7448059328     -1.3472805469     -1.8511576486      1.5207028827      0.6825215112      0.4260492893     -0.7943538876
O       6.1330494339     -1.7372239674     -3.8347212466      1.3533519615      0.2947694876      2.2035899515     -0.7180016683
F       3.8134517831     -5.4158515262      0.2046288965      0.2016236074      0.4012266727     -1.0488647335     -0.4314054306
F       4.7000495633     -5.8089326340     -1.8310957583     -0.6570461922      0.7039639256      0.7292681709     -0.4244811131
F       3.4368589538     -3.9747211947     -1.4867076749      0.2680330180     -0.8554161771      0.3534627298     -0.4482521825
F       6.9739831903      0.6875880873     -2.1365966091      0.4097611549     -0.8774135012      0.4328416458     -0.4355560807
F       8.5614635065     -0.9111549396     -2.2376007871     -0.9387697829      0.5415275844      0.5808192479     -0.4237840593
F       7.3592922662     -0.6331375873     -0.3501961319      0.1698631115      0.3351781294     -1.1465015029     -0.4270315080
