24
Properties=species:S:1:pos:R:3:forces:R:3:charge:R:1 energy=-139.9297218342059 homo_lumo=2.5498097861886877 dipole="1.9701176968426788 1.2874548317830068 -0.24142528075645414" free_energy=-139.9297218342059
N      -1.4801089694     -0.3475781970     -0.6712599310     -0.2039915884      0.0780345497     -0.1143366065     -0.5339356681
C      -1.2673835807     -0.1314480918      0.6368338647      0.3467725768      0.0469559771      0.4222846627      0.3063740340
C      -0.7199903313     -1.2089769094     -1.3653055955      0.3690491800     -0.2260014397     -0.1163544234      0.2765561069
C      -2.5877040137      0.3348661135     -1.3433337356      0.0051136288      0.2476919116     -0.1783161013      0.0557257483
C      -0.2561725393     -0.7952526857      1.2986394301      0.0422410074      0.0489564722     -0.0954506601     -0.0004962844
C       0.3093301681     -1.8890645995     -0.7484406888      0.0784396663      0.1086250968      0.1064122997      0.0027316538
C       0.5452265232     -1.6917052854      0.6044629171     -0.1489565794      0.1481105361     -0.1711925417      0.0598396522
H      -1.9317525587      0.5607503175      1.1372177654     -0.0827514642      0.1010030389     -0.0263010162      0.1086297218
H      -0.9717909345     -1.3638920907     -2.4068285927     -0.1028448362      0.0232737553     -0.1282591536      0.1085663658
H      -3.3706749889      0.5438925865     -0.6172692251     -0.1816735689      0.0061287963      0.0653891906      0.1149922444
H      -2.2202295920      1.2643667209     -1.7790071286      0.1687783792      0.2804453072     -0.0919959215      0.0792075115
H      -2.9799795459     -0.3187739212     -2.1200248739     -0.1569888252     -0.1502795931     -0.0733348885      0.1058291581
H      -0.1191070316     -0.6262431249      2.3587495405     -0.0037932633      0.0664038897      0.2397442474      0.0572020621
H       0.8885697225     -2.5991320584     -1.3240052459      0.0882392136     -0.1704341411     -0.1579573229      0.0623395524
H       1.3269940802     -2.2411479466      1.1140087658      0.1838848576     -0.1456537788      0.1233799315      0.0552802671
N      -3.8817341452     -2.3013474304     -0.8432889792      0.1140032059     -0.0686302323     -0.0539320882     -0.8983504550
S      -4.7808230087     -1.7258319997      0.3328173731     -0.0080827511      0.2610273868     -0.3683249323      1.9429133199
S      -2.7958729126     -3.3989739331     -0.4689903108     -0.1161674955     -0.1092537755     -0.3646913513      1.9847363516
F      -3.6833245700     -0.8818723711      1.2501093989      0.2485390493      0.2357058692      0.5283970399     -0.4919462576
F      -3.6229981746     -4.7534047741     -0.2340184918     -0.4627431092     -0.5608649456      0.1041428663     -0.4491799497
O      -5.5785308299     -0.6832328717     -0.2260431745     -0.8221613637      1.2664884260     -0.6775735140     -0.7417537453
O      -5.3492831721     -2.6516477285      1.2481847430     -0.4224991084     -1.2608066282      1.0915211098     -0.7027431557
O      -2.0757027437     -3.1869412547      0.7526124554      0.4169994768      0.1547356269      1.2732621796     -0.7424109876
O      -2.0277562936     -3.6370076489     -1.6573084739      0.6505937116     -0.3816621054     -1.3365130059     -0.7601072468
