34
Properties=species:S:1:pos:R:3:forces:R:3:charge:R:1 energy=-191.2164193896618 homo_lumo=3.033507999825501 dipole="-0.33577165268514486 1.4602999355767405 -2.194853482576541" free_energy=-191.2164193896618
N       2.5363187908      0.0270475912     -1.0571217438     -0.0017568003      0.0031125537     -0.0053116119     -0.4953073607
C       0.4444668692     -0.6161928153      0.1237498429      0.0030208259     -0.0089510076      0.0100797797     -0.2196201087
C      -1.0775822233     -0.5243296451      0.1123329356     -0.0049959990      0.0021362539     -0.0007061599     -0.1675815543
C       1.0546160563      0.1257391940     -1.0565681042     -0.0119511007      0.0068485209     -0.0092319801     -0.0130769128
C      -1.6913624336     -1.2650324973      1.3010395965     -0.0089203097      0.0039496904     -0.0064438971     -0.2080341091
C      -3.2153961786     -1.1977334149      1.3122321520      0.0162366198      0.0047520706     -0.0047144415     -0.0647365207
C       3.1321956922     -1.0263031121     -1.6547922988      0.0139128889     -0.0075932086     -0.0077328061      0.2954072355
C       3.2623262285      0.9229084702     -0.3556148861      0.0156195376      0.0080577116      0.0025102379      0.2954453760
C       4.5006621418     -1.1872188436     -1.5974673108      0.0051515712     -0.0005777191      0.0039846217      0.0054265485
C       4.6336015114      0.8050848856     -0.2699297535      0.0052362448     -0.0046385886      0.0009104758      0.0064112967
C       5.2651304652     -0.2667858310     -0.8901358652     -0.0064890641     -0.0013140968      0.0020574629      0.0573538908
H       0.7713924834     -1.6682662856      0.1022243647      0.0006614802      0.0092805014      0.0035231692      0.1601050683
H       0.8530995872     -0.2078690048      1.0622173506      0.0017150800     -0.0108877850     -0.0069134612      0.1592730402
H      -1.4760168863     -0.9494658318     -0.8291682095     -0.0078525578      0.0018327775     -0.0049483193      0.0752034287
H      -1.3945864029      0.5360761406      0.1379546379     -0.0061699858      0.0047873918     -0.0010064948      0.0751220059
H       0.7092793405     -0.2821129356     -2.0192852316     -0.0026753475      0.0062080496     -0.0052237338      0.1078000159
H       0.8081952020      1.1988325723     -1.0379456422     -0.0030323723      0.0015518494     -0.0073716659      0.1077244843
H      -1.2859511905     -0.8400683110      2.2361768851      0.0042997971     -0.0062725163     -0.0003901257      0.1049735026
H      -1.3585105911     -2.3175627374      1.2780777422      0.0031831505      0.0011514927      0.0025214148      0.1059838467
H      -3.5658948657     -0.1546047231      1.3678760649     -0.0057220855      0.0109604220     -0.0023426913      0.0296488363
H      -3.6301083196     -1.7385843843      2.1756066406     -0.0070965809     -0.0060493168      0.0093526495      0.0442659134
H      -3.6380325092     -1.6466519545      0.3987596026     -0.0081328788      0.0015206682     -0.0117172949      0.0294796613
H       2.4722805845     -1.7335794051     -2.1513196386     -0.0070878734      0.0023431955     -0.0017693672      0.0996462048
H       2.7020713764      1.7097786222      0.1439023062     -0.0078847252      0.0006416666     -0.0031518863      0.0999097130
H       4.9517569656     -2.0602705043     -2.0667518511     -0.0038336322     -0.0089503509      0.0013047224      0.0627849562
H       5.1911772823      1.5271772572      0.3244680411     -0.0037630626      0.0014742626      0.0084624761      0.0629993874
H       6.3428869168     -0.4010971479     -0.7964044477     -0.0017733358      0.0001937365     -0.0002761993      0.0667416010
P       3.4203751590     -2.1471266066      2.1695487732     -0.0008639428      0.0055875967     -0.0060417936      2.2083102281
F       1.8819752849     -2.4158850814      2.6985267267      0.0005517420      0.0018136725     -0.0031489178     -0.5098555523
F       2.9093645912     -2.4923982095      0.6001133077      0.0069720739     -0.0131674931      0.0087216796     -0.5357732985
F       3.0178856390     -0.5295222311      1.9115831431      0.0059121274     -0.0016884805      0.0179402649     -0.5352061775
F       4.9360489251     -1.8243967461      1.5608232341      0.0060311213     -0.0048366681      0.0110219023     -0.5196763308
F       3.9211121087     -1.7712086906      3.6808218411      0.0053368517      0.0028651179      0.0070347778     -0.4955556036
F       3.8131518687     -3.7224249085      2.3759674861      0.0061605421     -0.0061419708     -0.0009827868     -0.4955927125
