44
Properties=species:S:1:pos:R:3:forces:R:3:charge:R:1 energy=-237.5370614226201 homo_lumo=1.356519443450381 dipole="-5.75643013555196 -0.5835252134482315 0.4553819978516638" free_energy=-237.5370614226201
N       2.0023540855      0.4454479199      0.0965901083     -0.3130398090      0.5846027581     -0.0218553665     -0.5500230809
C       2.2484619882     -0.8518282442      0.7858764940     -0.1012480180     -2.1144274985      1.1790424750     -0.0103296222
C       3.1129729933      0.5927270642     -0.8927162230      1.8617127098      0.6739897838     -1.7342372231     -0.0075015580
C       0.6942884584      0.4417257001     -0.6280219325     -1.6104543503     -0.0547248862     -0.3016290559     -0.0300030372
C       3.6709604997     -1.2750526748      0.4814709859      0.5546786573      0.0382573874      0.6406398997     -0.1569994563
C       3.9306512512     -0.6872642854     -0.8784314537      0.1076277597     -0.4192220627     -0.6989633656     -0.1602918312
C       2.0591506516      1.5666851273      1.0700938842      0.0390396302      1.0185119392      1.0520463683      0.0077755601
C      -0.5476083724      0.2503969618      0.2743176066      0.3752866295      0.0890519243     -0.1436113189     -0.2036994558
C      -1.8106035213      0.0920050521     -0.5817922285      0.1733798669      0.0119694426      0.1815320073     -0.1673729243
C      -3.0563814483     -0.0996968540      0.2898624269      0.0294698533      0.0342663108     -0.4388864490     -0.1691195617
C      -4.3146815992     -0.2211543440     -0.5773289584     -0.0650829189     -0.0135815676      0.2379328922     -0.2091603938
C      -5.5623159170     -0.4021404493      0.2814080290     -0.2363138184     -0.0273114878     -0.1168797379     -0.0854068834
H       1.5818635349     -1.6566984326      0.3993516217     -0.0757775552      0.6978127872     -0.0734538236      0.1430150421
H       2.0901879326     -0.7984163075      1.8872197713     -0.2293366894      0.3219748265     -0.5397552547      0.1349311714
H       3.7968111548      1.4380098929     -0.6441420312     -0.5583809297     -0.2025334340      0.2936265691      0.1727244215
H       2.7566993731      0.7902745131     -1.9301859821     -0.2979275413      0.0492346170      0.6443414915      0.1363520571
H       0.6987866406     -0.3688632426     -1.3939830144      0.3616183783      0.2170930101      0.3780514615      0.1482163067
H       0.5686804409      1.3997839673     -1.1834747927      0.3834766080     -0.2527183371      0.2803393050      0.1473351516
H       3.7825549392     -2.3813719626      0.4781966342      0.0007714297      0.4411281304      0.2364686961      0.1015659781
H       4.3653255315     -0.8284946941      1.2265255987     -0.0600417779     -0.2630409829     -0.2090068094      0.1396019941
H       5.0110899870     -0.4910709304     -1.0382463463     -0.0643762695      0.0314825791     -0.1716496257      0.1800219541
H       3.5578056407     -1.3806582114     -1.6649980780      0.1969401191      0.1841695955      0.1473510065      0.0820796776
H       1.3315046859      1.4293606927      1.8978178073      0.1263663252     -0.1396332302     -0.4945349506      0.1130779857
H       3.0653731170      1.6340665722      1.5421339444     -0.2903414356     -0.2275297144     -0.4320990817      0.1433923341
H       1.8451619395      2.5373741819      0.5695055902      0.1264306689     -0.5106292130     -0.0024758014      0.1155304765
H      -0.4344528817     -0.6487999777      0.9154991033      0.0174591119      0.2268341893     -0.0833966315      0.1189821188
H      -0.6801219525      1.1369793721      0.9293060753      0.0664856668     -0.2502928557     -0.0621298304      0.1173926569
H      -1.6949319139     -0.7896521520     -1.2504588450     -0.0468298212      0.2575176467      0.0498607211      0.0966436093
H      -1.9390200235      0.9992184808     -1.2129001801      0.0060485643     -0.2650981529      0.0343686740      0.0981466470
H      -3.1644785275      0.7693376295      0.9758727654      0.0209689165     -0.2455204469     -0.0629905431      0.0930023664
H      -2.9393828495     -1.0218381809      0.9013317065     -0.0440340954      0.2596752444     -0.0355485046      0.0918805668
H      -4.4340855933      0.6960267944     -1.1946888415      0.1257878105     -0.2488363110      0.0305530534      0.0922356215
H      -4.2172395602     -1.0939615868     -1.2595188950      0.0537343760      0.2705741750      0.0499520541      0.0919789347
H      -5.6951441776      0.4698317023      0.9567838311     -0.0370076401     -0.2997349043     -0.1208566835      0.0425385396
H      -6.4553926462     -0.4830347034     -0.3734808936      0.1393060955      0.0037522980      0.3225042907      0.0520767026
H      -5.4813745513     -1.3288005802      0.8885883349     -0.1131581058      0.2951094227     -0.0965348979      0.0427104938
S       8.2828317918      0.5227859367      0.0015068533      0.3855788853      7.4544054143     -7.5662033981      1.5572184138
O       7.5848616107      1.8428561982      0.3599470097     -0.0016261753     -2.5270092215      2.1111137375     -0.7757624526
O       9.6534442568      0.9827980000     -0.5156710774     -0.7475219497     -2.3668139168      2.4633662715     -0.7433665769
O       7.5607749666      0.0819537058     -1.2794595190     -0.2078769535     -2.0584216800      2.4129613198     -0.7832495950
C       8.3349391979     -0.7132284930      1.3299474899      0.5517814480     -0.3634039013      0.3755962033      1.1101162854
F       7.0507045600     -0.9891118852      1.7565371385      0.6326390803     -0.2256840870      0.1292973320     -0.4582019679
F       9.0740702457     -0.2217682765      2.3884521627     -0.6988224963     -0.7241943627     -0.5780761491     -0.4292377645
F       8.9212344518     -1.8722416623      0.8598323138     -0.5373902407      0.6389487720      0.7338286728     -0.4308169055
