49
Properties=species:S:1:pos:R:3:forces:R:3:charge:R:1 energy=-272.453474023745 homo_lumo=3.6209687275815403 dipole="-1.1230972040422595 0.4670969748951186 -2.731849014501314" free_energy=-272.453474023745
N      -1.4389721454      0.1692599186      0.1809924551      0.0433497496     -0.1066928065     -0.3091215829     -0.4984720086
C      -2.5128260653      0.3954043232     -0.8431865343     -0.6152415665      0.1834214636      0.0992708791      0.0026914007
C      -1.6643695426     -1.1650227623      0.8436742585     -0.3667959938     -0.3313223879      0.4189383054     -0.0451896477
C      -0.1368029319      0.1243895119     -0.5809312770      0.6300105017     -0.0135115569      0.3690633235     -0.0118212208
C      -1.4265658973      1.2458956604      1.2330622510      0.1190419576      0.6797459031     -0.0226694721     -0.1238663889
C      -3.9234459478      0.2909524711     -0.2757983253      0.2812769656     -0.4281561224     -0.0941774468     -0.1597715696
C      -3.0659698648     -1.3191203528      1.4176659506     -0.0896203212      0.0945368698     -0.6139123056     -0.1732662636
C      -4.1386843991     -1.0811371580      0.3595926771      0.2264503562      0.3539608206      0.2317616129     -0.1396703835
C       1.1197185459     -0.0765621977      0.2615929726     -0.1904779544      0.1003219603     -0.7865647705     -0.2091048520
C      -1.0985745831      2.6391749844      0.7244849477     -0.1521446764     -0.4995613845     -0.0731948905     -0.0845614610
C       2.3493900558     -0.0619819856     -0.6522440992     -0.1223287597     -0.0720817738      0.6989923577     -0.1449523456
C       3.6270036113     -0.2633979494      0.1688529037      0.0026715676      0.1036881962     -0.8982413071     -0.1583048122
C       4.8700520938     -0.2554681532     -0.7256549257      0.0280883966     -0.0810494873      0.6972238679     -0.1960349061
C       6.1437782308     -0.4547424903      0.0941402640     -0.2559448433      0.0705018814     -0.4003973130     -0.0441161841
H      -2.3749650258     -0.3659887135     -1.6165529129      0.1067254590     -0.1738303657     -0.1485235085      0.1232438321
H      -2.3469260016      1.3768956377     -1.2913596336      0.1454049122      0.1824985769     -0.1227675748      0.1331249914
H      -0.9264861938     -1.2581799772      1.6451030889      0.3138577870      0.1236884593      0.2202360651      0.2363642472
H      -1.4798553056     -1.9300089747      0.0841270142      0.0461849754     -0.1153393400     -0.2952482779      0.0902885589
H      -0.0679193164      1.0589120859     -1.1443465440     -0.0604936914      0.2000688964     -0.1426101801      0.1277893020
H      -0.2306417830     -0.6952894088     -1.2995571884     -0.1200314560     -0.1658903548     -0.1640154225      0.1164551340
H      -2.4090039008      1.2486201375      1.7047333202     -0.1157188007     -0.1043553721      0.0589071525      0.1677188289
H      -0.6961315691      0.9356823099      1.9847163196      0.1230552335     -0.3372596601      0.2246408277      0.2504685970
H      -4.6207955048      0.4383675437     -1.1049635780     -0.1733068869      0.1536957568     -0.2201339924      0.0941872939
H      -4.1055171707      1.0809835683      0.4569835511     -0.0833154308      0.2415496621      0.1505282403      0.1004072525
H      -3.2110424549     -0.6370435840      2.2571808227     -0.0031895541      0.0305991260      0.2186880755      0.1387060452
H      -3.1404658799     -2.3363137163      1.8091729549      0.0401872106     -0.2016117062      0.2038342629      0.1067811067
H      -5.1291268875     -1.1245880281      0.8180372002     -0.3036244668     -0.0896690378      0.0693250196      0.0789479339
H      -4.0847017963     -1.8556166672     -0.4128826549     -0.0247576187     -0.2277431087     -0.2372290900      0.0709980550
H       1.2173642555      0.7113605227      1.0095751192      0.0218415278      0.0559757272      0.2658730263      0.1439523782
H       1.0746920767     -1.0284107244      0.7927978356      0.0094037900     -0.0939121911      0.2528359381      0.1407464143
H      -0.0892865726      2.6996562474      0.3211796826      0.3272324650      0.0814728261     -0.0960703598      0.0484265577
H      -1.8049821637      2.9833198297     -0.0303401112     -0.2046690688      0.2321476157     -0.2225219602      0.0290150421
H      -1.1600554822      3.3134096143      1.5787268778     -0.0042922065      0.2146238073      0.2327363891      0.0712354768
H       2.4009247931      0.8940646949     -1.1858116424      0.0653682905      0.2385083168     -0.2069708647      0.0688709213
H       2.2624604315     -0.8580260400     -1.4005121506      0.0305731724     -0.1915908083     -0.2545822999      0.0666497433
H       3.5661831340     -1.2161075365      0.7044154809     -0.0164217680     -0.2049470771      0.2175693855      0.0987879870
H       3.7066178861      0.5336511326      0.9149605797      0.0124113421      0.1522610440      0.2589888509      0.0975455595
H       4.7879964491     -1.0538189553     -1.4715397795     -0.0464327715     -0.1656522800     -0.2412771900      0.0743413047
H       4.9274138062      0.6980408791     -1.2623480015     -0.0161741001      0.2181649567     -0.1984102520      0.0742155978
H       6.1131294179     -1.4094045774      0.6207377188      0.0359213100     -0.2716194843      0.1973016627      0.0319417621
H       7.0155722912     -0.4463460414     -0.5605527443      0.3618033357     -0.0159498034     -0.1027806441      0.0263751282
H       6.2530252751      0.3433395690      0.8295127083      0.0748372018      0.2116956234      0.2516115245      0.0317063036
C       0.2468731061     -0.5135874781      4.2202575108     -2.1760982008     -0.1733759597      0.4172020774      0.9308824574
O       0.4143304532     -0.4303181312      2.9944909364      0.3618558460      0.0914485486     -1.6437114748     -0.8549918594
O       0.9857820450     -0.4990291268      5.1737116141      1.2647294427      0.0142878895      1.5621640544     -0.7214125390
C      -1.3541201326     -0.6654201193      4.5590013878      1.4412551542      0.1423369782     -0.4420522860      1.2278381755
F      -1.8640551573     -1.7961900074      4.0039854280     -0.3023287056     -1.0005726682     -0.2215021393     -0.4850572956
F      -2.0575137266      0.3546959050      3.9767379814     -0.5628508950      0.8924398569     -0.1790227495     -0.4980190498
F      -1.6980961351     -0.6754239395      5.8464373493     -0.1072782139      0.0020539737      1.0200164560     -0.4520906016
