49
Properties=species:S:1:pos:R:3:forces:R:3:charge:R:1 energy=-272.7698119654745 homo_lumo=3.7866517244450653 dipole="-2.5595244883361055 1.153689154546314 -1.153140891714426" free_energy=-272.7698119654745
N      -0.6661082064     -0.4826837907      0.0863001976     -0.0001950815     -0.0019393145      0.0067768482     -0.4873990798
C      -1.9576950125     -0.2731765953     -0.6707917776     -0.0054014378      0.0057837365      0.0091488756     -0.0016499487
C      -0.3196715299     -1.9704588001      0.0775473723     -0.0068907970     -0.0060206758     -0.0002486466     -0.0809680220
C       0.4271274509      0.2756961970     -0.6604654027     -0.0088095557      0.0066264282     -0.0060745299     -0.0159816806
C      -0.7613358970     -0.0065941934      1.5284492088      0.0058077411      0.0112671554      0.0015433682     -0.0973632760
C      -3.1089085559     -1.1144848630     -0.1426689343      0.0014869170     -0.0019842057     -0.0071846635     -0.1703687748
C      -1.4494338797     -2.8395160085      0.5968555094     -0.0091898543      0.0032389438     -0.0098252355     -0.1677787699
C      -2.7549624046     -2.6021345785     -0.1570324234      0.0058228350      0.0093335249     -0.0018917520     -0.1616274768
C       1.7464673050      0.4056377387      0.0842549000      0.0047546599      0.0024803548      0.0031397126     -0.2514095071
C      -1.0664739870      1.4708137105      1.6767149484     -0.0053886436     -0.0096835653     -0.0039540397     -0.1029721674
C       2.9331261230      0.4394273210     -0.8799272608      0.0039845845     -0.0114522420     -0.0020897390     -0.1670459386
C       4.2575149965      0.6028169830     -0.1370031341     -0.0011073869      0.0092124529     -0.0015341481     -0.1936612096
C       5.4728579717      0.4462364582     -1.0478163006      0.0006045196      0.0013581488      0.0024640259     -0.2035418531
C       6.7876865297      0.6054445106     -0.2875080699     -0.0046938217      0.0070889422      0.0097240521     -0.0657116618
H      -1.7332045390     -0.5482693232     -1.7145282579      0.0041527372      0.0013057851      0.0000655892      0.1299226757
H      -2.1830002274      0.8019937137     -0.6441691598     -0.0068050294      0.0013782840     -0.0038818014      0.1324375731
H       0.5716012380     -2.0964446548      0.7224776244      0.0072708078      0.0023159748      0.0016171197      0.2845978009
H      -0.0873628317     -2.2123173950     -0.9714807348      0.0006907558      0.0013216533     -0.0021200962      0.1003679371
H       0.0001525365      1.2568438028     -0.9200770306      0.0039091402     -0.0023406147     -0.0033409226      0.1139253108
H       0.5641426966     -0.2867339117     -1.5976320521     -0.0017604078      0.0024519243     -0.0009462420      0.1311366603
H      -1.5449372740     -0.6097520679      2.0008293402     -0.0056435586     -0.0022257378      0.0035373290      0.1575169737
H       0.1928337838     -0.2965386556      1.9981686960     -0.0021492672     -0.0042161754      0.0056888627      0.2083405118
H      -3.9849286817     -0.9085667535     -0.7806689481      0.0009954171     -0.0013276543     -0.0005003100      0.1025055672
H      -3.3853927194     -0.7918953816      0.8755468041      0.0029921996      0.0022083206      0.0112341936      0.1034969793
H      -1.5798958096     -2.6834171201      1.6806010138     -0.0031909543     -0.0031574254      0.0044229648      0.1001522923
H      -1.1062705919     -3.8813656138      0.4903348842     -0.0078071577     -0.0089639417     -0.0055050978      0.1254927531
H      -3.5755022495     -3.1967544060      0.2744738542     -0.0049800914      0.0026674515      0.0160054999      0.0835405090
H      -2.6349732604     -2.9318116725     -1.2054868565     -0.0033525891     -0.0005977433     -0.0082947965      0.0866209808
H       1.7458837270      1.3162919465      0.7070623461      0.0023422330     -0.0074352262      0.0005284314      0.0910577351
H       1.8835698570     -0.4381125831      0.7767837627      0.0037717982      0.0114944694     -0.0034211270      0.2358440601
H      -0.3066314576      2.1066939008      1.2023202237     -0.0069785458      0.0039285424      0.0063043275      0.0639576812
H      -2.0583738368      1.7461202087      1.2887540686      0.0043356496      0.0024916882      0.0034068634      0.0385498169
H      -1.0617849041      1.7081493220      2.7514305502      0.0115747443     -0.0154696746      0.0064820813      0.0779527160
H       2.8087177691      1.2505879613     -1.6233367456      0.0097340898     -0.0039163119      0.0019989294      0.0574088052
H       2.9505959131     -0.5139878948     -1.4398098643      0.0058883493      0.0073955711     -0.0001514427      0.0979647273
H       4.3095666116     -0.1461798935      0.6740359929      0.0019059611      0.0069765689      0.0010223378      0.1854416335
H       4.2846799342      1.5970073176      0.3496483483      0.0038525193     -0.0041260186      0.0002144338      0.0635173824
H       5.4368267514     -0.5553201884     -1.5148836097      0.0039787863      0.0056553989      0.0022126670      0.0868363947
H       5.4212578727      1.1812521319     -1.8735857197      0.0058753307      0.0035309045      0.0035760739      0.0641005625
H       6.8491159031     -0.1300786624      0.5303226020      0.0013663932      0.0019624325     -0.0005364287      0.0531557799
H       7.6591425372      0.4622517741     -0.9447695051     -0.0041414234      0.0008762334     -0.0076922620      0.0268829017
H       6.8626264199      1.6101148887      0.1602014687      0.0028389023     -0.0016285159      0.0040421894      0.0259386669
C       2.8514927731     -2.3030017139      2.0269574534     -0.0027656350      0.0054002212     -0.0006761610      0.8859793656
O       3.9162004111     -1.7698332978      2.3680151100      0.0091894263     -0.0105846375     -0.0154297922     -0.7492517531
O       1.6434969865     -1.9870350878      2.2587826058      0.0033268346     -0.0039935016     -0.0067890860     -0.8339000687
C       3.0015342034     -3.5191293050      1.0431253456      0.0002004262     -0.0136314225     -0.0074312902      1.2421607916
F       1.9681348011     -4.4241208244      1.1037769849     -0.0104129445     -0.0044436216      0.0009025653     -0.4717425058
F       4.1501591398     -4.2237674972      1.2007104116     -0.0061978227      0.0026149156     -0.0030287028     -0.4517602100
F       3.0003846635     -3.0429489007     -0.2658079335     -0.0047917535     -0.0032278007     -0.0035110283     -0.4826696416
