45
Properties=species:S:1:pos:R:3:forces:R:3:charge:R:1 energy=-246.1107044626617 homo_lumo=5.00833086800152 dipole="-1.3715229203704018 2.280056867964134 -2.5225061833109628" free_energy=-246.1107044626617
N       0.5333048895      0.0021426582      0.5337729202      0.0002532110      0.0017048981      0.0007464116     -0.5177489773
C      -0.3956118273      0.5732708681     -0.5212613296     -0.0048283407     -0.0006949216      0.0002947902     -0.0011663143
C       0.0672814662     -1.3956463215      0.9239340401     -0.0029051234     -0.0013614209     -0.0069211104     -0.0764621964
C       1.9183626432     -0.0809048921     -0.0973503510     -0.0041533659     -0.0006901300      0.0020606390     -0.0100237939
C      -1.8616401040      0.5483789076     -0.1204326634     -0.0008867025     -0.0080579548     -0.0006332889     -0.1686347207
C      -1.3897331112     -1.4254861511      1.3453283147     -0.0025392372      0.0085399409     -0.0126860875     -0.1894085777
C      -2.3045771209     -0.8634452351      0.2601344272      0.0171399244      0.0062576251      0.0088382380     -0.1594309059
C       0.5745062634      0.9003871986      1.7338317519     -0.0007119531     -0.0011072034     -0.0057842712      0.0282369396
C       3.0247689218     -0.6245872161      0.7857418241     -0.0076885902      0.0031554506     -0.0078130541     -0.2890933102
C       4.3241894751     -0.6978579359     -0.0165524516      0.0116543893     -0.0053727043      0.0086237204     -0.0713336900
H      -0.2392938452     -0.0464961843     -1.4188057689     -0.0041091994      0.0029751899     -0.0023333956      0.1332889485
H      -0.0411011837      1.5930522659     -0.7353185876      0.0022779218      0.0022695451     -0.0009449895      0.1212046638
H       0.7308281044     -1.7495722593      1.7215375339      0.0037688851      0.0055735982      0.0046667209      0.2808723237
H       0.2320621292     -2.0209894997      0.0312205433     -0.0031804834      0.0029250734      0.0047075515      0.1175579000
H       2.1460751904      0.9427710798     -0.4403960918     -0.0004697675      0.0026171364     -0.0033980464      0.1189239759
H       1.7925469987     -0.7192314693     -0.9871836089      0.0025604937      0.0019115804     -0.0011948782      0.1259869023
H      -2.4380753436      0.9279527335     -0.9807139066     -0.0013542762      0.0012787723     -0.0010661522      0.1117673145
H      -2.0515394510      1.2493079621      0.7095142250      0.0037786868      0.0020594935      0.0047472228      0.1007213504
H      -1.5255664509     -0.8850308575      2.2968059322      0.0028299519      0.0053875342      0.0050751642      0.1217744395
H      -1.6304887261     -2.4775350231      1.5653237501      0.0005767587     -0.0063227322      0.0003868642      0.1327142695
H      -3.3528376200     -0.8562720057      0.5969759537     -0.0087165631      0.0005659283      0.0038140807      0.0899761194
H      -2.2566107859     -1.5129005056     -0.6332220022     -0.0040237781     -0.0031033333     -0.0032054515      0.0885177772
H       1.1382399342      0.4004973232      2.5308600739      0.0019035783      0.0014919818     -0.0038502985      0.1793567552
H       1.0470350245      1.8459442138      1.4373852965     -0.0013689394      0.0000262841     -0.0006552682      0.0655717363
H      -0.4467702247      1.0864548743      2.0780330096     -0.0013629000      0.0028932158      0.0034684208      0.1072837473
H       3.1708643667      0.0104051518      1.6723404787     -0.0047340384      0.0054044070      0.0016579263      0.1132219494
H       2.7654156671     -1.6276600459      1.1511546115     -0.0003371714      0.0011266764      0.0025993784      0.2216555171
H       4.2213708572     -1.3693792622     -0.8837500264     -0.0063521603      0.0043760967      0.0014531785      0.0330229242
H       4.6391844530      0.2931138229     -0.3819165145     -0.0051586805      0.0015370186      0.0013520548      0.0262930240
H       5.1263471717     -1.0992463071      0.6183239014     -0.0034326969      0.0057734709     -0.0093915636      0.0793349474
N       2.4084492377     -3.5944932755      4.5319460515      0.0039247085     -0.0055315530      0.0108494119     -0.8408138252
S       1.7784563234     -2.1499050042      4.7892992589     -0.0054475922     -0.0166215335     -0.0011425268      1.6422998641
S       2.6866022272     -4.2218396103      3.0767688871      0.0147597441      0.0087613796      0.0127087898      1.6311933223
C      -0.0703511879     -2.5174522333      4.9474401471     -0.0117624874     -0.0105699997      0.0184330536      1.1683951535
C       4.4939028713     -3.7645448098      2.7792259191      0.0202987004     -0.0080814462      0.0176725939      1.1719277282
O       2.1553575414     -1.6769943385      6.1091175509     -0.0078665597     -0.0018939740      0.0103644051     -0.7131177127
O       1.8239970148     -1.2097959033      3.6578611586     -0.0088560188      0.0083952129     -0.0043916522     -0.8049823535
O       1.9855965782     -3.5904377660      1.9509544495      0.0068322222      0.0043356399     -0.0172686716     -0.7864431545
O       2.7002664290     -5.6695933744      3.1806017943      0.0084643715     -0.0074686559      0.0075831907     -0.7119684291
F      -0.7670950600     -1.3417558246      4.9047875953     -0.0104531843     -0.0175460645      0.0060532587     -0.4585746630
F      -0.3559181137     -3.1375536012      6.1077755710      0.0047827259     -0.0130492513     -0.0283078630     -0.4268672040
F      -0.5137169181     -3.2920864680      3.9222121818     -0.0011991653      0.0031683209     -0.0125391308     -0.4543051397
F       4.8247595464     -4.0631814839      1.4942440714      0.0160875109      0.0007656262      0.0017872997     -0.4479767082
F       5.3145493296     -4.4457084247      3.6030681493     -0.0100241000      0.0167008689     -0.0052939619     -0.4278115557
F       4.7006725362     -2.4328765155      2.9647986704      0.0020292907     -0.0045050876     -0.0111227037     -0.4549363613
