45
Properties=species:S:1:pos:R:3:forces:R:3:charge:R:1 energy=-246.15241372477513 homo_lumo=5.168346970720074 dipole="1.983731406422815 0.6374629402082794 2.4579874239201347" free_energy=-246.15241372477513
N      -1.4667549590      0.5480671141      0.3488676687      0.0057024456      0.0005368198      0.0080007076     -0.5179865536
C      -2.5824197112      1.5804484138      0.2498975051      0.0018049602     -0.0032559311      0.0044476550     -0.0641513330
C      -1.9911864426     -0.6918203327      1.0591676910     -0.0003718975      0.0006409478     -0.0016146492     -0.0601588369
C      -1.0639196144      0.2183363072     -1.0872467201      0.0037273896     -0.0069353026      0.0009073858     -0.0790567458
C      -3.2081085509      1.9231716042      1.5883992813     -0.0017976534     -0.0101312390     -0.0042184226     -0.1680869870
C      -2.6527197749     -0.3780813971      2.3926685385     -0.0006472427      0.0025891532     -0.0098577963     -0.1639723836
C      -3.7637864088      0.6601470819      2.2452070808      0.0125749252     -0.0050450073     -0.0011630625     -0.1740206758
C      -0.2910423047      1.1063023904      1.0791400827     -0.0003994327     -0.0004418235     -0.0049829747      0.0620357568
C      -0.1684951496     -0.9897012226     -1.2805323794     -0.0031711267     -0.0047695862     -0.0027044614     -0.2502351231
C       0.0878160456     -1.1554625507     -2.7820486478      0.0059500895     -0.0083365623      0.0021638416     -0.0736257918
H      -3.3436168325      1.1243618803     -0.3977600658     -0.0023333120     -0.0038642844      0.0023644342      0.2419795666
H      -2.1538235654      2.4528381531     -0.2649242379     -0.0040502048     -0.0005857192     -0.0004549165      0.1181406041
H      -1.1337028284     -1.3669871125      1.1839256604      0.0096088421      0.0003293024      0.0025968805      0.1248511553
H      -2.7017547311     -1.1613894093      0.3632246821      0.0070891816     -0.0016586589      0.0039781935      0.2407275007
H      -0.5908205288      1.1358110993     -1.4737003067     -0.0010626983     -0.0046334023     -0.0010051306      0.1191227422
H      -1.9970023398      0.0623872426     -1.6461449471     -0.0041703116     -0.0055012596     -0.0008851983      0.2662662040
H      -4.0160545961      2.6442677390      1.3812853782     -0.0010148113     -0.0064795814      0.0019947724      0.1194111138
H      -2.4927166209      2.4376172933      2.2535912161      0.0073939304     -0.0031356871      0.0039788744      0.0790879570
H      -1.9089801786     -0.0458075746      3.1388294840      0.0112897712      0.0030918853      0.0004765956      0.0805044228
H      -3.0604752528     -1.3315302519      2.7680035571      0.0055547785     -0.0053352108      0.0019231181      0.1144850999
H      -4.2042855815      0.8936750558      3.2269691201      0.0063471829     -0.0034865422      0.0065895138      0.0801114326
H      -4.5644506234      0.2481466616      1.6060560069      0.0099596347     -0.0061165671     -0.0023169626      0.1405272439
H       0.5116912985      0.3593854061      1.0750841936     -0.0000667919     -0.0005142479     -0.0045579210      0.1001433204
H       0.0401483770      2.0177549848      0.5657110227     -0.0009282183      0.0015092540     -0.0021502213      0.0782235667
H      -0.5703617872      1.3408671627      2.1106832710     -0.0007290007     -0.0009599701      0.0009076096      0.1076443567
H       0.7887759091     -0.8857617001     -0.7407814430      0.0026023415     -0.0038264339      0.0039670468      0.0804935322
H      -0.6817645767     -1.8927953162     -0.9178375739      0.0021353199     -0.0071125801      0.0027152708      0.1318875681
H      -0.8668748988     -1.2757903280     -3.3168941675     -0.0000705527      0.0016346207     -0.0021672562      0.1081312888
H       0.6109160731     -0.2819144696     -3.2009591537      0.0027369714      0.0032960496      0.0059992381      0.0320394229
H       0.7056355843     -2.0456035111     -2.9679699911     -0.0009936538      0.0022203841      0.0000096115      0.0435091193
N      -3.6840817806     -0.5774081336     -3.0889018468     -0.0177897338      0.0090770863     -0.0051384211     -0.8861042527
S      -4.4506620229      0.4917947634     -4.0422759769      0.0118913986      0.0076622071      0.0239146909      1.6320037886
S      -4.3948744696     -1.3435353309     -1.8672221391     -0.0190118788      0.0000575545     -0.0202384152      1.5899720514
C      -4.1192655572      2.1718428231     -3.2424447726     -0.0056590488     -0.0014922004     -0.0078156426      1.1598048626
C      -5.7387363654     -2.5105277110     -2.5513904567     -0.0056149981      0.0125367392     -0.0163725756      1.1824866764
O      -3.6886669527      0.5931432458     -5.2754702332      0.0075414202      0.0131056573     -0.0001274739     -0.7157454608
O      -5.9014499023      0.3729610720     -4.0425729300     -0.0069108710      0.0176815008     -0.0083860254     -0.7212724992
O      -5.0932502413     -0.4894773168     -0.8981906592     -0.0213101068      0.0017091789     -0.0023293870     -0.7570755717
O      -3.3801789648     -2.2683115610     -1.3450411751     -0.0085493137      0.0009466028      0.0085316429     -0.7714258841
F      -4.5380106093      3.1456567356     -4.0784288322      0.0076762016      0.0260331599      0.0064541200     -0.4310062176
F      -2.7833845138      2.3547725180     -3.0130528042      0.0158749396      0.0051247064      0.0181776521     -0.4633921226
F      -4.7628872911      2.3226886598     -2.0565374662     -0.0074916793      0.0067731222      0.0216382067     -0.4511833384
F      -5.8049656672     -3.5865101155     -1.7288971889     -0.0121244243     -0.0174089532     -0.0014360479     -0.4352192079
F      -5.4133659074     -2.9293464475     -3.7915035828     -0.0004236706     -0.0047627354     -0.0134186734     -0.4296597429
F      -6.9443885599     -1.9198616159     -2.5758675193     -0.0107690910     -0.0007664463     -0.0183954265     -0.4202116255
