45
Properties=species:S:1:pos:R:3:forces:R:3:charge:R:1 energy=-246.0303921338631 homo_lumo=4.910635123992266 dipole="-0.815677156352582 3.421845303069195 -1.1084586326433388" free_energy=-246.0303921338631
N       0.2372057606     -0.5471922173      0.6640115513     -0.0051647203     -0.0011300777      0.0124303962     -0.5147259538
C      -0.5757944333      0.7278790787      0.7862464217     -0.0074253009      0.0004342589      0.0038936778     -0.0016547741
C      -0.4843012120     -1.5211224224     -0.2614843666     -0.0108756515      0.0101793582     -0.0008806405     -0.0496420568
C       1.5729889628     -0.1638470920      0.0444526542      0.0033628102     -0.0048803273      0.0043844722     -0.0096486621
C      -2.0157064756      0.4905648501      1.2095977010     -0.0015452535     -0.0006613252     -0.0020607515     -0.1665510843
C      -1.9315015143     -1.7586466393      0.1324317115     -0.0014779349      0.0126282941      0.0066606821     -0.1755310144
C      -2.7186436257     -0.4569044803      0.2393418992      0.0170013694     -0.0024841691      0.0072584657     -0.1601129298
C       0.4623227003     -1.1567996422      2.0178569825      0.0055415116      0.0038134172     -0.0024281792     -0.0123489311
C       2.5999967337     -1.2776681985     -0.0504469925     -0.0075712282      0.0032049079      0.0062385471     -0.2740463370
C       3.7880187999     -0.8139081558     -0.8927111936      0.0014749350     -0.0028966951      0.0027518322     -0.0696152304
H      -0.5462066189      1.2005517552     -0.2092685728      0.0024671260      0.0032263067      0.0026293563      0.1283271975
H      -0.0360163650      1.3721747440      1.4961659529     -0.0033376168      0.0081599367      0.0027085352      0.1235246308
H       0.0769498314     -2.4607529798     -0.2320613014      0.0052395237     -0.0061940441      0.0034673411      0.2318729962
H      -0.4165911360     -1.0702331234     -1.2654918600     -0.0009656947     -0.0010796306      0.0075741113      0.1079997303
H       1.9593670960      0.6686969850      0.6556176005     -0.0009825027      0.0037330104      0.0068361080      0.1240761601
H       1.3286421516      0.2321145745     -0.9546885820     -0.0011009611      0.0062194575      0.0068823416      0.1216773122
H      -2.5128228142      1.4744767032      1.2397984029     -0.0015563689      0.0039750674      0.0006194127      0.1088260875
H      -2.0552659747      0.0897121734      2.2362551678     -0.0053158415      0.0033171002      0.0035008719      0.1085851068
H      -1.9694472038     -2.3326270029      1.0702484391     -0.0042306432      0.0019352507      0.0075124220      0.1453629998
H      -2.3576985294     -2.4253063878     -0.6349841259     -0.0070261043     -0.0026689181      0.0039571344      0.1180178823
H      -3.7477931497     -0.6557513361      0.5754887804     -0.0102479640     -0.0040080521      0.0117334152      0.0922898305
H      -2.7905367934      0.0256571688     -0.7532687395     -0.0023635627      0.0042873937     -0.0035817330      0.0808963349
H       1.0394752536     -2.0824614447      1.9105928254     -0.0018195663      0.0016531615      0.0075262438      0.2322355386
H       1.0038919571     -0.4246413609      2.6317584873      0.0014347041      0.0021976073      0.0020989323      0.0641616584
H      -0.5014795181     -1.3986765643      2.4729263053      0.0009599514      0.0011907662      0.0002596219      0.1196663134
H       2.9464010685     -1.5727340452      0.9495548405     -0.0019811092     -0.0073289915     -0.0060479261      0.1505249964
H       2.1617806846     -2.1800381270     -0.5017878278      0.0025384274      0.0059834373     -0.0014754608      0.1626377383
H       3.4863539610     -0.5967779910     -1.9296078852      0.0014303344      0.0124551919      0.0024247009      0.0320622981
H       4.2523358724      0.0922605013     -0.4724829064      0.0026024528      0.0084365093      0.0072776656      0.0354408160
H       4.5550741953     -1.6011517062     -0.9211231671     -0.0077604675      0.0048612766      0.0075916506      0.0702271662
N       1.2521768033     -5.8676794276      2.2415024847      0.0106762090     -0.0075588077     -0.0082793214     -0.8415109432
S       2.3959928627     -4.8655018168      2.7625908714      0.0141160702      0.0035757881     -0.0236401342      1.6365887261
S      -0.0139674287     -5.4277348518      1.3684378128     -0.0087990658      0.0088001518      0.0025301815      1.6417659913
C       1.7453625685     -4.2638612442      4.4361771767     -0.0014504283     -0.0156494616      0.0124729633      1.1593810096
C       0.5712184093     -5.5849390401     -0.4161364095      0.0160659935     -0.0132168359     -0.0177263084      1.1624771147
O       3.5709961156     -5.6450292429      3.1078502417     -0.0074389719      0.0148297211      0.0004889102     -0.7122312316
O       2.5540637539     -3.6149675146      2.0074000782     -0.0059725770     -0.0023997782      0.0048044686     -0.7916951289
O      -0.4003927184     -4.0127640178      1.4582856833      0.0110501599     -0.0116056403     -0.0073789550     -0.8007771934
O      -1.0422513417     -6.4485861521      1.4728755767      0.0203983750      0.0058442010     -0.0163722472     -0.7146163552
F       2.7131591717     -3.5296084112      5.0450923406     -0.0077632660     -0.0113566474     -0.0063448597     -0.4417474936
F       1.4090537331     -5.2887753921      5.2435656466      0.0024986285     -0.0090092034     -0.0024539285     -0.4284617383
F       0.6523616628     -3.4613764760      4.2861663877     -0.0071283752     -0.0262956668     -0.0070369818     -0.4567134844
F      -0.4866089144     -5.3580907294     -1.2444731488     -0.0021143304      0.0081176914     -0.0097713017     -0.4493116758
F       1.0689013247     -6.8079449821     -0.6743193295     -0.0038980677      0.0006127817     -0.0296481736     -0.4272588675
F       1.5279187617     -4.6589469968     -0.7168556657      0.0084549923     -0.0132477725     -0.0033875591     -0.4604245503
