35
Properties=species:S:1:pos:R:3:forces:R:3:charge:R:1 energy=-201.2478527591038 homo_lumo=1.6076842486347303 dipole="1.1045505784357867 -0.9351633329655016 -1.7472528633102575" free_energy=-201.2478527591038
N       0.6645589185      0.5259263660     -0.2452468904      0.0016691007     -0.0013278512     -0.0048365804     -0.4925264697
C      -1.7940545602      0.1959524412     -0.1641961694     -0.0004933587      0.0086813109      0.0117292317     -0.2229068779
C      -2.9911251268     -0.4824266915     -0.8226838610     -0.0054832616      0.0012340259     -0.0003876075     -0.1642634821
C      -0.4797804881     -0.2422524888     -0.7917982714      0.0017214364     -0.0102675121     -0.0098833410     -0.0047506250
C      -4.2961304085     -0.0808640121     -0.1359671050     -0.0074415040     -0.0033545173     -0.0092987428     -0.2086456351
C      -5.5318254065     -0.6630918129     -0.8145162610      0.0164004631     -0.0073924999     -0.0169723023     -0.0653560125
C       1.2079254914      0.1575691497      0.9328631054      0.0051646853      0.0060877666     -0.0084506655      0.3030901718
C       1.0598262381      1.6610975480     -0.8730363772      0.0078224231     -0.0117796217     -0.0123959042      0.2802766621
C       2.2473547804      0.8932826230      1.4808388465     -0.0031606345      0.0007389947      0.0066029614      0.0019243854
C       2.0809393971      2.4245030120     -0.3610372131      0.0158265646      0.0020740294     -0.0128502881     -0.0026594629
C       2.6926027859      2.0319427286      0.8325670336     -0.0016149332      0.0081463832     -0.0081804727      0.0420628580
H      -1.7709515632     -0.0278518766      0.9154627608      0.0000922215      0.0054358071     -0.0050055553      0.1559435997
H      -1.8801924592      1.2928731191     -0.2385656730      0.0002481195     -0.0009426471     -0.0006001947      0.1453976317
H      -2.8784145653     -1.5830145669     -0.7846312192     -0.0022122966      0.0021852093      0.0031767917      0.0759907194
H      -3.0374642099     -0.2081583332     -1.8943031614     -0.0017637087      0.0016369800     -0.0006983280      0.0749244044
H      -0.2711966297     -1.3078501544     -0.6078076977     -0.0003506328      0.0057724699      0.0009193707      0.1065047706
H      -0.4764165227     -0.0834433451     -1.8814309126     -0.0022071367     -0.0015125734      0.0001599236      0.1054691933
H      -4.3617981114      1.0209902657     -0.1133172146     -0.0134756685      0.0101831243      0.0006540435      0.1063984085
H      -4.2548551822     -0.4018110294      0.9194485987     -0.0101285857      0.0072998481      0.0085878654      0.1045000621
H      -5.6192844446     -0.3046871235     -1.8533015203     -0.0001854508     -0.0068580573      0.0022125050      0.0291540509
H      -6.4485669107     -0.3733220852     -0.2805714909     -0.0223991837      0.0003755543      0.0008218002      0.0439610667
H      -5.4907360705     -1.7642738919     -0.8420432400      0.0011637937      0.0010615159      0.0040519192      0.0300554282
H       0.8057979810     -0.7389848803      1.3954544038      0.0050951350      0.0073354708     -0.0072089228      0.1067032947
H       0.5145805121      1.9211183506     -1.7775160157      0.0101717431     -0.0085063809     -0.0016996611      0.0883927931
H       2.6553627698      0.5817899752      2.4411661251     -0.0031713826      0.0106382419     -0.0066411335      0.0664249814
H       2.3742792324      3.3368939403     -0.8780506342      0.0061706397     -0.0088833130     -0.0069206852      0.0530910144
H       3.4961491340      2.6304301932      1.2628561336     -0.0187430948      0.0183571381      0.0062266964      0.0599125164
S      -0.8826148647      2.2157236578      2.6122943767     -0.0035743931     -0.0126584648     -0.0057874246      1.7557429824
O      -0.4657749073      2.7784663869      1.3117930864      0.0016955987     -0.0086076432      0.0262961599     -0.8037612169
O      -0.3313331933      0.8559239797      2.8785648969     -0.0066229260      0.0119774243      0.0046493332     -0.7979739393
O      -2.2852868289      2.3972947304      2.9861389803      0.0208461106     -0.0013597600      0.0037984565     -0.7536653276
C       0.0697707191      3.2859375834      3.8289572170      0.0176768405      0.0046136919      0.0187247462      1.1252128723
F      -0.3378960399      4.5790256813      3.7644812245      0.0061852121     -0.0160281998      0.0103707223     -0.4404309634
F       1.4142980815      3.2657788260      3.5483411713     -0.0137378776     -0.0137833491      0.0107063953     -0.4634523382
F      -0.0826134449      2.8573790395      5.1072978854     -0.0011840577     -0.0005725959     -0.0018711127     -0.4407415170
