63
Properties=species:S:1:pos:R:3:forces:R:3:charge:R:1 energy=-345.19594253925294 homo_lumo=4.965341862824498 dipole="-3.1778044962688727 1.4319381448213022 1.5331940529307624" free_energy=-345.19594253925294
N      -0.0730224265      0.3798399733     -0.6085023226      0.0014050677      0.0015979389      0.0006616832     -0.4845428564
C      -0.9890683231      1.3262491744      0.1413441453     -0.0102563853     -0.0043825633     -0.0047880932     -0.0134452009
C      -0.7502868355     -0.0454567163     -1.9009804596      0.0062241866     -0.0186138684     -0.0070643708     -0.0441913866
C       1.1987358891      1.1181413626     -1.0118528165     -0.0043513143     -0.0030529129     -0.0185817067     -0.0771679976
C       0.2425295824     -0.8149740075      0.2800422070     -0.0017685264     -0.0000148047      0.0121388448     -0.0422989198
C      -2.3811344351      0.7573344151      0.3827388246      0.0053620682     -0.0022898709     -0.0097653878     -0.1636474798
C      -2.1120570665     -0.6721450373     -1.6672347553     -0.0026759786      0.0062359752     -0.0022586571     -0.1780813057
C      -3.0348267194      0.2898760265     -0.9174864708      0.0012682883     -0.0057921692     -0.0048090508     -0.1640452693
C       2.1148058363      1.5466182781      0.1169750006      0.0015307683     -0.0064266726      0.0142504412     -0.2271137009
C       1.0985597009     -1.8920324820     -0.3517798765      0.0002397178     -0.0093649450     -0.0186597410     -0.2620879683
C       3.2920040336      2.3324399858     -0.4725209701      0.0004341676      0.0046491287     -0.0061497863     -0.1878968698
C       1.3874477158     -2.9976364683      0.6669793779      0.0008667145      0.0001496343      0.0052113617     -0.1640523970
C       4.3585991988      2.6587133507      0.5699339005     -0.0023499912     -0.0026814894      0.0119875960     -0.2140775847
C       2.1581793281     -4.1605252464      0.0433354726      0.0017063041     -0.0092289815     -0.0116393039     -0.2390863656
C       5.5404898718      3.4159963459     -0.0301551176     -0.0124217141      0.0110167679     -0.0046282353     -0.0696780586
C       2.4917676537     -5.2487435407      1.0581344132     -0.0048951189      0.0060486734      0.0114074440     -0.0652308987
H      -1.0485884534      2.2363837335     -0.4766003661      0.0004318655     -0.0070767200     -0.0075142164      0.1290096738
H      -0.4871653381      1.5782501935      1.0851079632     -0.0021243071      0.0074678688     -0.0009356857      0.1434639781
H      -0.0445101271     -0.6987402681     -2.4327362519     -0.0081657601      0.0025007056     -0.0054740802      0.2197233022
H      -0.8518845929      0.8801221887     -2.4908692381     -0.0004655595      0.0049556309     -0.0026755776      0.1301981668
H       0.8532727032      1.9920368112     -1.5876548836      0.0005995367     -0.0076234314      0.0018159913      0.1177251085
H       1.7285602316      0.4609716320     -1.7124758138     -0.0047791302      0.0097331081     -0.0016045588      0.2524254107
H      -0.7227240346     -1.2318437895      0.5932348888      0.0013222997     -0.0046555667     -0.0024844246      0.1620294913
H       0.7258404541     -0.3954066466      1.1754326336     -0.0034180190     -0.0090203419     -0.0060452837      0.1366405364
H      -2.9775340759      1.5543212128      0.8569862708     -0.0069295120      0.0019582117      0.0003044705      0.1119466174
H      -2.3405811977     -0.0676194635      1.1129159578     -0.0002749162     -0.0075777752     -0.0002959897      0.0992696015
H      -2.0141121314     -1.6272930434     -1.1243703616      0.0028775141     -0.0075843121      0.0067220389      0.1075473158
H      -2.5288309320     -0.9236879304     -2.6560540008     -0.0003506426     -0.0043460236     -0.0042444571      0.1129951135
H      -3.2368175457      1.1675845619     -1.5585802688      0.0020798209      0.0003002022     -0.0073063781      0.0921464415
H      -4.0071684778     -0.1825726495     -0.7073134131     -0.0022978218     -0.0117696639      0.0029345649      0.0904482967
H       1.5882164955      2.1733260897      0.8580465285      0.0064002171     -0.0076357012      0.0015088521      0.0789478209
H       2.5150877076      0.6649217384      0.6418083782      0.0031852875      0.0016756739     -0.0071820734      0.1346299923
H       0.5946670306     -2.3314925486     -1.2279624600      0.0127667295     -0.0030994000      0.0037431902      0.1280884689
H       2.0545838780     -1.4925514003     -0.7169885623     -0.0023503934     -0.0063565383     -0.0051810784      0.2130192531
H       2.9178941412      3.2680779116     -0.9294327007      0.0003450153      0.0023029993      0.0080425605      0.0719277707
H       3.7410131563      1.7425127445     -1.2878910583     -0.0007067699      0.0112061821      0.0018091095      0.1847439338
H       1.9737397748     -2.5791977066      1.5070054850      0.0008973646     -0.0025546287     -0.0037143622      0.0814346251
H       0.4380927197     -3.3713641023      1.0997203403      0.0050249998     -0.0022053025     -0.0011534653      0.0633796909
H       4.7164963087      1.7145799375      1.0175214832      0.0015760350      0.0074110290      0.0000202596      0.1008027709
H       3.9085833471      3.2491210936      1.3900692172      0.0016621662     -0.0021387293      0.0019201844      0.0693676579
H       3.0843059664     -3.7825318666     -0.4182682883      0.0011099179     -0.0080037717     -0.0010498526      0.1961036389
H       1.5582417561     -4.5857484074     -0.7818819988      0.0084634194      0.0014841379      0.0040674237      0.0766918535
H       6.3033837853      3.6366514986      0.7312702283     -0.0077268573      0.0031558188      0.0095982043      0.0329650816
H       6.0181648641      2.8218277285     -0.8237392447     -0.0052046678      0.0105839093      0.0016698041      0.0601372479
H       5.2155252131      4.3712749306     -0.4732049977     -0.0035678275      0.0003923123      0.0076676591      0.0266954518
H       3.0543357198     -6.0677899532      0.5864294639      0.0026174934     -0.0034610416     -0.0104567667      0.0471224595
H       3.1140449373     -4.8461814933      1.8739651890     -0.0025049490     -0.0047730163     -0.0027450980      0.0317359087
H       1.5789203963     -5.6756065315      1.5071673868      0.0031883597      0.0008810942      0.0002535901      0.0173288336
N       3.7646459925     -2.1358314652     -2.4902457880     -0.0022747320      0.0100701061      0.0056564830     -0.8706296864
S       5.3224037368     -2.2359071890     -2.0557719388      0.0051744826      0.0080281275      0.0179826984      1.6424276515
S       3.1840834513     -1.0484326378     -3.5131712592      0.0077173311      0.0087236542     -0.0156543087      1.6073304500
C       5.5335986232     -0.9577795435     -0.6661118101     -0.0042530229      0.0175704164      0.0107992587      1.1685057531
C       3.8140531639     -1.4800276727     -5.2579041011      0.0158932732     -0.0078374169      0.0106716185      1.1766287923
O       5.4689431178     -3.4961291109     -1.3421173252     -0.0122190590      0.0075541157      0.0210478159     -0.7328933296
O       6.2830949433     -1.8199759767     -3.0668841723      0.0102994019     -0.0050291985      0.0065739160     -0.7209023419
O       3.6183695484      0.3343872918     -3.2943548853      0.0100860067      0.0202912508     -0.0084766820     -0.7564156592
O       1.7400950444     -1.3029037909     -3.6065302662      0.0007650758      0.0159092998      0.0062394266     -0.7854286304
F       6.5573557168     -1.3241056409      0.1383711706      0.0018839828      0.0058162017      0.0000815148     -0.4341328499
F       4.4071936434     -0.8772041427      0.1094983248      0.0103659078      0.0009690512      0.0114629966     -0.4750239311
F       5.7971383952      0.2733540393     -1.1522232383     -0.0035898502     -0.0054154638      0.0063290014     -0.4503679655
F       2.9164188318     -1.0096522202     -6.1622361974     -0.0150221427     -0.0039420669     -0.0086761300     -0.4390400224
F       3.9182743993     -2.8180968459     -5.4112564929      0.0013027809      0.0002917705     -0.0009960115     -0.4316432842
F       5.0055009144     -0.9087226802     -5.5049173184     -0.0101285996     -0.0069766080     -0.0123691900     -0.4224622007
