54
Properties=species:S:1:pos:R:3:forces:R:3:charge:R:1 energy=-287.2513011241705 homo_lumo=5.304813465956596 dipole="-2.718350185705594 1.194700450573943 -2.2028068884186616" free_energy=-287.2513011241705
N       0.6171242897      0.1979377260      0.4883647632     -0.1088289001      0.0148743617     -0.0890535617     -0.4970949889
C       0.3930679927      0.5000262627      1.9500449661     -0.2511319429     -0.1860833351      0.4317527972     -0.1365219233
C      -0.6827048168      0.0920732374     -0.2606727944     -0.4383069283      0.3939694955     -0.0323739375     -0.0718191687
C       1.3362060234     -1.1238460948      0.3781290287      0.3499480343     -0.2370278176     -0.4041444018     -0.1548470809
C       1.4317509592      1.3183879318     -0.1102863092      0.5382977552      0.2094726618      0.0529309273     -0.0765165489
C      -0.5165521673     -0.4716546555      2.6836721731      0.2017913709      0.2059779068     -0.4209160212     -0.0994822633
C      -1.6116469616      1.2903404002     -0.1295417876      0.3589680448     -0.3109893429      0.0240348353     -0.0796331392
C       1.7976300490     -1.5075939900     -1.0174873508     -0.3064671726      0.2638335716      0.3306083638     -0.0913715657
C       2.8398829346      1.4738523480      0.4440271892     -0.4856352995     -0.0837543628     -0.1697898827     -0.1057901700
H       1.3740641847      0.4876636782      2.4226489502      0.1719820069     -0.0147885651     -0.0182878948      0.2837159142
H      -0.0068778274      1.5145381950      2.0111605653     -0.0483383748      0.2508442088     -0.0784589371      0.1104282636
H      -0.4297341481     -0.0539631118     -1.3130241440      0.1121643741     -0.0955422160     -0.1577112735      0.1546398102
H      -1.1868131084     -0.8076291403      0.0988578238     -0.0094615510     -0.2203930496      0.0660088414      0.1428422265
H       2.1956264301     -1.0704316091      1.0419075090      0.0234124574      0.0737142216      0.1921822001      0.2994990717
H       0.6553616026     -1.8866765110      0.7588555346     -0.1527466933     -0.0586830898      0.1515646821      0.1412747626
H       1.4707145219      1.1413001935     -1.1878030443     -0.0947270160     -0.0735319349     -0.2278203612      0.1304313818
H       0.8716815415      2.2396441063      0.0650067127     -0.1958305563      0.1144087293      0.0164477288      0.1480027686
H      -0.5699148764     -0.1329101412      3.7182188375     -0.0358808399      0.0326141683      0.2917790083      0.0892811966
H      -1.5255195508     -0.4908684968      2.2752217041     -0.3674539144      0.0167860376     -0.0747569543      0.0359538584
H      -0.1085968493     -1.4799009894      2.6868520482      0.1016257672     -0.2598849157      0.0985080295      0.0800194948
H      -2.5045354207      1.0757183482     -0.7168014351     -0.2820189937     -0.0152560631     -0.1732854525      0.0725957248
H      -1.9171425265      1.4597223487      0.9007521447     -0.1456884944      0.0664205238      0.2971540590      0.0595123026
H      -1.1598121653      2.2001210568     -0.5203678053      0.0574006589      0.2919922431     -0.1428549772      0.0522649399
H       2.2976506109     -2.4718793303     -0.9257266350      0.1665282805     -0.2583162848     -0.0047294437      0.0918345860
H       0.9688696314     -1.6161470823     -1.7157793876     -0.2070011921     -0.1033163799     -0.2660841552      0.0353167737
H       2.5164497737     -0.7973973402     -1.4207705977      0.2775899539      0.1581228479     -0.1494269740      0.0500653543
H       3.3073243681      2.2989847929     -0.0936641979      0.1417903618      0.2654005478     -0.1710019498      0.0538173641
H       2.8350709947      1.7165753909      1.5038520875      0.1068676026      0.0629181687      0.2694005736      0.0844431875
H       3.4424025367      0.5821787542      0.2920029709      0.2292069333     -0.1841339854      0.0224209935      0.1122346321
P       4.3787405650     -1.3529612473      3.5201126141      0.3266025917      0.2880687287     -0.0814052269      1.6786195247
F       5.4994656019     -0.1113029091      3.4704478484     -0.0927948944      0.0013022095      0.0389842956     -0.5266694776
F       3.2691280404     -0.3327438261      2.6641050489      0.1599960541     -0.3048236166      0.1417242878     -0.5578649636
F       5.4114461761     -2.3730727459      4.3325907391     -0.1272725910      0.0793066579     -0.0214366409     -0.5164483214
C       5.1293608873     -1.9614828853      1.8088255977      0.1300467682      0.5001351364      0.9431720346      0.5197050042
C       3.8111832644     -0.5632553625      5.2225205316     -0.1993677674      0.1252586790     -1.1243836454      0.5637486688
C       2.9147898143     -2.7298528667      3.4663875006      0.8682899315      0.3217833011      0.4610570943      0.5713513601
C       6.5522706267     -1.4799264990      1.4168455550     -0.6406966691      0.0214207896      0.5009706016      1.4009157023
C       2.9723745440      0.7421640917      5.1755870870      0.3987138473     -0.6510958137     -0.3810360088      1.3893465792
C       3.0244897500     -4.1070989021      4.1715506054      0.3745686597      0.7878211406     -0.2176224526      1.4175358206
F       4.3427577293     -1.5999804450      0.7588623033     -0.4816799549      0.3395337135     -1.1567529529     -0.4824076782
F       5.1644153763     -3.3033728011      1.8186489737      0.3400037434     -1.3482596589     -0.1168947189     -0.4464813960
F       4.9154889356     -0.2764323764      5.9278274208      1.0427790151      0.3798451204      0.7574823720     -0.4378062397
F       3.1009637441     -1.4427452110      5.9518519170     -0.7139785008     -0.6587856099      0.9467795525     -0.4536104726
F       2.6324855155     -3.0090389975      2.1676999038     -0.3088502395     -0.5648121609     -1.1016176833     -0.4779413427
F       1.7918486867     -2.1396547851      3.9464098693     -1.0487242293      0.2610711058      0.4763480329     -0.4716155353
F       6.9848387291     -2.1744674155      0.3591654786      0.3069042359     -0.7484562553     -1.0382681990     -0.4572728854
F       7.4281246403     -1.6421358177      2.3969775009      0.7417032921     -0.2509747069      0.8498727415     -0.4407157567
F       6.5303874771     -0.1946179990      1.0639375935     -0.0351698667      1.1603708813     -0.4072267547     -0.4536936947
F       2.8332915103      1.2605058969      6.3932598900     -0.0587046621      0.3817273854      1.2554207519     -0.4493001764
F       3.5253920324      1.6694227464      4.3981230056      0.5866993602      0.8596143753     -0.5571659171     -0.4549984605
F       1.7376558753      0.5063282378      4.7017164485     -1.0524113369     -0.2205586040     -0.1826215859     -0.4817869884
F       1.8822328757     -4.7859869765      4.0067843645     -1.1710811023     -0.5720654094     -0.2451769227     -0.4594111552
F       3.2382908487     -3.9822736969      5.4744471833      0.1319009299      0.1226404529      1.1132237057     -0.4438639230
F       4.0066473588     -4.8345162060      3.6523876620      0.8144676530     -0.6297161936     -0.5175236229     -0.4444309580
