46
Properties=species:S:1:pos:R:3:forces:R:3:charge:R:1 energy=-247.3947335206647 homo_lumo=6.3845794255237 dipole="-2.6839585686541714 1.2685211178552218 1.1377118998334403" free_energy=-247.3947335206647
N       0.0113883551     -0.1818148962     -0.5218227085      0.0819823115     -0.0568642723      0.1910096419     -0.5325573498
C      -0.9385077173      0.7489848110      0.1636985386     -0.5185467456      0.2820862380     -0.2427671337      0.0022290735
C      -0.6135117641     -1.5420184764     -0.6564217568     -0.5283694328     -0.2958557206     -0.4442571419     -0.0119441117
C       1.2416949252     -0.3674866110      0.3378975589      0.4777902627      0.4769420041      0.0520158362     -0.0549798809
C      -2.2960405099      0.8228517475     -0.5261454373      0.1156574052     -0.4305086859      0.2539269626     -0.1524045872
C      -1.9673972357     -1.5118589607     -1.3515317844     -0.0047461478      0.2611847271      0.4947449293     -0.1616553176
C      -2.9276879392     -0.5640917124     -0.6354411993      0.2943715567      0.1731530584     -0.3494145828     -0.1531635541
C       0.3978205274      0.3377624752     -1.8622351866     -0.1194645969      0.0695929585     -0.2299404356      0.0456198225
C       2.0881367972      0.8831875673      0.5471089495     -0.1120099063     -0.5170590213      0.1613758810     -0.2092303300
C       3.3195084597      0.5035236897      1.3813516263     -0.1186573843      0.6398461289     -0.3497479473     -0.1658848631
C       4.2584152354      1.7014341477      1.5445639040      0.0729099511     -0.7691572073      0.3718960255     -0.1582054596
C       5.4883633614      1.3250874801      2.3764947555     -0.0945302214      0.6694990587     -0.2644927694     -0.1976007075
C       6.4242775750      2.5185820697      2.5566464015     -0.1460321053     -0.4332229063      0.0719058207     -0.0436015610
H      -0.4728176333      1.7358928191      0.1905643461      0.1804026199      0.1473752514      0.0561496217      0.1417213576
H      -1.0596307526      0.3863628187      1.1884636649      0.0348472563     -0.1214404567      0.2296595614      0.1222381775
H      -0.7239407748     -1.9418569137      0.3550997152      0.0233503212     -0.0220437666      0.2795272636      0.1146228783
H       0.0926908026     -2.1632511592     -1.2101143290      0.2528856055     -0.0701003836      0.0139557961      0.1961125105
H       0.8925994919     -0.7500831717      1.3008127461     -0.1928899619     -0.1025019570      0.2081796435      0.0921738189
H       1.8429781281     -1.1354799134     -0.1487114620      0.0387391730     -0.1465116727     -0.0397530311      0.2610088551
H      -2.9345618235      1.4782363785      0.0720240978     -0.1291958311      0.2710305868      0.1105980841      0.1025258066
H      -2.1966367190      1.2707728742     -1.5183508524     -0.0011909793      0.1855213114     -0.2349393859      0.0985037076
H      -1.8589551790     -1.2182322896     -2.3986742476      0.0273117740     -0.0178144767     -0.2962396220      0.1003336778
H      -2.3663098827     -2.5292384869     -1.3336791955     -0.0341317888     -0.3018210458     -0.0936891413      0.1082979437
H      -3.1462692051     -0.9474264667      0.3665400103     -0.0989116365     -0.1148646613      0.2818237840      0.0824654189
H      -3.8676558639     -0.4988099957     -1.1881176686     -0.3110257796     -0.0143277618     -0.0623184309      0.0848479680
H       0.8080124761      1.3381439012     -1.7529629597      0.0991163334      0.2429692623      0.0774695875      0.0712055752
H       1.1447423002     -0.3268333565     -2.2876371997      0.1941401872     -0.1456392210     -0.0517535172      0.1886107195
H      -0.4753878882      0.3740206725     -2.5075610891     -0.2538655472      0.0203966818     -0.0826607466      0.0846743389
H       2.4275009760      1.2757547945     -0.4132467659      0.1248121547      0.0498204814     -0.1920900860      0.1365318382
H       1.5184251262      1.6636916936      1.0618111775     -0.1012389537      0.2293119931      0.1862921720      0.0735089036
H       2.9984724597      0.1427929538      2.3644985794     -0.0497000431     -0.1084811048      0.2987993693      0.0605412425
H       3.8530759503     -0.3084239177      0.8791620677      0.0794446723     -0.1972678335     -0.1059526324      0.1655681851
H       3.7239075312      2.5268898703      2.0290113518     -0.1183429372      0.2769134410      0.1236130537      0.0652620864
H       4.5794339427      2.0440376313      0.5553472835      0.0762242622      0.1116606219     -0.2724927968      0.0913964084
H       6.0266883390      0.5123340163      1.8785749095      0.0827550976     -0.2651849437     -0.1123181659      0.0949407925
H       5.1674642012      0.9611946474      3.3587936863     -0.0841725625     -0.1575945885      0.2320104468      0.0743709935
H       6.7477025033      2.9009566392      1.5877235911      0.1291488065      0.1440947211     -0.2850048191      0.0300590924
H       5.9209092773      3.3233739599      3.0954159953     -0.1112730373      0.2768626152      0.1589028329      0.0200592921
H       7.3066910398      2.2192391846      3.1235191698      0.3143789121      0.0386656673      0.1668680274      0.0293446053
P       3.6172429791     -1.9864767804     -2.1252147782     -0.0887263476      0.1408064409      0.0736172607      2.1988111365
F       3.6603300440     -2.1942817097     -0.4752851806      0.0388636892     -0.0948991779      0.1121500854     -0.5242387883
F       1.9450120696     -2.2878924810     -2.0555938351      0.0134317166     -0.1245929261     -0.1047411726     -0.5474978577
F       3.2615390091     -0.3618356918     -1.8575551458      0.1847360927     -0.0176988778     -0.1169614102     -0.5373814535
F       3.4756569755     -1.7321631464     -3.7304839537     -0.0322339829      0.0228909949     -0.2421705619     -0.5007744956
F       5.2027124498     -1.6425284327     -2.1474486337      0.2744716880      0.0527795088      0.0001946326     -0.4944429311
F       3.8832895562     -3.5727860776     -2.3474684766      0.0374840797     -0.2579510839     -0.0329807891     -0.4920229777
