24
Properties=species:S:1:pos:R:3:forces:R:3:charge:R:1 energy=-130.2624534118986 homo_lumo=3.1033656549864976 dipole="-1.971383207981044 -0.014685718834632289 0.6272413969982376" free_energy=-130.2624534118986
N       0.2813715877      0.0251306879     -0.3049911665     -0.0036453517     -0.0019540817      0.0044643111     -0.5952721587
C      -0.8598770378     -0.2378043322      0.6173436573      0.0142286498      0.0064219348     -0.0182784429      0.0934513492
C       1.2587888919      0.9693462829      0.3486620648     -0.0088354204     -0.0084891635     -0.0012978741      0.0551006214
C      -0.1912303189      0.6620286098     -1.5816302521      0.0029110664     -0.0073553648      0.0116071465      0.0670474815
C       0.9588943137     -1.2747904104     -0.6599056615     -0.0072674150      0.0075872255      0.0063250216      0.0552000388
H      -0.4659421277     -0.7015541540      1.5316248008     -0.0173094022      0.0085940140     -0.0134868041      0.0891561548
H      -1.3513255646      0.7136227386      0.8600531088      0.0034534311     -0.0079123544     -0.0054555562      0.0768846053
H      -1.5688682942     -0.9172629302      0.1261970379      0.0043865307      0.0088988089      0.0032185049      0.0770085793
H       2.0254735237      1.1859693289     -0.4130157889      0.0031875808     -0.0134743951      0.0187467405      0.1907832420
H       0.6917657085      1.8565690876      0.6658783941      0.0225675548     -0.0079769780     -0.0077829835      0.0423219734
H       1.7291225662      0.4577359706      1.1963636001     -0.0179943828      0.0118820309     -0.0048499896      0.0747918525
H       0.7155808733      0.8149538011     -2.1918822254     -0.0111387602     -0.0027882406      0.0048500553      0.1516959342
H      -0.8999726011     -0.0191023565     -2.0717976183      0.0136162805      0.0084023454      0.0116511500      0.0611228353
H      -0.6805972456      1.6148426806     -1.3373888058      0.0103137453     -0.0190933277     -0.0016302058      0.0613341335
H       1.7282017362     -1.0230783205     -1.4072156716      0.0040412068     -0.0062741235      0.0237835870      0.1905935596
H       1.4471972368     -1.6744409862      0.2362102168     -0.0212631266      0.0004250249     -0.0085532225      0.0756889982
H       0.1823284079     -1.9528999743     -1.0431675961      0.0249875436      0.0050093649     -0.0023229416      0.0433390245
C       5.2277335024      0.2065194770     -2.2183305871      0.0090940218      0.0073834934     -0.0123500949     -0.0906534717
C       3.8594108714      0.0900267944     -1.5337719101      0.0061027340      0.0004155035     -0.0115304337      0.8627794846
O       2.8495754842      0.5402118461     -2.1923884896     -0.0108399967      0.0009648774      0.0121764545     -0.8655738472
O       3.8292144448     -0.4203969158     -0.3822013753      0.0001867541      0.0033488717     -0.0019982694     -0.8125068139
H       5.7825832231      1.0434351190     -1.7638446357     -0.0093501033     -0.0090847305     -0.0077535558      0.0378297074
H       5.8165811250     -0.7060146261     -2.0424586048     -0.0108885713      0.0105086021      0.0000709893      0.0337201261
H       5.1264806276      0.3962573026     -3.2955207384     -0.0005445696      0.0045606626      0.0003964135      0.0241565898
