46
Properties=species:S:1:pos:R:3:forces:R:3:charge:R:1 energy=-253.26308872039715 homo_lumo=0.0013186594141322402 dipole="-9.275363832559757 0.4029947411514223 -0.4556648944249883" free_energy=-253.26308872039715
N      -1.6303021301     -0.2945851773     -0.1794574834      0.1420368067     -0.3443203741      0.0986754498     -0.5455917764
C      -1.9109999787      1.1211422968      0.2118045151     -0.5882765856      1.7071172302      0.2013074768     -0.0233639584
C      -2.6417840181     -1.2126141196      0.4360711706     -1.5754349602     -0.9137315675      0.5811308758     -0.0184331624
C      -0.2923026844     -0.7135080708      0.3575096287      1.9109174667     -0.1052484729      0.2952211321     -0.0361402133
C      -3.3549432274      1.5646805879     -0.0773745345     -0.0560501553     -0.1914651444      0.0245863703     -0.1634291635
C      -4.1055467785     -0.8107989701      0.1777770170      0.0766870484      0.0862685746     -0.0323578526     -0.1695917861
C      -4.3559538512      0.6334698117      0.5974931353     -0.2921676674      0.0917918048     -0.0786636540     -0.1619896082
C      -1.6419415539     -0.4490783513     -1.6604752276     -0.0569235384      0.0010061156     -1.4024467090      0.0288223796
C       0.9284942025      0.0638421732     -0.1930152403     -0.4134939925     -0.1231531665      0.0420679369     -0.2109788782
C       2.2273174806     -0.4603433011      0.4350178825     -0.1884404826      0.0681992778     -0.0881309243     -0.1636420342
C       3.4521889554      0.2684757776     -0.1311383977     -0.0455395737     -0.3367296451      0.3161847368     -0.1665363434
C       4.7457496781     -0.2687835829      0.4926048407      0.0715105701      0.2374642566     -0.2030963889     -0.2116580806
C       5.9703131535      0.4481115455     -0.0682486754      0.2573976548     -0.0907469391      0.1539280114     -0.0992269241
H      -1.2419408837      1.8241873177     -0.3301014867      0.1025228815     -0.6057597136      0.0808679794      0.1516155566
H      -1.7208412425      1.2662776741      1.3003106953      0.0837244548     -0.4815020033     -0.3327738896      0.1381055591
H      -2.5082869043     -1.2483670682      1.5427546267      0.3616850383      0.3013379410     -0.4208708905      0.1406199058
H      -2.4980325061     -2.2548410583      0.0685423312      0.3854220608      0.4444829761     -0.0854912478      0.1297474167
H      -0.2801635918     -0.6107838554      1.4677648853     -0.4322221030      0.0909096467     -0.3834634315      0.1393884623
H      -0.1246667594     -1.7956415378      0.1469753954     -0.4360164043      0.3506021295     -0.1001912208      0.1437231665
H      -3.5016421488      2.5947008698      0.3139015252      0.2778488165     -0.1866366438     -0.1656738242      0.1182926926
H      -3.5417155239      1.5988434449     -1.1718065181      0.0570364667      0.0470707060      0.2295828610      0.1051518920
H      -4.3817414630     -0.9556158696     -0.8871877872      0.0823615584     -0.0010579038      0.1952434182      0.1011354450
H      -4.7698388558     -1.4757168180      0.7714864819      0.3032909326     -0.0563728392     -0.1573247313      0.1175693592
H      -4.2631859283      0.7230524417      1.7025682873     -0.0646683904     -0.0006513943     -0.2350046085      0.0945173008
H      -5.3883159597      0.9287091589      0.3115308378      0.1933385564     -0.0501620517      0.1956946849      0.0987149948
H      -1.0142078767      0.3210121079     -2.1571267884     -0.0583356021     -0.2345575793      0.4865885715      0.1111859696
H      -1.2735377164     -1.4552288934     -1.9611825827     -0.0629704439      0.3049726773      0.4160077772      0.0993416033
H      -2.6544581660     -0.3289551975     -2.0914509661      0.1374941535     -0.0339426559      0.4912404028      0.1247950250
H       1.0041131249     -0.0625810771     -1.2928518002     -0.0467737756      0.1298094316      0.2323677246      0.1170710544
H       0.8414473741      1.1441224506      0.0444636789     -0.0154080642     -0.2067909495     -0.1585479775      0.1157263270
H       2.1883195829     -0.3128177602      1.5372732794      0.0467094253     -0.1436936839     -0.2227345970      0.0940310111
H       2.3221312469     -1.5494439013      0.2281533372      0.0076585139      0.2117884384      0.1490325422      0.0964360658
H       3.3638570854      1.3568114483      0.0821045674      0.0290450705     -0.1973316948     -0.1431150268      0.0846808891
H       3.4890850008      0.1259682767     -1.2339101744     -0.0080801936      0.1264527917      0.2095870799      0.0875251420
H       4.8399204505     -1.3568894523      0.2829608548     -0.0794423574      0.2090601454      0.1605710217      0.0958379736
H       4.7178566956     -0.1239446488      1.5946511014     -0.0739693794     -0.1496318706     -0.2032613127      0.0853916458
H       6.0570453259      0.2669077311     -1.1609788627      0.0818987426      0.1109481053      0.3230402959      0.0346215537
H       5.9003769202      1.5406486873      0.1198817085      0.0528925205     -0.2527550073     -0.1100870359      0.0172207996
H       6.8839016005      0.0625501126      0.4300033037     -0.0153724763      0.1337910291     -0.3329597277      0.1321009673
C      10.1413063826     -0.6857594032      0.3608769710     -0.9336258508      0.1504469774      0.7668527089      0.8439200587
O      10.0184687950     -0.0287078363      1.3824573813      1.3100039824      2.4912048438      2.7375615411     -0.7517708819
O       9.2005833547     -1.3460484913     -0.0486649446     -1.8295643787     -2.5523590886     -2.7832047910     -0.7812251570
C      11.4367160511     -0.6855168253     -0.3924209222      0.0942475218      0.0818712994      0.2629587978      1.2464805544
F      11.9019171561     -1.9822936760     -0.5097690922      0.4233679271      0.6078711419     -0.3007982109     -0.4639419009
F      12.3840047098      0.0756604846      0.2699219088      0.0815611161     -0.5192757611     -0.8875055461     -0.4605358458
F      11.2346327256     -0.1576850338     -1.6540966441      0.7021170891     -0.2065913900      0.1774042021     -0.4657150569
