34
Properties=species:S:1:pos:R:3:forces:R:3:charge:R:1 energy=-190.2509893685562 homo_lumo=3.9568759567065706 dipole="-2.444713429350027 0.7684509724762832 -0.6906702015542306" free_energy=-190.2509893685562
N       0.7687425418      0.0678924215     -0.1603819906     -0.0007626760     -0.0009508798      0.0010508604     -0.4919127203
C       1.5284446829     -0.6114734986     -1.2956494202      0.0021482264     -0.0039950745      0.0010718965     -0.0267565111
C       1.7446148864      1.1398559978      0.2959387914     -0.0031795760      0.0005755267     -0.0034878960     -0.0340482401
C       2.2571326541      0.5122031597     -2.0235327604     -0.0036759805      0.0002977152      0.0003881553     -0.1395124017
C       2.4738390202      1.6175528994     -0.9605096780      0.0003214010      0.0021738694     -0.0021653009     -0.1616347272
C       0.4985159797     -0.9018685441      0.9734865856     -0.0059279806     -0.0016185386      0.0022152946     -0.0991155832
C      -0.4905606158      0.7079047826     -0.7013337371     -0.0012715133     -0.0017094579     -0.0032241957     -0.0605876398
C      -0.4321618670     -2.0354283686      0.5956824510     -0.0020383185      0.0028969123     -0.0022280075     -0.0950940155
C      -1.3816721735      1.3429540542      0.3497690200     -0.0027789325     -0.0044128138     -0.0100517953     -0.0988785919
H       0.8115303346     -1.1693047461     -1.9123126189      0.0037525810     -0.0050883675      0.0020591117      0.0884127448
H       2.2469220931     -1.2954185758     -0.8051286287      0.0059451823     -0.0023746746      0.0035900025      0.2170643060
H       2.4252309917      0.6480155151      0.9965979679     -0.0034641223     -0.0006768098      0.0018399067      0.2375128790
H       1.1921413699      1.9188646473      0.8349622662     -0.0048768393     -0.0006491929      0.0050183086      0.1097442143
H       1.6794896592      0.8895379133     -2.8816183823     -0.0039608676     -0.0046477927     -0.0064407452      0.0618711896
H       3.2220183200      0.1266410096     -2.3814983840     -0.0010075740      0.0030212063     -0.0073854436      0.1269421724
H       3.5428366831      1.7175712544     -0.7257473036      0.0027437764      0.0034848029     -0.0013288070      0.1456198251
H       2.0910649850      2.5892924149     -1.3066175627     -0.0013726574      0.0023955075     -0.0028542979      0.0635743803
H       1.4945051187     -1.2986466098      1.2465058258      0.0017399056      0.0039212827      0.0020074189      0.2305338161
H       0.1058369089     -0.3052364352      1.8094902214     -0.0065915702      0.0065318438     -0.0017924795      0.1193052758
H      -0.1569229789      1.4549426800     -1.4361464924      0.0078763986     -0.0076522244     -0.0097926242      0.1631254666
H      -1.0328344094     -0.0778143644     -1.2464430372      0.0094736495     -0.0107611716     -0.0076166167      0.1347048026
H      -0.5309863097     -2.6913191289      1.4736781140     -0.0078791710     -0.0016433513     -0.0018574624      0.0800874237
H      -1.4427831037     -1.7046263767      0.3121816567     -0.0001310848      0.0000286831     -0.0018733224      0.0324912547
H      -0.0094441596     -2.6471763914     -0.2139993994     -0.0046064290      0.0024025428     -0.0036786419      0.0677936579
H      -2.2088042328      1.8571276098     -0.1625856123     -0.0046511320     -0.0095065413     -0.0179267017      0.0732530172
H      -1.8213040055      0.5982861412      1.0270264839     -0.0016545205     -0.0017258285     -0.0044173800      0.0619720398
H      -0.8544650854      2.0963645005      0.9516501618     -0.0065177036     -0.0025136834     -0.0089576894      0.0575593095
C       4.1902289585     -0.9726476804      0.7137701872     -0.0012841682      0.0095889787      0.0063257779      0.8460840129
O       4.6834852144     -0.4509582842     -0.3061685683     -0.0135542595      0.0243019872      0.0067088099     -0.7724059422
O       3.3557598664     -1.9116071533      0.8412491354     -0.0020697451      0.0015649020      0.0148856027     -0.8093624253
C       4.6302506693     -0.3184017668      2.0775307898      0.0135925822      0.0026025976      0.0181742277      1.2655265189
F       3.6127736075     -0.3316317396      3.0108882238      0.0122346647      0.0015989911      0.0150335995     -0.4730864832
F       4.9784054974      1.0011631377      1.9367118597      0.0193079253     -0.0006224651      0.0145894165     -0.4647565866
F       5.6942536851     -0.9590444841      2.6421212356      0.0041205290     -0.0068384817      0.0021210179     -0.4560264387
