41
Properties=species:S:1:pos:R:3:forces:R:3:charge:R:1 energy=-220.78080757335917 homo_lumo=0.38805405886781463 dipole="-6.958275542262556 -2.7034224594344285 -1.8406774840895321" free_energy=-220.78080757335917
N      -0.1125898917      0.0270491729     -0.0726565101      0.0975793943     -0.1905479816     -0.3134575042     -0.5237896155
C      -1.0293565588      0.5412358053     -1.1417644489     -1.3227751783      0.6663216307     -1.0698997168     -0.0302066182
C      -0.6314186868     -1.2932370043      0.4137772724     -0.8746119642     -1.4258589685      0.8365571908     -0.0347896773
C       1.2234202324     -0.1939224506     -0.7265285019      1.8416065165     -0.3618405431     -0.2807103065     -0.0547135595
C      -2.5013586486      0.6486527314     -0.7099201080      0.0509349962     -0.0281782205      0.0428868043     -0.1797049725
C      -2.1043175152     -1.2612848008      0.8699453104     -0.0220587476      0.1578204221     -0.0636092559     -0.1703662154
C      -0.0108852806      0.9836540942      1.0846352200      0.2762612665      1.3738666005      1.1823267267     -0.1034095924
C      -3.0136355569     -0.7013190514     -0.2193828188     -0.3207818234      0.0038376926      0.1365663504     -0.1677631476
C       2.3610178699     -0.6668592573      0.2106526178     -0.2848603912      0.1283975189      0.1526095749     -0.2744535826
C       0.6021638910      2.3594388267      0.7639192628      0.0337492868     -0.2323890019     -0.2442603879     -0.1377185145
C       3.6522844641     -0.8894875208     -0.5737098753      0.0579539481      0.0253460442     -0.2656931543     -0.0999427335
H      -1.0031859178     -0.1378633571     -2.0264138531      0.3585558523     -0.0328033586      0.5525584393      0.1519050254
H      -0.6961696417      1.5286669448     -1.5240609266      0.3133388414     -0.3402369997      0.4123937746      0.1635027036
H      -0.0369393640     -1.6611350027      1.2776804386      0.1566064361      0.4390769165     -0.4533024547      0.1660677138
H      -0.5460099704     -2.0647390070     -0.3861745510      0.1948639919      0.5960401382      0.0163526019      0.1472896136
H       1.5607518748      0.7327682682     -1.2426512904     -0.4155265013     -0.1114026598      0.3483928815      0.1668461273
H       1.1265298509     -0.9525343851     -1.5379851166     -0.4352051756      0.2403043826      0.3769613958      0.1507039586
H      -3.1105086117      0.9639582536     -1.5844596885      0.3521885694      0.0717570920      0.1593627259      0.1247056355
H      -2.6369346554      1.4250743945      0.0706825049      0.0579666267     -0.1233081947     -0.1617869790      0.1143759573
H      -2.2172601983     -0.6709379848      1.8029834467      0.0754636682     -0.1331827834     -0.1717966445      0.1124825276
H      -2.4294352462     -2.2975907052      1.1062228895      0.3361067047      0.2292640402      0.0323721200      0.1276679025
H      -1.0036608190      1.1801352484      1.5331743998      0.0290000718     -0.4329909323     -0.4891517106      0.1770334066
H       0.5774299554      0.5326809151      1.9128286359     -0.0743605729     -0.2743892706     -0.5928032095      0.1694876273
H      -4.0435243195     -0.5836503665      0.1812935504      0.2325135258     -0.1310588848     -0.2040114929      0.1067797537
H      -3.0549103083     -1.4154025643     -1.0713486335     -0.0310453579      0.1540509225      0.1624485304      0.0979994674
H       2.5671027193      0.0910435379      0.9917688738     -0.0891718951     -0.1808054001     -0.0985827883      0.1662346497
H       2.0986798098     -1.6239583390      0.7040036321     -0.0951081933      0.2399954656     -0.0085434679      0.1076797118
H       0.6365422530      2.9600382272      1.6973922752     -0.0157096228     -0.2896766097     -0.2292902796      0.1069770165
H       1.6430761576      2.2765790309      0.3942857368     -0.2630559990      0.1163082776      0.0990484912      0.1091361544
H      -0.0163327402      2.9244712301      0.0392183817      0.2274267582     -0.1089635349      0.1319261346      0.0656524548
H       4.4546656286     -1.2271504428      0.1157410689     -0.2282377212      0.1961726135     -0.2876490298      0.1003680687
H       3.5043707570     -1.6708423080     -1.3490851423      0.1263356996      0.2246220332      0.1474858830      0.0445711065
H       3.9771997273      0.0550748232     -1.0602745019      0.0602656007     -0.3469646887      0.1471454963      0.0778330045
S       6.7589862628      2.7428632745      2.0641981324     10.2556350812      3.6824072938     -1.4370513051      1.5451274732
O       7.1105314760      4.0541130104      2.7814490814     -3.1231938088     -1.5645646984      0.1546463412     -0.7518298734
O       7.8736872709      1.7883934706      2.5163421433     -3.3973875870     -0.7247421123      0.2757872830     -0.7542061160
O       7.1252147954      3.0353932053      0.6018901606     -3.1363177275     -1.1673369642      0.8811724305     -0.7621585782
C       5.0694419584      2.1369780443      2.3322272929      0.2009467705      0.1701099058      0.3948072019      1.0979384624
F       4.1619968037      3.0582209934      1.8454325979     -0.1390926053     -0.8182776008      0.3353794550     -0.4544357562
F       4.8531273725      1.9467253679      3.6832349296     -0.4556048851     -0.0727868249     -0.9799602144     -0.4356963642
F       4.9082597833      0.9378296187      1.6703013432     -0.6111938493      0.3766072432      0.3723720688     -0.4631806056
