40
Properties=species:S:1:pos:R:3:forces:R:3:charge:R:1 energy=-221.9133673572455 homo_lumo=3.5836728831013573 dipole="-0.090367094253495 -1.917484765484167 0.1035967460513005" free_energy=-221.9133673572455
N      -1.3375114244      0.0802162475      0.1435308950      0.2075521761     -0.0287535720     -0.0761546807     -0.5006972379
C      -2.6222157375      0.3030184620     -0.6205323123     -0.5476720063      0.1182581973     -0.2305077829      0.0286793405
C      -1.5452231212      0.7621419709      1.4705881339     -0.4472732074      0.1627251641      0.4896783816     -0.0354424504
C      -0.2045453683      0.7281304533     -0.5993620194      0.6838594622     -0.0680465200      0.1077906778     -0.0511301568
C      -3.6622591804      0.8125992006      0.3778232666     -0.0626631850     -0.0510088261      0.0005273182     -0.1277277672
C      -3.0298710272      0.6267694063      1.7545143845      0.1733920312     -0.1111412217     -0.2047420128     -0.1302722223
C      -1.0984241087     -1.3799597871      0.3803345640      0.1235934961     -0.4053738808     -0.4085847795     -0.0513827354
C       1.1351824294      0.6541800429      0.1273914035     -0.2838042561      0.2927495553     -0.5005406523     -0.1948850558
C      -0.7634792322     -2.1782391485     -0.8726089695     -0.0703383785      0.2912044837      0.3668710657     -0.0752448540
C       2.0660835991      1.7349450144     -0.4374422368      0.1888547180     -0.3455886871      0.3965295666     -0.2072980033
C       3.4431222956      1.6758418647      0.2177333849     -0.3383320016      0.0399534181     -0.2969006695     -0.0445688383
H      -2.9210423481     -0.6297626900     -1.0991503229      0.0418378964     -0.2989193297     -0.0236331825      0.1035566473
H      -2.4293684491      1.0620682694     -1.3800790375      0.0845312832      0.1875089372     -0.0465936789      0.1495077777
H      -0.9141937304      0.2971471221      2.2276938751      0.2059160563     -0.1494903668      0.1083558974      0.0745756171
H      -1.2578329675      1.8152111042      1.3374618606      0.1868561110      0.2776213717     -0.1632120208      0.2515071345
H      -0.1439129788      0.2632126081     -1.5857892045     -0.0471212782     -0.1787137099     -0.2247925510      0.0967857813
H      -0.5005276427      1.7731960312     -0.7184885909     -0.2124803942      0.2099763530      0.0899701820      0.2543953500
H      -3.8318118033      1.8752059651      0.1877525980      0.0695927766      0.2119270108     -0.0961917525      0.1386945365
H      -4.6055542698      0.2727552861      0.2805567134     -0.2690732687     -0.1426221040     -0.0145702590      0.0466028307
H      -3.2683231460     -0.3574668010      2.1704501574     -0.0857103643     -0.2224958674      0.1654194553      0.0567233840
H      -3.3579495385      1.3906525871      2.4600333663     -0.0739522953      0.1699465362      0.2473278408      0.0820245878
H      -0.2749681855     -1.4630541341      1.0938616957      0.1273470414      0.0602007239      0.1852586518      0.1375672751
H      -2.0032103320     -1.7777357769      0.8469538961     -0.2074450395      0.0019216139      0.1583951928      0.1379330615
H       0.9968896911      0.8433446198      1.1942314794     -0.0168913477      0.1127181284      0.2761302242      0.1188566127
H       1.5878483903     -0.3366327131      0.0113493615      0.1949589085     -0.2743993127      0.0169269483      0.0740351667
H      -0.7642695307     -3.2352901988     -0.6065452122      0.0070727965     -0.3320945484      0.0350936776      0.0581925598
H       0.2242616957     -1.9241571144     -1.2533228665      0.2809650764      0.0542400822     -0.1358224209      0.0579511934
H      -1.4959615523     -2.0241709994     -1.6631326376     -0.2112399280     -0.0083727565     -0.2592477939      0.0482902399
H       2.1665143337      1.6043779263     -1.5202943968      0.0073255029     -0.0212650971     -0.3086040890      0.0618497177
H       1.6086655258      2.7114086956     -0.2497525364     -0.2145217908      0.1728546336      0.0180082609      0.1525887672
H       3.9177794004      0.7096593559      0.0355877724      0.2126160259     -0.2794790410     -0.0171275116      0.0123477558
H       3.3595287185      1.8244228269      1.2952195120      0.0101704794      0.0589369299      0.3330645790      0.0282141419
H       4.0815320332      2.4590108381     -0.1914418544      0.2842499502      0.2111528663     -0.0513566123      0.0317308873
C      -1.6123726644      5.3995248811     -0.0366520421      0.0554270700     -0.5383225609     -0.1109084730     -0.0753822550
C      -1.3779216983      3.8730580064     -0.0118051784     -0.1605697017      1.2203073029     -0.0763427839      0.9235394030
O      -2.1579599890      3.1646258763     -0.6866605696     -0.7963179255     -0.6541919583     -0.7173583019     -0.8500973312
O      -0.4295504175      3.4601310871      0.6939316056      0.9326116000     -0.2652213053      0.8442729524     -0.8543558591
H      -2.2722881964      5.6682071774     -0.8594230464     -0.2131926080      0.1287519868     -0.2190853559      0.0200606612
H      -2.0733839014      5.6916516172      0.9068087584     -0.1079469160      0.1703014886      0.3006714841      0.0263323059
H      -0.6581646149      5.9145771190     -0.1320013657      0.2878154347      0.2222438819      0.0419850082      0.0259420302
