40
Properties=species:S:1:pos:R:3:forces:R:3:charge:R:1 energy=-218.8368198020551 homo_lumo=0.0025455505393397033 dipole="-5.834451281478707 -2.601382294924611 0.8073147279744809" free_energy=-218.8368198020551
N      -0.8839141957     -0.1632538369      0.0480838993      0.0312760366     -0.1500460848     -0.0177302020     -0.5230850721
C      -2.0185163627     -0.2762888652     -0.9190207812     -1.5890762054     -0.6049446769     -1.5628630515      0.0063023589
C      -1.2151050286      1.0223292262      0.8974142496     -0.0577776712      1.8961382364      1.4022514467      0.0008474167
C       0.3900749352      0.0790106269     -0.7048349619      1.7506020161      0.0951324053     -0.3622119220     -0.0426334978
C      -2.8478276951      0.9899124059     -0.8305374686     -0.0323686807      0.4657007489     -0.6619048894     -0.1245871162
C      -2.6344468170      1.4571488330      0.5814140976     -0.5132723045      0.0135890995      0.5878951555     -0.1223362137
C      -0.8140649093     -1.3903458343      0.9055976455      0.3552314134     -1.6819262172      0.7321702382     -0.0740044839
C       1.6539660825      0.1805794093      0.1843428277     -0.4426323890     -0.0814162146     -0.1611150843     -0.2177671730
C      -0.4584190080     -2.6812787240      0.1446233057      0.0996169154      0.3200177681     -0.1411825372     -0.1162292356
C       2.8689449727      0.6166352195     -0.6440458467     -0.0069838021      0.0028667680     -0.0321038285     -0.2172788113
C       4.1277108537      0.6968277717      0.2157703455      0.1627888163      0.0118967381     -0.0540367533     -0.0952817673
H      -2.6994831045     -1.1231307107     -0.6712550525      0.5919343922      0.0797868985      0.2999301256      0.1203078000
H      -1.6862614826     -0.4380318883     -1.9697997937      0.3085001167     -0.0675503324      0.5575132809      0.1267714785
H      -1.1175778146      0.8216703737      1.9887206102      0.2320674145     -0.3196556204     -0.4837735786      0.1223561757
H      -0.5567413311      1.8945229648      0.6791099833      0.1232729270     -0.7063150681     -0.2059795439      0.1477591545
H       0.5583922427     -0.7260708597     -1.4546370686     -0.3753391649      0.1246431567      0.3919351404      0.1577203527
H       0.2962573598      1.0199156321     -1.2960057737     -0.3663302423     -0.2443631842      0.3559235934      0.1441751720
H      -2.4580870176      1.7484506018     -1.5448110574     -0.2046573905     -0.1773515045      0.1246065454      0.0919208402
H      -3.9231801405      0.7972858835     -1.0388581242      0.3301232096      0.0175638452     -0.1435675889      0.0760678155
H      -3.3484293313      0.9434203805      1.2626008903      0.1116873434      0.2050718162     -0.1217972779      0.0752037385
H      -2.7614397878      2.5584415163      0.6694571121      0.0514480114     -0.3406464355      0.1828311929      0.0862737432
H      -0.0758171940     -1.2577780950      1.7267342940     -0.1755739526      0.3570201313     -0.4613239158      0.1634340519
H      -1.7929460524     -1.5525672091      1.4129663790      0.0859694546      0.5166986837     -0.3546872252      0.1214676391
H       1.4992019368      0.9092417052      1.0077114644      0.0214501612     -0.1758709997     -0.1285712866      0.1176186469
H       1.8796965537     -0.8085642979      0.6349511936     -0.0884583126      0.2334840098     -0.0014807229      0.1241415339
H      -0.5760658070     -3.5497558848      0.8264948752     -0.0201792771      0.3075726593     -0.1309673209      0.0823760073
H       0.5966147667     -2.6676581831     -0.1962409323     -0.3158770905     -0.0431939566      0.0375673003      0.0819468086
H      -1.1221588026     -2.8394374279     -0.7294858702      0.1895512158     -0.0183252320      0.2289850040      0.0665807282
H       3.0414399291     -0.1129393716     -1.4656099640     -0.1308935401      0.2273939403      0.0753636310      0.0906721094
H       2.6785512776      1.6157992201     -1.0936036265      0.0250286020     -0.2694454090     -0.0051179349      0.1084589172
H       4.3392591595     -0.2870908318      0.6864943085     -0.0266223644      0.2700237175     -0.0710966478      0.0218930831
H       4.0045404406      1.4648324877      1.0091679974      0.2044908753     -0.2266788069     -0.2557510404      0.0575156276
H       4.9935591801      0.9782421341     -0.4196460136     -0.1403371957      0.1077063690      0.3878866319      0.1230977322
C       6.4364182598      5.1597066241     -2.0291292561     -0.5858805064      1.0277393564     -0.3789330573     -0.1876717968
C       6.9940148105      3.9325305475     -1.3787962688     -0.0778785579      0.4825209667     -0.4238971468      0.8724659535
O       7.9354682320      3.3469471511     -1.8887199418      3.0115085144     -1.0105113161     -2.6606490820     -0.7486326148
O       6.5118698004      3.5133314343     -0.3386374475     -2.7007644581     -0.6154329659      3.6128119219     -0.7808814145
H       7.2269092339      5.9361597078     -2.1002355841     -0.2300681246     -0.1656495242     -0.1352655545      0.0350404733
H       6.0778480829      4.9104955879     -3.0497276114      0.1757306012      0.1813300933      0.1614806523      0.0209442499
H       5.5864279147      5.5651027505     -1.4394213918      0.2186931935     -0.0445738595     -0.1831446680      0.0070295888
