40
Properties=species:S:1:pos:R:3:forces:R:3:charge:R:1 energy=-221.98775627578354 homo_lumo=3.477414779528241 dipole="0.8941656634706909 1.8887623248668364 -0.5947080862364913" free_energy=-221.98775627578354
N      -0.2133827130     -0.7825804291      0.3693301434     -0.0065532761      0.0032479148      0.0042298680     -0.4847237472
C      -1.3365710004     -1.5250083008     -0.3882059825     -0.0006809257     -0.0069750150     -0.0002007882     -0.0404354570
C      -0.9328166117      0.2708296831      1.1946711622      0.0015702160      0.0058148988      0.0163060068      0.0044642805
C       0.7383453351     -0.1532507370     -0.6097682784     -0.0090297025     -0.0044875858     -0.0122357877     -0.0066075945
C      -2.6605521853     -1.0121516881      0.1878484584      0.0024133302      0.0160639483     -0.0056466720     -0.1413406299
C      -2.2728862288     -0.3591261636      1.5183205768     -0.0063090299     -0.0069764050      0.0043654725     -0.1459684745
C       0.4884758157     -1.7519313001      1.3206597189      0.0133564362     -0.0010140071     -0.0052566282     -0.1185585796
C       1.8789607051      0.6254151095      0.0208978483      0.0002110992      0.0072459193      0.0011631786     -0.2018346899
C       1.3594657896     -2.7724822544      0.6214486032     -0.0240591627      0.0062848471     -0.0090128198     -0.1036111072
C       2.7644869188      1.2533965448     -1.0573998189      0.0053884859      0.0008752102     -0.0010692285     -0.2038411009
C       3.9239826564      2.0473264729     -0.4636453478     -0.0014970752     -0.0016468389      0.0062240725     -0.0686046064
H      -1.2293789342     -2.6179148725     -0.1795622543      0.0006674638     -0.0003833487      0.0014763269      0.2556055916
H      -1.2123935687     -1.3074742070     -1.4573118889      0.0006122792     -0.0012678360     -0.0057005435      0.0695726826
H      -0.3159159300      0.5368363094      2.0627812577     -0.0006758125     -0.0169238905      0.0038487351      0.1055191286
H      -1.0528872317      1.1533774583      0.5454705191     -0.0104801327      0.0023646033     -0.0043999389      0.1112235358
H       1.1231815043     -0.9685372421     -1.2402485305     -0.0015240673      0.0074299515      0.0042736357      0.1532389558
H       0.1254942007      0.5035047319     -1.2496978449      0.0076290259     -0.0056839270      0.0119049466      0.1163677001
H      -3.1363157361     -0.2789003485     -0.4850024323      0.0084872591      0.0020640206      0.0000362558      0.0629414252
H      -3.3477271284     -1.8564293041      0.3435796753     -0.0047801731     -0.0030134199     -0.0075821403      0.1125290116
H      -2.1639970879     -1.1485669746      2.2789141929     -0.0027381415     -0.0142128043      0.0088610012      0.1583717341
H      -2.9957052380      0.3938261754      1.8659151974     -0.0081043730     -0.0038508150     -0.0059131669      0.0630073177
H       1.0677855665     -1.1288513302      2.0188978309     -0.0026999117     -0.0012728222     -0.0040556663      0.0895352200
H      -0.3371408399     -2.2799100598      1.8556156120      0.0082710586      0.0056955958      0.0052299978      0.2551798372
H       1.4847981720      1.4222346689      0.6759622466      0.0030395036     -0.0054588737     -0.0080281196      0.1072856153
H       2.4933387051     -0.0394874978      0.6509501111     -0.0077718989      0.0062346345     -0.0047708977      0.1246094273
H       1.7397222677     -3.4517529146      1.3997102878      0.0091809378     -0.0122287542      0.0020108052      0.0729886233
H       2.2277774016     -2.3382025780      0.1019956995     -0.0036526861     -0.0035256817     -0.0054768563      0.0212836877
H       0.7597053128     -3.3950593680     -0.0591280805      0.0047878713     -0.0102799077      0.0016581564      0.0896169081
H       3.1576185591      0.4575498389     -1.7157697550     -0.0078677319      0.0013059142      0.0069327364      0.0950866134
H       2.1514109127      1.9138898899     -1.6973875764     -0.0032166208     -0.0021490444      0.0024985391      0.0881739737
H       4.5716128932      1.4010431558      0.1501233356     -0.0010313330      0.0005683987     -0.0037651202      0.0406092103
H       3.5556800153      2.8625112690      0.1792381945      0.0009782857      0.0038723514     -0.0021692463      0.0380005225
H       4.5436513408      2.4942218662     -1.2543778065      0.0181045550      0.0102161675     -0.0035502378      0.0460158611
C      -2.4585247087     -5.6513853905      2.0984337344      0.0063398749      0.0071275548     -0.0069962406     -0.0938880654
C      -1.8463597433     -4.3416329064      1.5852674589      0.0022620477     -0.0079093454      0.0063337925      0.9032822394
O      -1.4194440235     -4.3585259947      0.3888125894      0.0102791926      0.0027361740     -0.0044247107     -0.8309696834
O      -1.8089908986     -3.3602132853      2.3943638263      0.0085079155      0.0099191635      0.0044532193     -0.8437973223
H      -3.2563557583     -5.9826658962      1.4163149946     -0.0001273289      0.0055055160      0.0013138305      0.0347449141
H      -1.6865067294     -6.4368791820      2.0897201587     -0.0047475763     -0.0020425229      0.0026806317      0.0390722187
H      -2.8556884944     -5.5400464565      3.1157985061     -0.0045398785      0.0067300609      0.0044536009      0.0258548223
