33
Properties=species:S:1:pos:R:3:forces:R:3:charge:R:1 energy=-187.60932504113927 homo_lumo=0.0006949704908348327 dipole="3.3434481214327816 2.583624235085611 -3.5360148285109503" free_energy=-187.60932504113927
N       1.1089454093     -0.0139397129      0.5513160813      0.7197398228      0.0247737114      0.0640593906     -0.5206803262
C      -1.2475144438      0.0077908701     -0.1334159102     -0.0789750726      0.0239192814     -0.0248881795     -0.1980317307
C      -0.2720774418     -0.0199478773      1.0476808866     -1.0098447699     -0.0918013874      0.3762407164     -0.0427667198
C      -2.7022915777      0.0135323092      0.3444482434     -0.0477907025     -0.1068110557      0.0855745233     -0.2441123911
C      -3.6696675768      0.0338146838     -0.8347114167     -0.1116674537      0.0558731317     -0.0804306777     -0.0884179219
C       1.7399135638      1.1770787826      0.3155050315      0.8179206110     -0.4903682586     -0.4155562689      0.2652476924
C       1.7331600853     -1.1979628970      0.2675386597      0.7508116959      0.4647308178     -0.3701423071      0.2709735549
C       3.0267662581      1.2022889961     -0.2270716008     -0.6224519119     -0.5649214329      0.2208477071     -0.0084551595
C       3.0199514824     -1.2083327635     -0.2758360071     -0.5829630083      0.6155926594      0.2214714754     -0.0051597063
C       3.6664368923      0.0007799968     -0.5276345582     -0.2480439110     -0.0229308641      0.0987855806      0.0489304298
H      -1.0697855466     -0.8853212859     -0.7721081386     -0.0114187724      0.2134241402      0.0826435147      0.1179360007
H      -1.0555803343      0.9185500009     -0.7421427147      0.0364948622     -0.1998849169      0.0134162301      0.1009624312
H      -0.4542797406     -0.9257618442      1.6684961830      0.2464111272      0.2019161266     -0.1746822309      0.1965090015
H      -0.4485355190      0.8610562283      1.7046996523      0.3450679495     -0.2652885966     -0.2312631648      0.1392622527
H      -2.9008115324     -0.8940438882      0.9497423809      0.1153626759      0.1817310257      0.0712573059      0.1828522730
H      -2.8857464334      0.9067692020      0.9797849078      0.0860285204     -0.2356232132     -0.0204990704      0.0916929200
H      -4.7137785363      0.0299631057     -0.4572656944      0.2802122429     -0.0149191797     -0.2150206332      0.0686465811
H      -3.5147117392      0.9486047300     -1.4452460455     -0.1238262207     -0.2687298080      0.0456643966      0.0311674349
H      -3.5200278457     -0.8634290363     -1.4726589612     -0.1177898748      0.2871276010      0.1233912310      0.0487581866
H       1.2433522817      2.1156624626      0.5320090051     -0.4684315413     -0.1193182452      0.2332468368      0.1155441305
H       1.2312072399     -2.1416669625      0.4460924270     -0.5049124512      0.0794203132      0.2777977417      0.1337358515
H       3.5189396894      2.1465177232     -0.4211179841      0.0081295126      0.2974219196      0.0255943850      0.0725146315
H       3.5068964325     -2.1466028987     -0.5080426843     -0.0032102592     -0.3030529731      0.0217538394      0.0777594317
H       4.6590686660      0.0067916587     -0.9588788044      0.2952557049      0.0023047941     -0.1070118880      0.0705780565
N      -3.3265445768     -3.1348991606      4.7843351052     -0.0452314534      0.0171191056     -0.0734318118     -0.8273684957
S      -3.1835117313     -3.8913216339      3.3405949347     -2.0685012564      2.9506321771     -2.4921930805      1.8648364971
S      -2.0817038790     -2.2866172594      5.4230063344      1.8776833927     -3.6645451195      3.1567938057      1.8380189258
F      -2.2655161035     -5.2774266259      3.5315899700     -0.4278224819      0.5736531376      0.0190667943     -0.4398105564
F      -1.9237576516     -0.8370082590      4.6005820134     -0.1615989970     -0.1952061465      0.0714649158     -0.4628829487
O      -4.5459055679     -4.2608044987      2.8278657923      2.2235110451     -0.5296576354      1.7033454460     -0.7037048202
O      -2.4957238845     -2.9914302924      2.3545914339      0.4889436773     -1.4293441874      0.9477988150     -0.7776581727
O      -0.8042320622     -3.0662464468      5.2852918346     -1.1536457509      1.7655276765     -0.8977246167     -0.7193211673
O      -2.3534214078     -2.0098892139      6.8739251290     -0.5034469517      0.7472354013     -2.7573707220     -0.6975561667
