33
Properties=species:S:1:pos:R:3:forces:R:3:charge:R:1 energy=-189.74294729928036 homo_lumo=2.259300426650394 dipole="1.5216030674180092 1.702917822002144 -1.9896161570100828" free_energy=-189.74294729928036
N       0.5560820281     -0.1290483311      0.9035503145      0.0073472184     -0.0008063651     -0.0041599652     -0.5027165407
C      -1.6963409526      0.0837510038     -0.1384696309      0.0059102486     -0.0039833197      0.0000047329     -0.1938806053
C      -0.8397300089      0.3407272683      1.0930206808      0.0073742676      0.0007662389      0.0094387936     -0.0454155929
C      -3.1655907772      0.3672884218      0.1690737084     -0.0145664963     -0.0017091245     -0.0056966429     -0.2210752175
C      -4.0647390973      0.0939493400     -1.0330011864      0.0083024476     -0.0070255261     -0.0011242045     -0.0691045508
C       1.5796378581      0.7492979280      0.8595307223      0.0029549798     -0.0039380742     -0.0003256254      0.2883401631
C       0.7727483777     -1.4593402193      0.8238133167      0.0001913935     -0.0050918045     -0.0018839430      0.2737692471
C       2.8794242686      0.3068209198      0.7125472123      0.0018929208      0.0020861616      0.0030654351     -0.0333966551
C       2.0581600068     -1.9486585283      0.6764347381     -0.0066467224     -0.0094986521      0.0027459285     -0.0123350946
C       3.1264836772     -1.0623624226      0.6185955236      0.0009663663     -0.0042703100      0.0026964868      0.0356041647
H      -1.5993589557     -0.9754767196     -0.4301455156      0.0021991750      0.0002981267     -0.0001822527      0.1354764833
H      -1.3414382983      0.7000515444     -0.9844369447     -0.0007233527     -0.0024843583     -0.0034266592      0.0863174772
H      -1.2286750826     -0.2070550042      1.9618780460      0.0080009508      0.0038135784     -0.0045732177      0.2343719375
H      -0.7874381244      1.4090506587      1.3457218412      0.0032476804     -0.0012871011     -0.0077259254      0.0964569548
H      -3.4686789877     -0.2746196200      1.0138678696      0.0002346597      0.0041849249      0.0030109638      0.1325474664
H      -3.2837843473      1.4149795770      0.4994172250      0.0014752332     -0.0002906784     -0.0061224379      0.0825006254
H      -5.1190335739      0.2891880680     -0.7872367933      0.0008034862     -0.0025427102     -0.0033745395      0.0472949518
H      -3.7921664915      0.7287924524     -1.8913378792      0.0046830578     -0.0075410559      0.0014268246      0.0298591011
H      -3.9821922351     -0.9587363768     -1.3465637340      0.0014557082     -0.0017819583      0.0023528566      0.0468553868
H       1.3152441306      1.8002772772      0.9562186582      0.0085651593     -0.0104041455     -0.0028707411      0.0942312546
H      -0.1108289216     -2.0912270400      0.9093657986      0.0046843746      0.0026260116      0.0014638692      0.2045972297
H       3.6891695738      1.0357910800      0.6858024843      0.0035218667     -0.0090422563     -0.0034394938      0.0600385581
H       2.1997164528     -3.0286325923      0.6351363438      0.0017695239     -0.0047262224      0.0058980873      0.0648513704
H       4.1475275516     -1.4309217758      0.5116962486      0.0126660201     -0.0103618714      0.0013721298      0.0624699073
N      -1.4910089306     -3.1144295618      4.1428846856     -0.0022763644      0.0188643118     -0.0064822863     -0.8423891246
S      -1.7627112026     -3.5618614268      2.6365443785      0.0077069559      0.0045598001      0.0134974097      1.9300722818
S      -0.7074632977     -1.7530743715      4.4694934936     -0.0251088530      0.0058647124     -0.0078792771      1.9247269715
F      -0.2694915801     -4.1566822849      2.1457916154      0.0022859304      0.0110470113      0.0010947473     -0.4827166710
F      -1.8738440231     -0.5910515624      4.1896884885     -0.0111485658      0.0154291721     -0.0124489746     -0.4749876857
O      -2.6281999520     -4.7158896142      2.6228213627      0.0218015348     -0.0025760206      0.0108774916     -0.6958686809
O      -1.9774540897     -2.4797919825      1.6694562877     -0.0108496505     -0.0224602778      0.0031619486     -0.7926075231
O       0.3432831096     -1.3784155733      3.5227918871     -0.0164808921      0.0184316714      0.0209301921     -0.7663873014
O      -0.4577952365     -1.6861423396      5.8890142391     -0.0322402623      0.0238501111     -0.0113217111     -0.6975002893
