38
Properties=species:S:1:pos:R:3:forces:R:3:charge:R:1 energy=-218.389006507828 homo_lumo=2.257717987336732 dipole="1.0216685908400043 -0.0687873188068305 -1.1323322506551026" free_energy=-218.389006507828
N       1.2791360740     -1.4186887763      0.1859910553     -0.0626188813     -0.3199414953     -0.3936648303     -0.4958611056
N       2.2610509887      0.1598508457      1.2723929424      0.3093409890      0.4186221697      0.2132646567     -0.5307855181
C      -0.9688444399     -2.0912276835     -0.5137809306      0.3374396817      0.4424604913     -0.2961292286     -0.1660889913
C      -1.5430301406     -0.6768078190     -0.6144967615     -0.3028452977     -0.6542112615      0.3076855130     -0.1819301842
C       0.5275856797     -2.1286622140     -0.8405328887     -0.5023742065     -0.0691476394      0.2457133667      0.0056994223
C      -2.9777810330     -0.6417647839     -0.0818359591      0.3637398223      0.6979953836     -0.3070999535     -0.1638716844
C      -3.5848708621      0.7571940468     -0.2179715436     -0.3824319411     -0.5495258970      0.2702796470     -0.2072083246
C       1.7171651693     -0.1605938154      0.0954387696     -0.0326650448      0.1265768880     -0.2269358519      0.5420643912
C       1.4798244987     -1.8771329779      1.4593309835      0.3240456490     -0.2253376612     -0.0138816740      0.2473079843
C      -5.0047421850      0.8058917072      0.3460547691      0.4178396225      0.1519143821     -0.2176241022     -0.0434310487
C       2.1009150130     -0.8791434414      2.1458625673      0.2784951018     -0.2432036375      0.0909858150      0.2760243524
C       2.6370558799      1.4918744981      1.7051941664     -0.0323729267     -0.0196191584      0.0104425151      0.1236407875
H      -1.1147168016     -2.4618390187      0.5037200929     -0.0701623809     -0.0514302239      0.2608908526      0.1427409637
H      -1.4832784053     -2.7615408035     -1.2085073933     -0.1476045078     -0.2072352980     -0.2151480280      0.0673859832
H      -1.5111749397     -0.3328584978     -1.6552169114     -0.0120004688      0.0993117469     -0.3321533358      0.0477990629
H      -0.9285031871     -0.0013063896     -0.0114444655      0.0672073576      0.1642471892      0.1986790726      0.1543232152
H       0.7373440177     -1.6547705118     -1.8041110212      0.0953324595      0.0709628514     -0.1828954440      0.0864434454
H       0.8868973054     -3.1613826020     -0.8655064331      0.2004106295     -0.1852531693     -0.0547237229      0.0965822514
H      -3.5936317286     -1.3660897986     -0.6268975660     -0.2001709904     -0.2063897329     -0.1590799159      0.0556296564
H      -2.9600803754     -0.9348238017      0.9724965537      0.0770576643     -0.1061060552      0.2528494406      0.1429104235
H      -2.9579325760      1.4777084370      0.3181621418      0.2151606304      0.1845364602      0.1030603826      0.0908103072
H      -3.6024059798      1.0493481636     -1.2741730979      0.0545839139      0.1195537204     -0.2770575324      0.0648471551
H       1.6849607693      0.4618923842     -0.7811558337     -0.0262801539      0.1094413334     -0.1511637248      0.0691224838
H       1.1394302978     -2.8440753949      1.7781568470     -0.0718331651     -0.2128617705      0.0731119867      0.0211748896
H       2.4450304756     -0.8307768625      3.1611245267      0.0261857978      0.0229549916      0.2123261538      0.0292088552
H      -5.0014528601      0.5371126504      1.4029550309     -0.0456704035     -0.0826437139      0.3410130068      0.0419919489
H      -5.4170999508      1.8099481634      0.2433849343     -0.2469844231      0.2915732542      0.0214823690      0.0165305796
H      -5.6517736970      0.1077241232     -0.1873668174     -0.2381169961     -0.2106111073     -0.1242826954      0.0168636886
H       3.6299178461      1.4651332609      2.1532116788      0.2841463673     -0.0012752989      0.0478492558      0.0420202066
H       2.6254056467      2.1700131251      0.8541085580      0.0449694408      0.1385346948     -0.2065832418      0.0314650425
H       1.8990873176      1.7964986592      2.4534014689     -0.2052560314      0.0290636911      0.1286906089      0.1005616073
C      -1.9366213173      0.4556140458      3.7246982125      0.5043253604     -0.1625562200     -0.3014259115     -0.1337762198
C      -0.6665876013     -0.1507403389      3.0653064952     -1.1976873272      0.5236843777      0.4759369734      0.9714242629
O      -0.8415658655     -1.1413112472      2.3290663297     -0.3677112890     -0.9698925148     -0.5570453569     -0.8375784024
O       0.4147976328      0.4162039036      3.3372755647      1.0200989850      0.7838898424      0.4972467899     -0.8356771701
H      -2.7597471996      0.4520077597      3.0125277718     -0.3292786764     -0.0286663269     -0.1812461537      0.0717190964
H      -2.2097201255     -0.1653657193      4.5774441308     -0.1673922500     -0.1841387795      0.2877931987      0.0295634101
H      -1.7380752558      1.4694750264      4.0663838014      0.0210778888      0.3147234932      0.1588390987      0.0103531758
