37
Properties=species:S:1:pos:R:3:forces:R:3:charge:R:1 energy=-209.5789046792345 homo_lumo=4.247512417334376 dipole="-0.09602590480027928 1.4282958383609925 2.1053961220632607" free_energy=-209.5789046792345
N       0.9130630655      0.2530943772     -0.9195360180      0.3757551102     -0.0332908095      0.0814059658     -0.5163128912
N      -1.1790250083      0.6500088423     -1.2319933937     -0.3185569697      0.2147363621     -0.1585086086     -0.5141413495
C      -0.1598756949     -0.1103708828     -1.6173731319     -0.0070470760     -0.2010214253     -0.0726788581      0.5480564814
C       2.2452222091     -0.3267893546     -1.0993612222      0.0954678676     -0.5031451809      0.0266169217     -0.0592198302
C      -2.5354049333      0.5419697078     -1.7670751423     -0.3049124799     -0.4386221632      0.2595345165     -0.0820929978
C       0.5679767560      1.2578359555     -0.0576983663      0.0547579663      0.2308570270      0.2429097334      0.2172499389
C      -0.7555716747      1.5067020412     -0.2531183543     -0.0494498932      0.2695855311      0.2293679292      0.2066552357
C       2.2043688850     -1.8375813401     -0.9070631260      0.0082811689      0.3936227035     -0.0210609579     -0.0941613306
C      -3.3004093852     -0.5506263303     -1.0297221492      0.1832036725      0.3050573150     -0.1100788581     -0.0725891432
H      -0.1773298680     -0.8760948429     -2.3875778988      0.0852587234     -0.2257456457     -0.0543381313      0.2490997989
H       2.5818916788     -0.0867607631     -2.1128068063      0.0539819239      0.0551027315     -0.1705770165      0.1606770867
H       2.9111023619      0.1473679853     -0.3745638474      0.0431861454      0.1732478177      0.1640485702      0.0941005160
H      -3.0192199873      1.5144004775     -1.6479700453      0.0112303534      0.2531639704     -0.0106358754      0.0931635776
H      -2.4537366803      0.3022651718     -2.8313582050      0.0403584627      0.0123857485     -0.1944172280      0.1846327764
H       1.2789664271      1.7115512191      0.6104188641      0.1725321319      0.0999677599      0.1431334057      0.0296811936
H      -1.4146947734      2.2187248335      0.2119771396     -0.1587998555      0.1536241352      0.1108042275      0.0308590481
H       1.7967949025     -2.0909885013      0.0710821553     -0.0979575703     -0.0668717539      0.3506572174      0.0425578989
H       3.2183240900     -2.2267914698     -0.9843575561      0.2855663971     -0.1691451029     -0.0571807593      0.0542922564
H       1.5958614829     -2.3026265336     -1.6817319958     -0.1132935219     -0.1756775516     -0.2436840779      0.1221954629
H      -2.8154830577     -1.5140177620     -1.1811966323      0.0749773847     -0.2892459403     -0.1093529968      0.1011414124
H      -4.3125740548     -0.6021392684     -1.4275974995     -0.3218769664     -0.0836017967     -0.0968555609      0.0494168471
H      -3.3458789366     -0.3352721506      0.0377173072     -0.0650321591      0.0937195420      0.3544457533      0.0346073456
N       0.1344380735     -2.1495774579     -3.7554139096     -0.1861124634      0.0767586591     -0.3469334877     -0.9010777743
S       1.1413579322     -1.4999676469     -4.8320558838      0.4488047877     -0.1936875640      0.1594681164      1.6385968104
S      -1.4276355630     -2.2772903960     -4.1177941975     -0.1504718364     -0.1345782261      0.3510919584      1.6049389727
C       0.5993807907      0.2523464547     -5.2525970736     -0.0032763080     -0.8333133275      0.4402517986      1.1959333191
C      -1.6755846718     -3.5309158195     -5.4871857695      0.3667108842      0.5623089629      0.5947912700      1.2122683414
O       2.3694029039     -1.2788179005     -4.1011995415      0.8688576966      0.3391568442      0.6242505941     -0.7732216751
O       1.1949110233     -2.1922062840     -6.0903840151     -0.1963558693     -0.4099263212     -1.0512599805     -0.7213953472
O      -2.0073682418     -1.0411866768     -4.6072750811     -0.3536000262      0.6745854988     -0.6031417353     -0.7636288220
O      -2.0415338980     -2.8639184099     -2.9485926734     -0.3980835718     -0.7034200331      0.7970771923     -0.7645667016
F       1.6742188312      0.9503157887     -5.5807375347      1.1806293817      0.6931733154     -0.4048785638     -0.4342669158
F       0.0604705260      0.8216632356     -4.1660756087     -0.4825879890      0.7688746261      0.9136597194     -0.4646984658
F      -0.2641185818      0.3003997997     -6.2404360216     -0.8386108282      0.0412130911     -1.0900081661     -0.4226304482
F      -2.8950701562     -4.0298598832     -5.3751270700     -1.3724235747     -0.4905354705      0.1474076556     -0.4325213791
F      -0.7959808982     -4.5069905472     -5.3661382789      0.9604373048     -1.0877026374      0.1268531007     -0.4288859331
F      -1.5486383154     -2.9583543526     -6.6649818686      0.1084515959      0.6283893083     -1.3221847840     -0.4247133156
