37
Properties=species:S:1:pos:R:3:forces:R:3:charge:R:1 energy=-207.07734722844185 homo_lumo=0.6043271376108856 dipole="2.341448211038699 -0.1575710106311173 -6.162341948613795" free_energy=-207.07734722844185
N       1.1122212120      0.3726928082     -0.3705838189     -0.8773331658     -0.3702092221     -0.7026865056     -0.5194615038
N      -1.1108554231      0.3664627767     -0.3743297906      1.0355453762     -0.3161517639     -0.6873686448     -0.5142997875
C       0.0031290208     -0.2395500592     -0.8281991646     -0.0598007530     -1.1849471901     -0.7460319354      0.5763402464
C       2.4958910802     -0.0138002534     -0.6324735255      0.8380388501     -0.4285497971     -0.0415031215     -0.0726786832
C      -2.4912965072     -0.0282022188     -0.6409742019     -0.9898941769     -0.5363341200     -0.0799949225     -0.0791123640
C       0.6867647024      1.4026388930      0.3891604222     -0.7685857783      1.1995697898      0.9151116777      0.2438011275
C      -0.6937844979      1.3984231315      0.3874910913      0.7329026325      1.1776341775      0.8997907877      0.2627214454
C       3.0959556731     -0.6973716146      0.5906473911      0.0123763503     -0.0875031174      0.2518497621     -0.1193385247
C      -3.0896069215     -0.7164428990      0.5793304332      0.0443006367     -0.0165844728      0.2778752869     -0.1303927121
H       0.0065079483     -1.1192018334     -1.4600080756     -0.0004302911      0.0050615147     -0.0284935564      0.0982675164
H       2.5369165126     -0.7161641775     -1.4935201104     -0.2979695565      0.3975945800      0.1706162683      0.1292696329
H       3.0924876193      0.8866735575     -0.8939146417     -0.4343896393     -0.1477356839     -0.0148750116      0.1378065668
H      -3.0928196450      0.8692663195     -0.9016609050      0.4542971371     -0.1337015249      0.0035234025      0.1387600029
H      -2.5261453560     -0.7297253859     -1.5027279735      0.3452326021      0.4134764326      0.1304585406      0.1222389344
H       1.3308444132      2.1047100089      0.9029368967      0.1938057814     -0.0734608696     -0.0247066189      0.0696181603
H      -1.3432866217      2.0959344900      0.9008513478     -0.2346400170     -0.0968334906      0.0337738987      0.0833753404
H       3.0915078658     -0.0064832640      1.4600059724      0.0470471422     -0.3105353908     -0.1918195488      0.0907108295
H       4.1430407392     -0.9968170460      0.3750806120     -0.3251904931      0.1121992181      0.0875701488      0.0821218467
H       2.5085246348     -1.6059674579      0.8431550868      0.2281511457      0.2886060403      0.0149293629      0.0874137549
H      -2.4971332403     -1.6207455113      0.8352914971     -0.2279606623      0.2793857600      0.0025493431      0.0709210387
H      -4.1353973160     -1.0203861471      0.3642814643      0.3392359590      0.1257384132      0.0832213316      0.0768196569
H      -3.0883392461     -0.0232798345      1.4442836065     -0.0949217767     -0.3046554601      0.0121028282      0.1460015923
N      -1.8696744221      0.2257293776      5.8434849191      0.1306655221      0.0906296833     -0.6635557779     -0.8812889190
S      -1.7023082278     -0.3704723076      7.3610693017      1.6891180040      6.5239366348      2.7373730419      1.5616503365
S      -3.2125167506      1.0234741958      5.3457657874     -3.4498192643     -6.3171526826      0.5973610185      1.5713714955
C      -2.2542563601     -2.0638381674      7.3894047006     -0.8593068850     -1.6860984146     -0.1428978175      1.1513396523
C      -2.9079389991      2.7762245306      5.4121302087      0.4235551677      1.7057895345      0.6619634809      1.1512512873
O      -0.2517339409     -0.3279902067      7.7500882949     -1.6555277455     -1.3937178640     -1.3723315718     -0.7302163007
O      -2.5085924640      0.4360245630      8.3415461928      0.2818458152     -2.0780117571     -1.1958698368     -0.7215964277
O      -4.3922851527      0.6844359883      6.2145625788      1.5543579218      1.7282747341     -0.8661431572     -0.7170986560
O      -3.5130629342      0.6424795643      3.9250350906      1.3542195120      1.4886183815      0.7015543440     -0.7799337749
F      -2.0933505031     -2.5821951165      8.6602544617     -0.2007321486      0.2544099044     -1.1869098314     -0.4279210838
F      -1.5084406671     -2.8071288692      6.4941488745     -0.6308553374      0.1171409521      0.6627632834     -0.4383184497
F      -3.5885254596     -2.1260915444      7.0352219358      1.1856657798     -0.3239947603      0.3336619236     -0.4243079252
F      -4.0384695686      3.4582641873      5.0043124769      1.0565163881     -0.3294734124      0.2977116365     -0.4309908842
F      -1.8546932607      3.0939788598      4.5753439932     -0.5865609470      0.2422880713      0.4642444035     -0.4472028639
F      -2.5920204866      3.1443810056      6.7060590650     -0.2529590863     -0.0147028277     -1.3948179133     -0.4176416036
