54
Properties=species:S:1:pos:R:3:forces:R:3:charge:R:1 energy=-292.77932566539045 homo_lumo=2.4989908216654038 dipole="-1.7868297531138542 5.15263094435601 5.374224391423728" free_energy=-292.77932566539045
N      -0.7114144082      0.3166302219     -0.1540502171     -0.1449703560      0.3454891323     -0.1589031893     -0.5192480458
C      -1.2783605236     -0.4462028138     -1.3134273603     -0.7766851562     -1.2167546336     -1.3005304721     -0.0494639005
C      -1.8384635741      0.7241748531      0.7468375666     -1.3492730110      0.1451694891      1.2529190991     -0.0354234159
C       0.2802852333     -0.5005561071      0.6283900522      1.3403740612     -0.8421366891      0.4591455395     -0.0629108525
C      -0.0808856084      1.5548409223     -0.7276807327      0.9494009293      1.4557372636     -0.1956584417     -0.0475710316
C      -2.1268330047     -1.6637406191     -0.9104896446      0.0246318370      0.0573846621      0.0860412271     -0.1898974936
C      -2.7260543871     -0.4510348236      1.2078530396      0.0540639081     -0.1059755545     -0.1041744293     -0.1711835943
C      -3.2625263507     -1.2402542980      0.0167603393     -0.1674873666     -0.2484204021      0.1081390250     -0.1675170885
C       1.5572906074     -0.9235811053     -0.1345155968     -0.3974917441      0.1677835234      0.0388952498     -0.2453261436
C       0.6608833896      2.4662924528      0.2806093132     -0.1033473861     -0.2939424299      0.0825316931     -0.2615695263
C       2.4808397223     -1.7381553934      0.7803738041     -0.0735741504      0.0088596674      0.1379130372     -0.2143918452
C       1.2229094662      3.6997300972     -0.4232787015     -0.0046084931      0.0897706146     -0.2107533590     -0.0925322377
C       3.7541901785     -2.1577361406      0.0523123351      0.1127811255     -0.1084497716     -0.0397837371     -0.0967650597
H      -0.4828322629     -0.7781082123     -2.0122009101      0.1023364953      0.2845490000      0.4700312521      0.1882558897
H      -1.9382641581      0.2187368675     -1.9193212742      0.3518335189      0.1535950692      0.5151097483      0.1502782648
H      -2.4996662136      1.4608903339      0.2347914684      0.5145295241     -0.2657926040     -0.1775196067      0.1444814859
H      -1.4556690106      1.2213024039      1.6638998699      0.2806851096     -0.1045013213     -0.5319274931      0.1546545568
H      -0.1850282124     -1.4308373497      1.0061843176     -0.2936142944      0.3578246710     -0.3242074208      0.1889433088
H       0.5853601548      0.0476703733      1.5466049055     -0.3295857107      0.1915134722     -0.4334365523      0.1495663178
H      -0.8595661363      2.1773981124     -1.2271525303     -0.0239789051     -0.5400940063      0.2946207656      0.1558215928
H       0.6318220971      1.2849860147     -1.5389460026     -0.3049107689     -0.3101216224      0.3667227102      0.1703265950
H      -1.5039868215     -2.4490964707     -0.4353104914     -0.0856904253      0.1478516557     -0.1394371565      0.1236738130
H      -2.5641262455     -2.1150993606     -1.8273330037      0.3698560587      0.1563432241      0.1204466513      0.1464626921
H      -3.5849119141     -0.0483225677      1.7865983417      0.3736231294      0.0989756277     -0.0643178534      0.1247251127
H      -2.1727519614     -1.1243816176      1.8950336026     -0.0650656441      0.1863310086     -0.1267018536      0.1103670423
H      -3.9857315993     -0.6103505792     -0.5466816023      0.1094479288     -0.1650691191      0.1076393906      0.0987232882
H      -3.8021122567     -2.1416432606      0.3793750984      0.0339726532      0.3022451215     -0.1515183414      0.1103880304
H       2.1171009452     -0.0362220605     -0.4931453737     -0.1412067981     -0.1809687335     -0.0278663662      0.1213360840
H       1.2929040074     -1.5572018018     -1.0028821471      0.0846434218      0.1890652923      0.0402680281      0.1765800665
H      -0.0237558918      2.8138412702      1.0800897659      0.1185277933     -0.2161813402     -0.0828454383      0.1194991079
H       1.5127800349      1.9327071393      0.7485651218     -0.2878441161     -0.0171959432     -0.0161935161      0.1310878183
H       1.9513125830     -2.6514391409      1.1302442465      0.0619374153      0.2586117663      0.0208828378      0.0987125024
H       2.7590186064     -1.1319836722      1.6700985944     -0.1716160992     -0.1518652821     -0.0881207411      0.0871579922
H       1.7587653028      4.3382649157      0.3102570054     -0.1690434968     -0.1757327919     -0.2922561642      0.0739931681
H       1.9378851583      3.3985810812     -1.2186937017     -0.1998953123      0.2135418759      0.1899576878      0.0644981185
H       0.4013081439      4.2944083501     -0.8766497649      0.3285889262     -0.0830544633      0.0652003843      0.0539045958
H       4.3173670754     -1.2620966496     -0.2860126538     -0.0941710019     -0.3266711007      0.0237951236      0.0440888932
H       3.5057185353     -2.7903902606     -0.8264376786      0.1995778213      0.2033413140      0.2047295796      0.0892782825
H       4.3989449616     -2.7429817231      0.7412228591     -0.1156226405      0.1637490308     -0.2986196238      0.0604548117
N       1.7204106140     -6.0409116710     -5.4805345802      0.2791956542      0.0218222290      0.4984106372     -0.8634912134
S       2.0786483815     -4.5021208728     -5.0448672347      4.3066520670     -0.0349850531     -6.1160546459      1.5622345349
S       0.6336616387     -6.4037773818     -6.6528268028     -5.5067944996      1.5938453768      4.2390077222      1.5583108886
C       1.0310848386     -4.0152346472     -3.6899062907     -1.2087277677     -0.3713527312      0.7918557639      1.1443732733
C       1.5026945080     -6.7493904893     -8.1679430535      1.2801240170     -0.2255618473     -1.5039048547      1.1550080919
O       3.5109675237     -4.4393428613     -4.5958791003     -2.3146793994     -0.4662127842      1.0043584967     -0.7315698376
O       1.8722851563     -3.5610803242     -6.1995991207     -0.7679653707     -0.4836356427      2.2135563893     -0.7263460068
O      -0.3202298407     -5.2618739889     -6.8712850850      1.7030534984     -1.1714741763     -0.8634514028     -0.7369091142
O      -0.1347658752     -7.6292369925     -6.2470345256      2.1522105929      0.7424210128     -1.0616885769     -0.7273604385
F       1.3451918972     -2.7255107647     -3.3089824409     -0.4134871539     -0.5072552826      0.2004984168     -0.4659424393
F       1.2285903445     -4.8699777595     -2.6220059677     -0.4368897722      0.8913717696     -0.3073285466     -0.4380952969
F      -0.2937144618     -4.0670766023     -4.0789991766      0.9541069265      0.2953954200      0.8078338196     -0.4283748388
F       0.5924153368     -7.0405992376     -9.1661248498      0.9180839262      0.2046287289      0.7294652250     -0.4291441982
F       2.3412960088     -7.8321931516     -7.9830408918     -0.5108455396      0.7865794917     -0.4849400120     -0.4309861618
F       2.2515200532     -5.6485018141     -8.5378342137     -0.5451659592     -1.1003911843      0.0321642943     -0.4251664393
