41
Properties=species:S:1:pos:R:3:forces:R:3:charge:R:1 energy=-224.6269369229234 homo_lumo=5.8539091097207425 dipole="-0.3290264250241944 -1.3246131657493834 -2.3448066131901633" free_energy=-224.6269369229234
N      -1.3673367340      0.0103864897      0.1640963667      0.1926767339     -0.1657492140      0.0283476376     -0.5023712862
C      -1.6301855469     -1.2196036305     -0.6479139901     -0.3413214558     -0.2205019791     -0.2462931479      0.0162727946
C      -2.4311459625     -0.0412265938      1.2206726606     -0.7073840942     -0.1339945610     -0.0465058196     -0.0249622484
C      -0.0092326829     -0.0368366652      0.7978986354      0.6096540722      0.1257202434     -0.5372881185     -0.0804995392
C      -3.1496194786     -1.3719916419     -0.6892161852      0.0869381682      0.0032070264     -0.0330091247     -0.1300048882
C      -3.6724429220     -0.5814194675      0.5205768395      0.1466868622      0.0578541942     -0.0730823363     -0.1352445529
C      -1.5479311461      1.2285724329     -0.7035155976      0.0896319949      0.5777157950      0.0320890991     -0.0660705391
C       1.1404041495     -0.1216409807     -0.1998105664     -0.1801201050     -0.0123738161      0.5866873558     -0.1972777488
C      -1.2150747172      2.5487366899     -0.0253835530     -0.1212639220     -0.4707101378     -0.3118782423     -0.0985670235
C       2.4650836420     -0.0925685731      0.5731935631     -0.0723008301      0.0090113652     -0.8017662893     -0.1592654757
C       3.6631668800     -0.1431175928     -0.3790724537      0.0403429201     -0.0082945317      0.6698324662     -0.1973662688
C       4.9822078249     -0.1053415373      0.3905608112     -0.2910653097     -0.0097411876     -0.3795090386     -0.0453594372
H      -1.1805587629     -1.1163757974     -1.6355749895      0.1905403123      0.0159874329     -0.1699912450      0.1113619129
H      -1.1680478190     -2.0608315459     -0.1266672481      0.1615179501     -0.1117726407      0.1801047519      0.1231546143
H      -2.0876654834     -0.7214681333      2.0006763211      0.1744718109     -0.0182867279      0.1255475509      0.1423013631
H      -2.5664861715      0.9469780103      1.6566647426      0.0997144357      0.0955117225      0.2574430632      0.2173528724
H       0.0889946570      0.8565925883      1.4158843832     -0.0060190962      0.0677471781      0.1503205821      0.2914345505
H      -0.0004969206     -0.9040966037      1.4617680028     -0.1006999444     -0.1438820050      0.1552065985      0.1201671009
H      -3.5552331011     -0.9736097117     -1.6215707342     -0.1127806486      0.0222475880     -0.2448153417      0.0770879611
H      -3.4199661856     -2.4275941501     -0.6268070201     -0.0604101010     -0.2507386257     -0.0912019653      0.0914621541
H      -4.2390636455     -1.2180895338      1.2016576404     -0.1768773043     -0.0563649350      0.1930432832      0.0953624186
H      -4.3259807161      0.2312421073      0.1964518598     -0.2202908569      0.1641667326     -0.0303773056      0.0712977638
H      -2.5917301766      1.2276945641     -1.0262062205     -0.2372600053     -0.1115536114     -0.0794382616      0.1504027097
H      -0.9194588057      1.0894574550     -1.5871783548      0.0933573496     -0.1460051570     -0.1776895279      0.1162725997
H       1.1130352064      0.7243156131     -0.8922725485      0.0403058367      0.2342989371     -0.2017355123      0.1010906854
H       1.0784189151     -1.0430406070     -0.7879531824      0.0517398044     -0.2236340992     -0.2145440537      0.0797860756
H      -1.7524505071      2.6741590736      0.9120301380     -0.0897203111      0.1132320590      0.2739266775      0.1179375503
H      -0.1503837397      2.6404135640      0.1770406237      0.2499634224      0.0761799278      0.0984144682      0.0679626094
H      -1.5091371671      3.3489226608     -0.7047688333     -0.0938143184      0.2517661249     -0.2425830990      0.0377875727
H       2.5036736071     -0.9453199375      1.2587229000      0.0291617429     -0.1912673908      0.2347001810      0.0879188527
H       2.5100684514      0.8213368322      1.1734172365     -0.0047665649      0.1968884798      0.2219791661      0.1183210668
H       3.6154674106     -1.0593200243     -0.9781372822     -0.0381159890     -0.1993640911     -0.2108199585      0.0740161741
H       3.6176811834      0.7084339664     -1.0666122595     -0.0471428108      0.1909850996     -0.2194384101      0.0786582332
H       5.8212975501     -0.1400137700     -0.3045009546      0.3535941008     -0.0072358441     -0.1239507457      0.0300392707
H       5.0543831899      0.8103971937      0.9783164359      0.0613079152      0.2571652591      0.2063254226      0.0364555865
H       5.0545382449     -0.9582735200      1.0665630727      0.0667045283     -0.2411674652      0.2292319255      0.0301583024
B      -0.8777597954      1.9002179666      3.4956163805      0.0322563935     -0.3919581276     -0.3408098641      1.3962901167
F      -0.6451730474      2.3498273388      4.7604414978      0.1589207746      0.3752569886      0.9891270808     -0.5170009102
F       0.0929192296      2.3847875236      2.5804806674      0.6572534992      0.3935174541     -0.2253802262     -0.5745350243
F      -2.1487414393      2.3024424791      3.0142308910     -0.7963121685      0.4354979585     -0.0642126290     -0.5722617517
F      -0.8370035728      0.4787718694      3.4264043201      0.1109252085     -0.5493614186      0.4339929529     -0.5795662178
