70
Properties=species:S:1:pos:R:3:forces:R:3:charge:R:1 energy=-378.28786834298955 homo_lumo=5.2170774214120685 dipole="-1.8119084640005017 2.460404447075049 -1.5032015320275713" free_energy=-378.28786834298955
N       1.5278638021     -0.2306009080      1.4740158799     -0.2110729717     -0.0430389988      0.0879667927     -0.4891718152
C       2.6754985179     -0.2604824956      2.4422532551      0.4882264299      0.3100323523      0.1851341807     -0.0547741454
C       0.8392562724      1.0582928805      1.8022083337      0.0504363568      0.4850419349      0.0446252806      0.0097431464
C       2.0359085084     -0.1816779639      0.0580708677      0.1599118327     -0.5104384851     -0.2655578175     -0.0252720576
C       0.6236982322     -1.4026432465      1.7155053291     -0.5442346079     -0.1152782080     -0.5748184699     -0.0768410318
C       3.1469718129      1.1836151605      2.5688844269     -0.1012435861     -0.0728588435     -0.0992486244     -0.1385341563
C       1.9554020079      2.0476384147      2.1282053239     -0.0877532777     -0.0716282767     -0.0558375438     -0.1307719082
C       2.6352729812     -1.4946943077     -0.4406605739      0.0615691468      0.6815871584     -0.1397881061     -0.2558074777
C      -0.6105875593     -1.4370990740      0.8207217299      0.2886645387     -0.2644692212      0.4948509869     -0.2010285002
C       3.4227406898     -1.2537004204     -1.7331699143     -0.1445157358     -0.6189977373      0.3837141921     -0.1538553583
C      -1.4556442655     -2.6628608479      1.1918317167     -0.1419787016      0.5129853577     -0.6186736487     -0.1755782006
C       4.0914705958     -2.5509865105     -2.1992894307      0.0553709690      0.5910689217     -0.3553343750     -0.2090153254
C      -2.6965675342     -2.7705320131      0.3012305532      0.1584165654     -0.4160051733      0.5151040626     -0.1965432703
C       4.8786551849     -2.3374067070     -3.4900147078     -0.1977685191     -0.2013008360      0.3617938474     -0.0461553113
C      -3.5339535813     -3.9931698753      0.6718330687      0.1246485386      0.4026343231     -0.2407519262     -0.0471972903
H       3.4488285190     -0.9307963289      2.0777300025     -0.0226592279     -0.2150250466      0.0613597826      0.2398603842
H       2.2988053322     -0.6400396678      3.3928290598     -0.0868150727     -0.1660909938      0.0588836955      0.1585433671
H       0.2096361969      0.8797493853      2.6768297368     -0.1311214380     -0.1411378130      0.1862422039      0.1258943941
H       0.2149748986      1.3708133540      0.9652631145     -0.1917687543     -0.0066040312     -0.1562960296      0.1128806883
H       2.7894285380      0.6087945591      0.0260753848      0.1565308195      0.2038307629      0.0341321310      0.1631166485
H       1.1996670541      0.1193741767     -0.5782606660     -0.2027687087      0.1248721111     -0.0793443450      0.1157496945
H       0.3189119591     -1.3503940159      2.7629132858      0.0437106473      0.0377115156      0.1812175599      0.1404389867
H       1.2207706462     -2.3048569552      1.5815737940      0.1457946736     -0.0785142187      0.1036801837      0.2590307204
H       4.0146115332      1.3688865015      1.9324995021      0.2517077137      0.0588136875     -0.0698330308      0.0762598261
H       3.4346075895      1.3915417780      3.6003387866      0.1679181121     -0.0013524253      0.2146476206      0.1033104324
H       1.6332506326      2.7263031716      2.9195038555     -0.1107101322      0.2300111986      0.1137923102      0.0957034416
H       2.2111798298      2.6455572145      1.2510840719      0.0239486461      0.2034507666     -0.1726428156      0.0801807569
H       1.8443454967     -2.2244843254     -0.6300991855     -0.1782792392     -0.2204775545     -0.0053352157      0.1025416487
H       3.3074239225     -1.9150314173      0.3062529550      0.0759904730     -0.1604473595      0.1285926884      0.2210950909
H      -0.3241025261     -1.5039819393     -0.2320764392      0.0443166671     -0.0200406930     -0.3006693892      0.1026622001
H      -1.2047695388     -0.5278544664      0.9536683938     -0.2199727691      0.2315538027     -0.0170385191      0.0860011130
H       4.1890758449     -0.4912722287     -1.5556053985      0.2180597109      0.2070428996      0.0115140697      0.0806807098
H       2.7499672634     -0.8783101357     -2.5124485063     -0.1229348299      0.1399831248     -0.2735252486      0.0707824239
H      -1.7600553552     -2.5886765857      2.2407918189     -0.0549764608     -0.0613930465      0.2950251765      0.0922162054
H      -0.8466468452     -3.5653118033      1.0839481572      0.1044460446     -0.2229650643      0.0491986383      0.1316534081
H       3.3251772560     -3.3162991824     -2.3608116741     -0.1827440279     -0.2177593095      0.0348327157      0.0826298836
H       4.7644701630     -2.9101862811     -1.4150670076      0.1034914968     -0.1357966716      0.2591712587      0.1155815324
H      -2.3865752014     -2.8438050598     -0.7467481494      0.0736540195      0.0454511525     -0.2798558155      0.0781045095
H      -3.3029764444     -1.8644825666      0.4085207441     -0.1359331327      0.2635642073     -0.0335240619      0.0753316840
H       5.3458453927     -3.2725828725     -3.7980656362      0.2018037931     -0.2328349313     -0.1939656526      0.0382815732
H       4.2194671040     -1.9976849523     -4.2904078810     -0.1535738789      0.1099612560     -0.2880180766      0.0227530573
H       5.6600980815     -1.5907360734     -3.3425225953      0.2558795885      0.2148870773     -0.0046988409      0.0290711930
H      -4.4112104672     -4.0531272134      0.0277581485     -0.3166719412     -0.1275219594     -0.1396285469      0.0331110142
H      -2.9496449065     -4.9059144614      0.5510743163      0.1404707595     -0.3107042162     -0.0058271308      0.0369969374
H      -3.8663716486     -3.9281858603      1.7084941967     -0.1188071603     -0.0325814690      0.3138316261      0.0331729951
P       3.9816399517     -3.7642714869      3.4486143776     -0.6405550629      0.0080542707      0.0058420193      1.7110601045
F       3.0601509444     -3.1802386083      2.1238191317      0.0887768785     -0.2025635673     -0.0512988333     -0.5629639411
F       4.0283042930     -2.2054404729      4.1244841154      0.0475953395     -0.3205659164      0.0349931412     -0.5344039857
F       3.8975913157     -5.2846280567      2.7631215691      0.0747406836      0.1809806140      0.0775228615     -0.5158558276
C       2.1923792722     -3.9386785238      4.2657222633      0.7525962191     -0.4252811655     -0.8149361867      0.5369058244
C       5.5616304941     -3.2355359236      2.3412085779     -0.1553915472     -0.0580747973      1.1491071924      0.5382080312
C       5.1108699867     -4.5348136875      4.8928674973     -0.9228380147      0.0505436686     -0.5028833269      0.5419368524
C       1.1795655386     -4.9659697044      3.6939516845      0.7293938237      0.4622898308     -0.0429456619      1.3971664387
C       6.8584466489     -2.6022025199      2.9352229918     -0.6454875080     -0.1909171662      0.0115639761      1.3881036080
C       4.6281857895     -5.5277558233      5.9892256498     -0.1945684202      0.4525760046     -0.6995891369      1.4112589873
F       1.5582735009     -2.7405443164      4.1257253491     -0.7545445221      0.9436284884      0.1059363061     -0.4762044751
F       2.2830207474     -4.1542977327      5.5863044272     -0.1429772453     -0.1565050402      1.2369592532     -0.4531371240
F       5.1337311842     -2.2407339707      1.5100025840     -0.1459112653      1.0238756365     -0.8015144431     -0.4810969865
F       5.9430731959     -4.2474823548      1.5531208924      0.4661411897     -0.9995250045     -0.7720939978     -0.4396371923
F       5.7572085670     -3.5418642659      5.5298265030      0.5133714119      0.8826272015      0.8538671601     -0.4497297367
F       6.0343628110     -5.2196648409      4.1823148575      0.7916970273     -0.9675126802     -0.4638124521     -0.4474973368
F       0.0255470833     -4.8841320392      4.3649134772     -1.0854979522      0.1573028622      0.7741940563     -0.4598336080
F       1.6063070600     -6.2152591121      3.7644386827      0.3610923373     -1.0767669569      0.1542793049     -0.4394647562
F       0.9049484255     -4.6836951159      2.4134828376     -0.2242564112      0.1209743009     -1.0465107232     -0.4735521094
F       7.5754838108     -2.0982576255      1.9214289169      0.7276652806      0.4102885722     -1.0625799633     -0.4582393945
F       6.5614071508     -1.5882418383      3.7475082839     -0.2241447730      0.9212814090      0.6498054223     -0.4500288903
F       7.6390949334     -3.4501083841      3.5838413135      0.7297522748     -0.7304167064      0.4438086304     -0.4433783740
F       4.1764705516     -4.8863288758      7.0612554293     -0.3036040402      0.6215650940      1.0502520461     -0.4488171881
F       5.6369850007     -6.3051051892      6.3791640683      1.0492035237     -0.6610340642      0.3619484725     -0.4492441905
F       3.6625082024     -6.3202268351      5.5253606240     -0.6289125968     -0.8360459154     -0.4010128909     -0.4543885478
