48
Properties=species:S:1:pos:R:3:forces:R:3:charge:R:1 energy=-263.3777242120457 homo_lumo=3.6352507759663517 dipole="0.9282859886547673 -2.960534353003733 -0.05630374658231913" free_energy=-263.3777242120457
N       0.1414929260      0.2163963562      0.0988489354      0.0119464842     -0.1238094451      0.0120671742     -0.4882090848
C      -0.6053759821      0.8681673446      1.2349640136     -0.6403730906     -0.2866800885      0.2954005699     -0.1011657964
C      -0.7949309460     -0.2604386097     -0.9831072000     -0.4638163356      0.3814930396     -0.2901551776     -0.0390119735
C       0.8827459284     -0.9726641468      0.6430087069      0.4114022185     -0.2833817511     -0.4170571463     -0.0296414356
C       1.0777426311      1.2384963718     -0.4974227874      0.5301674753      0.2492287160      0.1714142239     -0.0705300788
C      -1.7274761275      0.0415890500      1.8552226523      0.2904742266      0.2909006212      0.0204260883     -0.2463844373
C      -1.7430780050      0.7922968768     -1.5588363310      0.1281298709     -0.6178182886     -0.0707907120     -0.2407095621
C       1.8392876331     -1.6582001052     -0.3324445968     -0.1506792190     -0.0606895237      0.4522724877     -0.2444657978
C       2.1957854507      1.7208292249      0.4241026134     -0.1635204728     -0.0234394509     -0.3799716891     -0.2584514818
C      -2.3884281392      0.8758929611      2.9542473784      0.1284128840     -0.2846190651     -0.2941908799     -0.0454641991
C      -2.6594556774      0.1282050965     -2.5844175257      0.2828277018      0.1147359017      0.2977346296     -0.0398816160
C       2.5185008424     -2.8326542067      0.3723963864     -0.1795155883      0.3255451462     -0.2497506102     -0.0443809401
C       3.1119505763      2.6563402608     -0.3657822951     -0.2342497073     -0.2635492170      0.1960518254     -0.0445714649
H      -1.0044107731      1.8086454990      0.8478587807      0.0382970455      0.3078788842     -0.2357771193      0.2756051710
H       0.1347124066      1.1076196577      2.0005092208      0.1915335286      0.0262317638      0.0649757712      0.1521536976
H      -1.3701972891     -1.0903406356     -0.5639806317     -0.0780613925     -0.2041266470      0.1360753724      0.1243434261
H      -0.1681690943     -0.6548657803     -1.7867443042      0.1628121992     -0.0980528562     -0.1065065337      0.1477105000
H       0.1294404958     -1.6926170033      0.9717263775     -0.1799196896     -0.0863285774      0.0888697194      0.1543739949
H       1.4344548943     -0.6341459518      1.5230296151      0.0680664181      0.1105624225      0.1834940507      0.1377661430
H       0.4597459537      2.0959828336     -0.7757994979     -0.2906344420      0.2521311953      0.0412109167      0.2461260443
H       1.4971985176      0.7983380913     -1.4056489469      0.0801926673     -0.2035714181     -0.1941322695      0.1052473548
H      -2.4807120880     -0.2183409790      1.1074812033     -0.1890018370     -0.0836053817     -0.2117752160      0.1051990396
H      -1.3419735033     -0.8865951690      2.2880772891      0.0304067132     -0.2802492381      0.1072772845      0.0793707137
H      -2.3477841536      1.2449517576     -0.7724252715     -0.0383661775      0.2411638831      0.1354343849      0.1456750424
H      -1.1810727041      1.5928738446     -2.0416351200      0.0470058103      0.2629461801      0.0410468093      0.1347443454
H       1.2973837279     -2.0306213693     -1.2053014255     -0.1126879291     -0.0549795452     -0.2314107005      0.1052689695
H       2.6047158317     -0.9604891315     -0.6787361799      0.1620622636      0.2097115395     -0.1193852242      0.1215159548
H       1.7762295278      2.2700230454      1.2695814061     -0.0886936243      0.0968281934      0.1634971154      0.1469414132
H       2.7847175717      0.8850332640      0.8119378000      0.1710499868     -0.2384276280      0.1151201685      0.0858061393
H      -3.1957242754      0.3066674360      3.4137670969     -0.2504738908     -0.1162638911      0.1886615586      0.0361933568
H      -1.6622978388      1.1387659458      3.7236232228      0.1675592499      0.1273059627      0.2587254621      0.0357986850
H      -2.7998234734      1.7942929218      2.5360085022     -0.1166723291      0.3119342523     -0.0743432587      0.0653363787
H      -3.3246781424      0.8776498926     -3.0110953005     -0.2241449695      0.1755074254     -0.1665810671      0.0556298757
H      -2.0775974652     -0.3202011741     -3.3911809555      0.1056536417     -0.1652376878     -0.3042074316      0.0185932941
H      -3.2656129732     -0.6495407238     -2.1172687882     -0.2367199451     -0.2626093580      0.0702140682      0.0210097477
H       3.1994662555     -3.3293034174     -0.3177137516      0.2221165502     -0.2096523058     -0.1307818047      0.0479959301
H       3.0885511321     -2.4842263012      1.2340848826      0.1974997093      0.0414215939      0.2727396438      0.0398200037
H       1.7777576230     -3.5568113497      0.7129762176     -0.1758762431     -0.2719058710      0.1281483303      0.0342762573
H       3.8932121019      3.0395899938      0.2893925327      0.2626941490      0.1624304017      0.1260077776      0.0350193511
H       3.5784269046      2.1277386212     -1.1982725065      0.1940820714     -0.1359737399     -0.2698575176      0.0198481763
H       2.5432101063      3.4995644790     -0.7554771194     -0.1099629283      0.2364648919     -0.1232781748      0.0701780687
C      -1.2490998166      4.4655069651      0.1261676491      1.5680258080      0.1861670728      1.5471704751      0.9222806946
O      -1.1398877561      3.3582262987     -0.4221021992      0.1027773566     -1.4393087281     -0.8487090356     -0.8562946599
O      -2.0142117481      5.3908909018      0.0010228273     -1.2601918533      1.5075744534     -0.2461018422     -0.7208104381
C      -0.0882138980      4.6567382836      1.2717326261     -1.0928950311     -0.2879329391     -0.9904167795      1.2343790283
F       1.1498967410      4.7083460303      0.7221679319      0.9440901091      0.2037731567     -0.4624001633     -0.4835535659
F      -0.0573711889      3.5708578340      2.1056860282     -0.0145070525     -0.6001850198      0.8003645342     -0.4978279932
F      -0.2122795781      5.7288784882      2.0553687563     -0.2083223906      0.8604609647      0.5031799115     -0.4528522726
