34
Properties=species:S:1:pos:R:3:forces:R:3:charge:R:1 energy=-188.78039112462736 homo_lumo=3.2543462023382075 dipole="-1.2621042782533989 -0.5054969522146084 -1.491374868454637" free_energy=-188.78039112462736
N       0.5129245150      0.2650524693     -0.3167358804     -0.2669933895      0.1439163202     -0.1701253048     -0.5042121126
C       0.5024702623     -0.7013316477     -1.4585023051      0.2776203702     -0.3370326693     -0.2012217171      0.0230746586
C       1.7787905858      1.0403698512     -0.5463133848      0.6553871656      0.0754437403     -0.1545331952     -0.0131956705
C       1.9568736402     -1.1402100343     -1.6183289603     -0.1581844828      0.0257385503     -0.0472905017     -0.1412555831
C       2.7903007865      0.0128695594     -1.0376673485     -0.0483567518      0.0151536796     -0.0281414442     -0.1312603921
C       0.6068971251     -0.4435167225      1.0066407624     -0.5384661240     -0.5690480264      0.3093750677     -0.1059617274
C      -0.6814872749      1.1660900751     -0.3819852688     -0.2219957562      0.3542509422      0.4365812367     -0.0455684012
C      -0.5907798084     -1.3114653526      1.3502603783      0.2446829283      0.2989433235     -0.3780350407     -0.0784981551
C      -0.7582239789      2.1517077061      0.7764404337     -0.0168840520     -0.2735953914     -0.4185088547     -0.0780641736
H       0.1580470356     -0.1608842928     -2.3440571291     -0.1076442520      0.2086782257     -0.1253888196      0.1072380990
H      -0.1846190568     -1.5211259695     -1.2528130643     -0.2345225559     -0.1197011271      0.0474740918      0.1217493587
H       2.0720956055      1.5191015540      0.3922780806     -0.0315217420      0.1091393491      0.3914641806      0.2276570681
H       1.5709208955      1.7954780672     -1.3084827578     -0.2247244476      0.1132889256     -0.2362305796      0.0771366452
H       2.1808830234     -1.3168442116     -2.6719815882      0.0110086242     -0.1437313533     -0.2468486727      0.0799666676
H       2.1411783333     -2.0673971542     -1.0719628572      0.0592100680     -0.2565123602      0.0898745708      0.0773945451
H       3.4021254464     -0.3278618360     -0.1990582400      0.1018740559      0.0582684867      0.2479048622      0.1286246516
H       3.4447223042      0.4561733601     -1.7899489266      0.1675985711      0.1422272829     -0.1651242776      0.0654163791
H       1.5202518608     -1.0385446966      0.9862156236      0.2530232182      0.1048378684      0.0513999948      0.1804589172
H       0.7459920534      0.3376935262      1.7583918665      0.3041153096      0.2511261714      0.0431548139      0.2429632821
H      -0.6140634979      1.7051696463     -1.3311854690      0.0873578761      0.0087864785     -0.2460467730      0.1097447980
H      -1.5708549845      0.5308821613     -0.4126563609     -0.1575616325     -0.1726256627     -0.0794293231      0.1238660221
H      -0.3943273252     -1.7571572443      2.3252522948      0.0441423109     -0.1383524285      0.2833931165      0.0682372727
H      -1.5099966517     -0.7316832296      1.4234663450     -0.3338685913      0.1293907108      0.0821947251      0.0331946983
H      -0.7400735200     -2.1196348602      0.6342776966     -0.1209159378     -0.3217289174     -0.1380745967      0.0230620630
H      -1.4753948619      2.9296174987      0.5155274602     -0.2691478923      0.2198204022     -0.0652392678      0.0401767589
H      -1.0941106026      1.6642231213      1.6894267581     -0.0490104947     -0.0780718756      0.3116385091      0.0513695472
H       0.2086957805      2.6109279753      0.9742796773      0.2830263597      0.1174192009      0.1689338113      0.1105580534
C       3.7967927636      1.6084166499      3.7906899214     -0.2338958574     -0.1218936327     -0.4463568794     -0.0740117306
C       2.9234827988      1.1974632606      2.5846493963      0.8128566681      0.1731250331      0.8646792426      0.9157812793
O       3.2528337950      0.1658887196      1.9654212315      0.5751886124     -1.0679138453     -0.4979376171     -0.8402732153
O       1.9385404116      1.9340309593      2.3312153172     -1.0443774061      0.9076010528     -0.1674972056     -0.8607674232
H       3.2947111076      1.2849318574      4.7023122842     -0.1205507932     -0.0477135976      0.3495479139      0.0250852936
H       4.7731301642      1.1317451685      3.7302714912      0.2934679168     -0.1658823643      0.0359695555      0.0202765404
H       3.9044961002      2.6912152948      3.8165609350      0.0080621043      0.3566475072      0.0984443781      0.0200359851
