40
Properties=species:S:1:pos:R:3:forces:R:3:charge:R:1 energy=-222.0800396238389 homo_lumo=3.628924058499587 dipole="-0.2182332745691054 -0.02193166889139807 1.830103934167173" free_energy=-222.0800396238389
N      -0.6964958843      0.2659302510      0.2024496313      0.1594552568      0.2116055312      0.2142336877     -0.5300753313
C      -1.6709519089      1.3338869801     -0.2109897107     -0.6413368693      0.2580956696      0.0420635141     -0.0124163489
C      -1.0064639572     -1.0163704470     -0.5174468447     -0.4833175510     -0.5639342311     -0.0653556940     -0.0412617581
C       0.6583704830      0.7601850001     -0.2326288880      0.5294652336     -0.1791320040      0.0795227737     -0.0367754905
C      -3.1261519636      0.9210344820     -0.0427335076      0.3129377507     -0.2437715846     -0.3198200233     -0.1528354414
C      -2.4588487479     -1.4473840076     -0.3713062763      0.0882311093      0.4630809992     -0.1417835435     -0.1488238660
C      -3.3976623398     -0.3448399510     -0.8517548994      0.0430046061     -0.0408499883      0.3344552369     -0.1540699477
C      -0.7181499509      0.0767409890      1.6742024171     -0.0898155582     -0.0646600772     -0.0073644053      0.0886974044
C       1.8342411019     -0.1412262525      0.1350851145     -0.1076569048      0.4578846924     -0.3575165112     -0.1948087338
C       3.0076659347      0.1875792499     -0.7985460808      0.0459350069     -0.4510792128      0.3447000187     -0.2072726845
C       4.2242421985     -0.6790321946     -0.4851850309     -0.2760441632      0.3520183331     -0.0873051854     -0.0439459633
H      -1.4770473029      1.5200275877     -1.2750569700      0.0926284633     -0.1436051022     -0.3117962228      0.2085031073
H      -1.4419749216      2.2275210724      0.3747624136      0.1765681439      0.1737545403      0.2256043386      0.0816110911
H      -0.3454159824     -1.7879160821     -0.1193429342      0.2169191789     -0.0824019636      0.1266355188      0.0982578643
H      -0.7623299233     -0.8387519257     -1.5695608682      0.1755658695      0.1564906328     -0.2143281982      0.2553692881
H       0.7918581581      1.7545700770      0.2016406870     -0.0673232079      0.2569871052      0.1927657403      0.0816244672
H       0.6043699599      0.8398871778     -1.3246240342     -0.0875675117     -0.1556412809     -0.2950472663      0.2404285675
H      -3.7404273751      1.7435950757     -0.4181179324     -0.1367629440      0.2785931887     -0.0253521603      0.0949729622
H      -3.3791503976      0.7684254193      1.0119528206     -0.1446554383      0.0063678974      0.2881265252      0.0648226599
H      -2.6846465676     -1.7167136339      0.6665392119     -0.1228733481     -0.1626924065      0.2723537895      0.0618500757
H      -2.5905650509     -2.3427185556     -0.9844504222      0.0328718759     -0.2964653292     -0.1015138881      0.0923062284
H      -4.4382951290     -0.6550543882     -0.7317497650     -0.3077753797     -0.0881530509      0.0245389532      0.0545023600
H      -3.2038818675     -0.1427263101     -1.9100399242      0.0794624489      0.0621215133     -0.2369105428      0.1451667111
H      -1.7191011074     -0.2013255817      1.9947887390     -0.2382475017     -0.0670184714      0.0709035338      0.1002216018
H      -0.0195880433     -0.7129220163      1.9425185765      0.1992775819     -0.2043582272      0.0466128229      0.0866354610
H      -0.4251612872      1.0096193227      2.1535480961      0.0830711040      0.2701297242      0.0990990350      0.0669313246
H       1.5749216114     -1.1941534824      0.0030099550     -0.0346045588     -0.2630169748     -0.0929716461      0.1206099978
H       2.1275986218      0.0072207574      1.1798370553      0.1252424454     -0.0218933108      0.2805192475      0.0635627318
H       3.2719881923      1.2451313562     -0.6944903922      0.0473228192      0.3065540861     -0.0042588282      0.0678807925
H       2.6863958684      0.0168742584     -1.8312091293     -0.1567375341      0.0415710521     -0.2063660329      0.1505908787
H       3.9828662739     -1.7355547943     -0.6096209822     -0.0332453292     -0.3379660499     -0.0420802574      0.0257468834
H       4.5606291130     -0.5176713466      0.5406465362      0.1649297473     -0.0016018968      0.3099140803      0.0156475469
H       5.0408577652     -0.4280952541     -1.1620592665      0.3224461416     -0.0098715259     -0.1653205969      0.0339185057
C      -0.2607204287      0.4738635055     -5.1765445626      0.0872389989     -0.0425699525      0.5537471004     -0.0785205175
C      -0.3702869453      0.3208069065     -3.6436350053      0.1169297175      0.1743849279     -1.2355718296      0.9335894795
O       0.6093636847     -0.1775673073     -3.0455442183      1.0566216891     -0.5470571224      0.4964428425     -0.8515198223
O      -1.4407619100      0.6993163014     -3.1169367044     -1.1285826861      0.4910697545      0.4297497201     -0.8577420594
H      -0.6438243687      1.4480070126     -5.4751773446     -0.1809926173      0.2747658366     -0.1518265216      0.0246613072
H       0.7733161510      0.3602649496     -5.4958777500      0.2947442926     -0.0653638713     -0.1469287579      0.0224015686
H      -0.8700743525     -0.2995416144     -5.6434372049     -0.2133303777     -0.2023718505     -0.2225703673      0.0295570980
