40
Properties=species:S:1:pos:R:3:forces:R:3:charge:R:1 energy=-222.1206732557042 homo_lumo=3.575681026518503 dipole="-1.270713156341252 -0.4343078036205554 -1.519507492705534" free_energy=-222.1206732557042
N      -0.4777285124     -0.1869643858      0.2611439166     -0.0051565558      0.0041513348     -0.0077747166     -0.5059551659
C      -1.1567573470      1.1271095867      0.6220070565      0.0008383205     -0.0030033784      0.0235925977     -0.0290123557
C      -1.1268061094     -0.7851866221     -0.9594892670     -0.0038112500     -0.0186317456      0.0132203884      0.0058908752
C       0.9777076111      0.1665457324     -0.0322951604      0.0006437572      0.0028360940      0.0034122284     -0.0542894588
C      -2.6626506198      0.9948986714      0.7708804216      0.0024920579     -0.0071852899     -0.0104940330     -0.1693073465
C      -2.6255358439     -0.9765606882     -0.7846632830      0.0101865196      0.0209366082     -0.0088254588     -0.1593960009
C      -3.3074001684      0.3536874199     -0.4598236486      0.0025640027     -0.0103485173      0.0114014416     -0.1639611233
C      -0.5351979405     -1.1273662735      1.4357390293     -0.0001704800      0.0072695527     -0.0013501097     -0.0044981383
C       1.9294891912     -1.0083844772     -0.1216674001      0.0008712803     -0.0078094844      0.0050129668     -0.1993047974
C       3.3622018005     -0.4775658905     -0.3215591465      0.0087341446      0.0138087396      0.0105234550     -0.1814016943
C       4.3899535299     -1.3535141280      0.3906577175      0.0006155524     -0.0197462024      0.0027654148     -0.0811294239
H      -0.9128414744      1.8146075250     -0.2049274247     -0.0030304581      0.0019660631     -0.0112608103      0.1094756063
H      -0.6284062765      1.4698331565      1.5349140930     -0.0124440275     -0.0046411715     -0.0045249758      0.2023197233
H      -0.6083588444     -1.7322870768     -1.1668040929     -0.0096400657      0.0055929505     -0.0024829256      0.1329268764
H      -0.9232641742     -0.0867997972     -1.7875240311     -0.0057838355      0.0099791097     -0.0091377522      0.1170189877
H       1.2633978736      0.8083349891      0.8225274214     -0.0028539744      0.0050666025      0.0030460168      0.2457841664
H       0.9601772774      0.7601879651     -0.9612448420     -0.0104412928     -0.0030292725     -0.0041663596      0.0840013397
H      -3.0606011887      2.0095497421      0.9383311842      0.0024596706     -0.0031620129     -0.0031079616      0.1072269697
H      -2.9149850167      0.4197490915      1.6775646776      0.0042304321     -0.0057241252     -0.0022486083      0.0947772727
H      -2.8227509034     -1.7158876907      0.0098332069     -0.0013180020     -0.0027707506      0.0091951550      0.1021983422
H      -3.0217893101     -1.4070210197     -1.7196446568     -0.0012293124      0.0098903081     -0.0006224587      0.0982411587
H      -4.3874857503      0.2034709250     -0.3007660180      0.0069668513     -0.0005415974      0.0070381991      0.0826895696
H      -3.2010474800      1.0335550273     -1.3259420605      0.0053895180      0.0020281443      0.0032296173      0.0851063897
H      -1.5345100369     -1.0859063706      1.8789788599     -0.0037441189     -0.0119007118     -0.0030545166      0.0862962809
H      -0.3331947293     -2.1434994809      1.0741042609      0.0034924363      0.0005500982     -0.0014546565      0.0538730744
H       0.2586367451     -0.8132817560      2.1571680369     -0.0150302377      0.0080297401     -0.0000584816      0.2038244276
H       1.6679295527     -1.7132906380     -0.9307435801      0.0058073312     -0.0038347482      0.0073920863      0.0557785069
H       1.9071562210     -1.5393710132      0.8407407534      0.0021168052      0.0025541406      0.0101383099      0.1555448226
H       3.4255113762      0.5406331133      0.1009621310      0.0044482712     -0.0040848616      0.0043270689      0.1033697463
H       3.5918241822     -0.3894460745     -1.3981595973     -0.0059285948      0.0042776413      0.0077508799      0.0637675952
H       4.3368672843     -2.3986176228      0.0448197932     -0.0001237982     -0.0016856588     -0.0202666713      0.0204029597
H       4.1851161767     -1.3376212377      1.4735365400      0.0094983017     -0.0140154928     -0.0095589593      0.0768977393
H       5.4148078202     -0.9901562218      0.2226187708      0.0111569587      0.0015073218     -0.0092795714      0.0307237664
C       2.7505649902      1.4123340419      4.3146976512     -0.0034875331      0.0053395830     -0.0023943275     -0.0969162468
C       1.8133637960      0.8471760911      3.2418304152      0.0081040910      0.0084812362      0.0037199721      0.9046512303
O       1.0377145248      1.6816635091      2.6728688632      0.0025557859      0.0048314340     -0.0077645933     -0.8463401834
O       1.8903955142     -0.3965153885      2.9976740423     -0.0016372457     -0.0070580547     -0.0019909881     -0.8371475298
H       3.3543769348      2.2269288237      3.8865287796     -0.0039880777      0.0038800769      0.0034753172      0.0328879784
H       2.1540843807      1.8501092340      5.1299945900     -0.0030390357      0.0051277050     -0.0096731399      0.0431038453
H       3.4091753851      0.6331265920      4.7206619596     -0.0003141924      0.0010685916      0.0022509605      0.0298802140
