22
Properties=species:S:1:pos:R:3:forces:R:3:charge:R:1 energy=-134.14767302943088 homo_lumo=2.0977712204953414 dipole="-0.7929196101828916 -0.2334901779521274 1.6610004947788843" free_energy=-134.14767302943088
N      -0.2889836180     -0.2919121926     -0.3523185025      0.0041080974     -0.0010301013     -0.0021544379     -0.5287862821
C      -0.0764064824      0.9312365032      0.2011880844      0.0015691996      0.0020588873      0.0045096293      0.2894910869
C       0.7026740569     -1.2157753476     -0.3942439215     -0.0012959363      0.0043680038      0.0025373820      0.2862907132
C      -1.4631921629     -0.4728492807     -1.2074011570      0.0066663789      0.0026175895      0.0019078463      0.0854622196
C       1.0788617200      1.2024648486      0.8869626718     -0.0062219050     -0.0055244291      0.0067830385     -0.0396387189
C       1.8650595148     -1.0080952780      0.3617990655     -0.0077315581      0.0011485026      0.0034949595     -0.0096046235
C       2.0603454220      0.2007018537      0.9909482573     -0.0032646411      0.0062025724      0.0026172465      0.0240261891
H      -0.8729606663      1.6586418279      0.0634593285     -0.0022033294     -0.0020110516      0.0025012101      0.0865084509
H       0.4485544214     -2.1794074107     -0.8209186368     -0.0024799986      0.0043244665     -0.0050027486      0.1044072209
H      -1.5806733942     -1.5375255952     -1.4344662125     -0.0089673915      0.0046123199      0.0066393256      0.0629918466
H      -2.3537033775     -0.1018560384     -0.6853222682      0.0057551798      0.0155686475     -0.0206118248      0.0580428369
H      -1.2630159683      0.0960580400     -2.1321735365      0.0158552500     -0.0097628670      0.0018270995      0.1097459462
H       1.2182835756      2.1861850322      1.3323898421     -0.0012469893     -0.0025724264      0.0035510850      0.0466559466
H       2.6144040208     -1.7983419921      0.3887742071     -0.0000130079      0.0132321740     -0.0147620528      0.0552164823
H       2.9755236453      0.3868123450      1.5553885313     -0.0032848515      0.0028152028      0.0019093522      0.0509884207
C       1.4501839199      0.1324760218     -2.9922309911     -0.0055031478     -0.0154777393      0.0133761311      0.9227279652
O       1.5832025490     -1.0186687136     -2.4657860085     -0.0080013833     -0.0022227922      0.0100099725     -0.7646393505
O       0.7080393095      1.0853992125     -2.6963352178      0.0059832230     -0.0066703688      0.0089185968     -0.7832648706
C       2.3609931998      0.3238497414     -4.2505672656      0.0035466090     -0.0022503812     -0.0140483609      1.3106362308
F       1.7429427450     -0.2126249645     -5.3533546030      0.0090218893     -0.0053318786     -0.0035540208     -0.4586220232
F       3.5718648703     -0.2929507482     -4.1260744692      0.0003549800      0.0024384781     -0.0014128671     -0.4559192112
F       2.6039778448      1.6347780310     -4.5211330557     -0.0026466672     -0.0065328090     -0.0090365621     -0.4527164761
