79
Properties=species:S:1:pos:R:3:forces:R:3:charge:R:1 energy=-428.0989259831396 homo_lumo=4.916293843236884 dipole="2.0741890208274913 4.407331392466556 0.20392978558139147" free_energy=-428.0989259831396
N      -1.9466254286     -0.8802603277     -1.6524360324      0.0019157424     -0.0007425384     -0.0004795384     -0.4830414114
C      -2.8485655503     -1.3232813238     -2.7995036815      0.0009385451      0.0008059450     -0.0032873322     -0.0530944234
C      -2.1212466180      0.6118127775     -1.4388959757     -0.0002759764      0.0006441198     -0.0028553760     -0.0145107816
C      -2.2805475139     -1.6217133912     -0.3555520142      0.0039570034      0.0053180316      0.0008468264     -0.0659538985
C      -0.5181124210     -1.1528639415     -2.0819395944     -0.0010876754     -0.0035714858     -0.0067895823     -0.0202633357
C      -4.3003154488     -0.9189891107     -2.6154472746     -0.0006341401     -0.0013139148     -0.0013791316     -0.2107490061
C      -3.5685170681      1.0173023628     -1.2155206114     -0.0033658163      0.0040170421      0.0036739190     -0.1616950292
C      -4.4447515395      0.5826845513     -2.3880517072     -0.0054281278      0.0018573058     -0.0053995020     -0.1570422188
C      -1.7967827153     -3.0575093471     -0.2450539796     -0.0031217248     -0.0092962251     -0.0040062060     -0.2469000535
C       0.5547944277     -0.7761495636     -1.0744152089      0.0018039558      0.0010242094      0.0050072453     -0.2187941403
C      -2.0756774665     -3.5635656873      1.1773434152     -0.0032457747     -0.0005689703      0.0026237070     -0.1884523672
C       1.9182727549     -1.2908003296     -1.5436706684      0.0014998823     -0.0061855679     -0.0039952765     -0.1611055079
C      -1.4221773027     -4.9206148489      1.4415594077      0.0097843115      0.0010606667     -0.0096434838     -0.1934068048
C       3.0410669896     -0.9201300624     -0.5780801828     -0.0046908843      0.0070668880      0.0050246947     -0.1680213811
C      -1.5293544338     -5.3753882664      2.8999603285      0.0088458167     -0.0027277822      0.0061980500     -0.2029232917
C       4.4095243808     -1.4287019792     -1.0259374534      0.0024735963     -0.0039433112     -0.0060383517     -0.2073398365
C      -2.9569493516     -5.6578576098      3.3647854912     -0.0024229365     -0.0014871646      0.0080196950     -0.0897341288
C       5.5188789313     -1.0500417895     -0.0489070747      0.0039229404      0.0033157998      0.0075970699     -0.0680529884
H      -2.4279151476     -0.8439585704     -3.6985377047      0.0007585794      0.0056908406     -0.0020499549      0.1153367346
H      -2.7346006083     -2.4092400202     -2.8979920401      0.0027161970     -0.0032452891      0.0022422762      0.2187888722
H      -1.4838147950      0.8923709401     -0.5901870930      0.0020597645     -0.0039108474      0.0005991775      0.1396957995
H      -1.7264585990      1.0918936069     -2.3497805279     -0.0031244403      0.0005135593     -0.0041703823      0.1310673200
H      -1.8430689354     -1.0110430945      0.4491575052      0.0053683787     -0.0017156668     -0.0048913943      0.1246755819
H      -3.3711633062     -1.5828403130     -0.2478706307      0.0050901067     -0.0002545935      0.0014314969      0.2014549631
H      -0.4755795179     -2.2248833703     -2.3231426357      0.0004570914      0.0026237985     -0.0019574808      0.1607387142
H      -0.3782096293     -0.5954898731     -3.0216372186      0.0028717610      0.0015623195      0.0000306754      0.1300765042
H      -4.8334427158     -1.2454973110     -3.5227692134      0.0019489006     -0.0016700958      0.0018723258      0.1411193043
H      -4.7598543240     -1.4818791631     -1.7893026987      0.0008546633     -0.0037991043      0.0046604664      0.1485580676
H      -3.9460890327      0.5914538502     -0.2706300120      0.0008321499      0.0016700155     -0.0008255839      0.1081020464
H      -3.5830697075      2.1129033507     -1.0897215508      0.0016528331     -0.0014932827     -0.0060131364      0.1083443436
H      -5.4977315649      0.8410227984     -2.1963025607     -0.0008477775      0.0004694713     -0.0047761830      0.0947159798
H      -4.1363426351      1.1317997021     -3.2968851487     -0.0026569506     -0.0002325773     -0.0030888135      0.0834939706
H      -2.2943591315     -3.7161865351     -0.9733329454      0.0001839768      0.0050546819      0.0013332401      0.1893677721
H      -0.7109569432     -3.1235685122     -0.4204087872     -0.0025109243     -0.0025918600     -0.0005177880      0.1156599986
H       0.3343577138     -1.2087200481     -0.0847011278      0.0008161133     -0.0012848325     -0.0063558518      0.1306064825
H       0.6083369332      0.3183587474     -0.9495449287     -0.0007369285     -0.0021357508     -0.0017431194      0.1028986782
H      -3.1649355990     -3.6292977631      1.3312694077      0.0027800515     -0.0066624930     -0.0021033012      0.1391812163
H      -1.6847069185     -2.8272227922      1.9085222442     -0.0048850905     -0.0057971827     -0.0031630620      0.0634610003
H       2.1446556078     -0.8835680323     -2.5464991017      0.0011335475     -0.0023092498      0.0024479429      0.0896643398
H       1.8752473189     -2.3900002406     -1.6538263148      0.0017200895      0.0062098214      0.0019857322      0.1043207084
H      -1.8760533615     -5.6732242313      0.7776542981      0.0026361810     -0.0005733046      0.0008280143      0.1791244273
H      -0.3511011829     -4.8562872408      1.1695785420     -0.0103899388      0.0038636442     -0.0038394677      0.0589501407
H       3.0798776048      0.1799657340     -0.4642853608      0.0009795842     -0.0052743610     -0.0006789953      0.0858393230
H       2.8102365246     -1.3294819652      0.4235546788      0.0019696813      0.0030563219     -0.0026374560      0.0928547511
H      -0.9246099426     -6.2913836628      3.0206722373     -0.0022928602      0.0021732679     -0.0011417992      0.0842835913
H      -1.0667895942     -4.6102298360      3.5529591913      0.0016423881     -0.0040303553     -0.0027764000      0.0595252191
H       4.3696747778     -2.5274765953     -1.1385388545     -0.0001542222      0.0065887783      0.0029425748      0.0926326653
H       4.6386972269     -1.0215234370     -2.0277900166     -0.0017670998     -0.0015966253      0.0068599163      0.0871296870
H      -2.9670656593     -5.9896387763      4.4147980458     -0.0021675523      0.0028965079     -0.0017193702      0.0312693925
H      -3.4173927592     -6.4466906715      2.7531245415     -0.0005896633      0.0020882176      0.0069086986      0.0891525818
H      -3.5970602349     -4.7649971485      3.2933463672      0.0022196090      0.0024951397      0.0052206859      0.0247772128
H       5.5924373836      0.0441688098      0.0588914010      0.0056439912     -0.0027806466     -0.0014717435      0.0352275797
H       5.3241411108     -1.4726278656      0.9499105711      0.0061195757      0.0006401626     -0.0031440566      0.0384830354
H       6.4967954280     -1.4227250317     -0.3878985686      0.0102699573     -0.0019171120      0.0018871137      0.0448119629
P      -4.3824726717     -6.5923586941     -2.0862735764      0.0002289122      0.0128029093      0.0037300690      1.7498358371
F      -3.6018544711     -7.2655880599     -3.3897886284     -0.0033252730      0.0034599269      0.0050083096     -0.5089330164
F      -2.9367048328     -6.1696317084     -1.3408562623      0.0080112237      0.0005527416      0.0065791333     -0.5271377159
F      -5.8527175924     -6.9124693746     -2.7875332754     -0.0063858462      0.0025071030      0.0070680123     -0.5086509157
C      -4.1812030892     -4.9315170937     -3.1342779080     -0.0083943902     -0.0022756958     -0.0030836213      0.4736642449
C      -4.2568358004     -8.4294434277     -1.2297013613     -0.0026444470     -0.0013210473     -0.0032142688      0.5277705169
C      -5.4363138939     -5.8347317469     -0.5074025557     -0.0080774358     -0.0069881414     -0.0014798444      0.5331476129
C      -5.0020992522     -4.7151252207     -4.4387482363      0.0209799617      0.0022794238      0.0114477306      1.3820154554
C      -3.8857142445     -8.7102813419      0.2696197876      0.0121357242      0.0072439636      0.0236821773      1.3658239481
C      -6.2952702532     -4.5219905452     -0.4350176630     -0.0029289563     -0.0098783365     -0.0096978901      1.3919441832
F      -2.8580298966     -4.7801721986     -3.5273804427     -0.0098157563      0.0011473031      0.0093393598     -0.4597910811
F      -4.4472569251     -3.8094216144     -2.3568210368     -0.0030971168      0.0035608198     -0.0012060431     -0.4883382496
F      -3.2421303728     -9.0997521267     -1.8854934535      0.0003439387     -0.0019198389      0.0059346041     -0.4373016651
F      -5.4158609843     -9.1336867393     -1.4583070409      0.0125760577     -0.0021223577      0.0065644265     -0.4370262911
F      -4.6068295383     -5.7266578378      0.5979906565     -0.0080323049     -0.0007940776     -0.0023011118     -0.4627251136
F      -6.3666672986     -6.8137124110     -0.2288720062     -0.0067461610      0.0027776562     -0.0168769570     -0.4390520574
F      -4.5867702276     -3.5347700479     -5.0290956156     -0.0097275298      0.0032725087     -0.0000338757     -0.4772048664
F      -6.3217798302     -4.5815329050     -4.1956375664     -0.0163211309     -0.0067110699     -0.0034377465     -0.4416647751
F      -4.8113659932     -5.7002219513     -5.3300754992     -0.0021228380     -0.0096691782     -0.0149938589     -0.4315372790
F      -3.6943022586    -10.0539876359      0.4191793287      0.0010819640      0.0108722603      0.0046943978     -0.4483623647
F      -2.7242847336     -8.0956509557      0.6149326149     -0.0120910875      0.0004461448     -0.0058624580     -0.4630198410
F      -4.8355350767     -8.3548934255      1.1613805848      0.0088126623      0.0100837814     -0.0070351960     -0.4532376788
F      -5.5375094536     -3.4128321269     -0.1589497327      0.0051064678      0.0002875487     -0.0035266227     -0.4819837271
F      -7.1837198541     -4.6188602284      0.5915315553     -0.0089976508     -0.0002166892      0.0024190704     -0.4455974470
F      -6.9966389457     -4.2937857395     -1.5640177903     -0.0020394493     -0.0089920241      0.0089797793     -0.4469470770
