31
Properties=species:S:1:pos:R:3:forces:R:3:charge:R:1 energy=-172.46242303536386 homo_lumo=3.1527150872771084 dipole="-1.1899937197366341 1.7131438103024463 0.6933275746249421" free_energy=-172.46242303536386
N       0.9517647669     -0.1231178873     -0.3307954968     -0.0077131962      0.0011515290     -0.0038236282     -0.5422390918
C       0.1345451040      1.1375465826     -0.4669895609     -0.0053597243     -0.0010540495     -0.0024861892      0.0169717075
C       0.1407991056     -1.3307581929     -0.7913641108      0.0002739342      0.0036394553     -0.0098699486     -0.0334333714
C      -1.2150296945      1.0620386973      0.2296567980     -0.0044948446     -0.0082878204      0.0038173660     -0.1680240862
C      -1.2013752109     -1.4217562990     -0.0904734403     -0.0030037094      0.0053918268     -0.0032762718     -0.1692987208
C      -2.0206902232     -0.1426430329     -0.2570714746      0.0024027762     -0.0015352474      0.0009832817     -0.1640550754
C       1.4162562996     -0.3461972680      1.0778150520      0.0066871687     -0.0063948014     -0.0028811379      0.0603044370
C       2.1817503806     -0.0098162711     -1.1892910623     -0.0070692406      0.0037039468      0.0013033771      0.0465177574
H      -0.0016196184      1.2827947907     -1.5508289341     -0.0052971259     -0.0004337030     -0.0005016577      0.1295413644
H       0.7538289191      1.9625946669     -0.0824188183      0.0044693070      0.0007705276      0.0018777556      0.1133773773
H       0.8113525577     -2.1903898085     -0.6215943317      0.0035987581     -0.0010967735     -0.0047236058      0.2402310201
H       0.0258302648     -1.2162577804     -1.8791126515     -0.0019823013      0.0027505894     -0.0083232038      0.1244670852
H      -1.7477215068      2.0051376848      0.0210032074      0.0016315960      0.0017715938      0.0040237846      0.1051501057
H      -1.0807690939      1.0167934955      1.3240638892      0.0055329639     -0.0036060767      0.0030428793      0.0978256325
H      -1.0702761815     -1.6565593948      0.9800449924      0.0038689069     -0.0050081643     -0.0037212841      0.0909166739
H      -1.7292014413     -2.2854913420     -0.5271595783     -0.0026075119     -0.0015776350     -0.0051946572      0.1113928816
H      -2.9744987168     -0.2099731474      0.2906376476     -0.0001002392     -0.0007284397     -0.0005624664      0.0812293411
H      -2.2682885318     -0.0064853602     -1.3260570041     -0.0051059207      0.0043052222      0.0026249004      0.0895417556
H       0.5527346819     -0.4346534690      1.7438836147     -0.0016060532     -0.0098177635      0.0002195774      0.0761023957
H       2.0065119002     -1.2774064154      1.0538624434      0.0077375800     -0.0103641177     -0.0097051042      0.1495893672
H       2.0328002467      0.5119391346      1.3763534539      0.0077911268      0.0008502878     -0.0069241565      0.0587438532
H       1.8751505339      0.0253456268     -2.2406090188     -0.0025794044      0.0127500685     -0.0063863693      0.0668718314
H       2.7122902069      0.9050399963     -0.8903035664      0.0024040582      0.0083618600      0.0012635410      0.0402262074
H       2.7629249479     -0.9304104435     -1.0116858640      0.0031565392      0.0010130132     -0.0086650672      0.1970674996
C       3.6336231184     -4.5752304299     -1.6267525785     -0.0047543330      0.0067123185      0.0086701672     -0.0876957477
C       2.8054363743     -3.2973167922     -1.4357356302     -0.0094988976      0.0142198813      0.0102125222      0.8600192446
O       2.2589587303     -2.7900467176     -2.4513658942     -0.0007367626     -0.0045140025      0.0025725013     -0.8111303431
O       2.7557666392     -2.8339122544     -0.2365123222      0.0012237116     -0.0052629077      0.0154562362     -0.8684863387
H       3.3625879083     -5.0772987023     -2.5652229033      0.0015524679     -0.0043858592     -0.0006353814      0.0285829293
H       4.7007381496     -4.3054294352     -1.6732825221      0.0077203030      0.0027909880      0.0073394499      0.0344113644
H       3.5040861786     -5.2552823524     -0.7729130048      0.0018580673     -0.0061157468      0.0142727893      0.0252809431
