43
Properties=species:S:1:pos:R:3:forces:R:3:charge:R:1 energy=-229.82322034995278 homo_lumo=4.765581364318602 dipole="-3.2553826189623516 -1.7666187982915706 -3.4517421225814573" free_energy=-229.82322034995278
N      -0.5605565338      0.0943369520     -0.1095468911      0.0405058789     -0.1571987559     -0.3678590712     -0.5230747141
C      -1.5607807990      0.5316863825     -1.1371042108     -1.3819969090      0.4920885257     -1.0014313498     -0.0241131929
C      -0.9001285679     -1.2993475677      0.3273698770     -0.6362730052     -1.5321419329      0.7754718864     -0.0341415205
C       0.7757246321      0.0725480403     -0.7983036179      1.8204643926     -0.1530423661     -0.3431171826     -0.0421301698
C      -0.5503311186      1.0069311664      1.0860274019      0.1694743367      1.3852838320      1.2979011436     -0.1224585586
C      -3.0220537963      0.4446251099     -0.6661710638      0.0260682627     -0.0043561094      0.0260787868     -0.1782236626
C      -2.3551297272     -1.4708806614      0.8115884152     -0.0483535443      0.1502612228     -0.0403683904     -0.1689994496
C      -3.3543933352     -0.9777877471     -0.2300962556     -0.2915411148     -0.0431917125      0.1354489847     -0.1653895562
C       1.9893933164     -0.2944832963      0.0909215997     -0.3656345628      0.2715961973     -0.0228668686     -0.2533021406
C      -0.1415358406      2.4647165525      0.8087857829     -0.0237919903     -0.1738303579     -0.2684254311     -0.1320486613
C       3.2731431795     -0.3498521619     -0.7478904319     -0.0697065266     -0.0176666232     -0.1439295536     -0.2080414034
C       4.4753813058     -0.7575346741      0.0986605397      0.2168313061      0.0327636922      0.0647043782     -0.0977688007
H      -1.4777488908     -0.1086310531     -2.0469252190      0.3517093435     -0.0173495475      0.5345758670      0.1439811198
H      -1.3587183609      1.5636917677     -1.4914849861      0.3525099442     -0.3037482396      0.4207606663      0.1570345242
H      -0.2455344492     -1.6250731739      1.1640132656      0.0870748462      0.4873250086     -0.4157947948      0.1715935034
H      -0.7380907851     -2.0196871745     -0.5074935222      0.1112323621      0.6069452461      0.0344407861      0.1393729512
H       0.9817513624      1.0567007551     -1.2748368391     -0.4185198977     -0.1673326485      0.3511060402      0.1545597379
H       0.7511036347     -0.6548240827     -1.6427577496     -0.4634593563      0.1457769050      0.3758513963      0.1374850131
H      -1.5442907311      1.0475065802      1.5711938269      0.0550058174     -0.4046063526     -0.5042984480      0.1663994215
H       0.1205617620      0.6058306354      1.8749535937      0.0455218087     -0.1832365623     -0.4941220767      0.2129976254
H      -3.6910680354      0.7238226063     -1.5094065565      0.3501428579      0.0954662152      0.1536140753      0.1170541005
H      -3.2262604106      1.1633724137      0.1541286737      0.0835806972     -0.1231675662     -0.1740285785      0.1160695780
H      -2.5161708911     -0.9437475191      1.7751100798      0.0979754049     -0.1197018793     -0.1906821925      0.1173333141
H      -2.5457014454     -2.5494532584      1.0021214071      0.3072788307      0.2725641434      0.0389594909      0.1227986055
H      -4.3799885147     -1.0053203142      0.1965888558      0.2251733980     -0.0986568619     -0.2035218418      0.1019606358
H      -3.3300127976     -1.6516215165     -1.1146839263     -0.0518292911      0.1365857017      0.1625846777      0.0921178388
H       1.8429857159     -1.2866215547      0.5637184221     -0.0035105950      0.2419222107     -0.0001684328      0.1159489944
H       2.1323299436      0.4654453462      0.8858311256     -0.0335570811     -0.2735645125     -0.0165067241      0.2091076185
H      -0.1819348980      3.0325250288      1.7620690044      0.1503668391     -0.3449378251     -0.1983626216      0.1269744801
H       0.8956421066      2.5403470371      0.4258955855     -0.2997656099      0.0747205658      0.1894253410      0.0934881347
H      -0.8430494594      2.9646022900      0.1126006318      0.1894320887     -0.1156279609      0.0683389530      0.0506983352
H       3.4711209349      0.6481899131     -1.1958785054     -0.1118671066     -0.2236217065      0.0052112093      0.0951203078
H       3.1543460601     -1.0877477184     -1.5710555452     -0.0564134274      0.2325118720      0.0255446245      0.0738489020
H       4.3154391267     -1.7658362903      0.5370549214      0.1177524483      0.3057247980     -0.0629819310      0.0339732620
H       4.6406961363     -0.0247698937      0.9153397419     -0.0331374993     -0.2557043447     -0.1262884599      0.1119764396
H       5.3838847697     -0.7873787637     -0.5392231517     -0.2157743246     -0.0414013349      0.2585557640      0.0439298415
P       3.1277860085      2.1090268822      3.9740200925      0.8338030630      0.6532559018      1.1225536857      2.1265203748
F       4.0822159232      1.9213797904      2.5589131865     -0.6286338088     -0.2228002514      1.0855653602     -0.5200377013
F       4.0895749227      3.4312065546      4.5016971293     -1.0410495549     -1.0515319036     -0.8917709189     -0.5010644719
F       2.1424699659      3.1355503297      3.0134322425      0.3641169313     -0.8658630293      0.6632836337     -0.5238369557
F       2.0674257164      2.3978076213      5.2945904807      1.0256210799     -0.5255141119     -1.1596825849     -0.5059011410
F       2.2120557986      0.7052949528      3.5971334144      0.3789713071      1.0556219724     -0.2863953121     -0.5295622762
F       4.1898504749      1.1013712494      4.8730270278     -1.2257980394      0.7793804859     -0.8773739862     -0.5022502833
