45
Properties=species:S:1:pos:R:3:forces:R:3:charge:R:1 energy=-245.98607942637622 homo_lumo=5.403380666626257 dipole="1.0797524217811043 -1.1295114080525446 -2.905743363457742" free_energy=-245.98607942637622
N      -0.7312671186      0.4779319200     -0.1183258300      0.0055971151      0.0027134881      0.0064268032     -0.4838826743
C      -1.8806621882      1.3553006491      0.3641432535      0.0103224173      0.0027618632      0.0086030518     -0.0688797020
C      -1.0627952909     -0.0175563888     -1.5104465458     -0.0008109672      0.0096399140      0.0056136215     -0.0087627160
C      -0.5292856861     -0.6663375337      0.8587408936     -0.0085796996      0.0055512639     -0.0001860100     -0.1070386992
C       0.5269063278      1.3258742672     -0.2210906867     -0.0127113502     -0.0085297815     -0.0080799518     -0.0219090065
C      -3.2254373864      0.6553945916      0.3264487326     -0.0165929214      0.0001958585      0.0097648800     -0.1890325891
C      -2.3868970630     -0.7612239163     -1.5717900024     -0.0105442381     -0.0063788208      0.0011953948     -0.1745562981
C      -3.5363173335      0.1140321006     -1.0668172678     -0.0189086287      0.0028486426     -0.0114449423     -0.1568440603
C       0.5551943809     -1.6587171550      0.4819340555      0.0002460251     -0.0001542487      0.0073748843     -0.2603613527
C       1.0982127878      1.8247289329      1.0951150607      0.0086780079      0.0040365618     -0.0060679096     -0.2837821675
C       0.6972765514     -2.6895640563      1.6044071053     -0.0014028515      0.0083296258     -0.0000752028     -0.0675356706
C       2.2568562897      2.7824959958      0.8160121040      0.0048705607      0.0012189766     -0.0038086809     -0.0674404000
H      -1.6350224067      1.6869795037      1.3761672327     -0.0082729380      0.0049689448     -0.0011505545      0.2516585225
H      -1.8756931250      2.2351404298     -0.2999398532     -0.0021245006      0.0026251640     -0.0053847004      0.1088916872
H      -1.1008415521      0.8852843768     -2.1417132231     -0.0064675197      0.0022627428      0.0015775094      0.1300465012
H      -0.2183075897     -0.6344395340     -1.8462392620     -0.0035078955     -0.0025023518     -0.0048627892      0.1319569363
H      -0.3170967717     -0.1984717792      1.8293514528     -0.0024247431     -0.0024325777     -0.0005349724      0.2495416870
H      -1.4952570155     -1.1723032169      0.9654163050      0.0036008096      0.0026154104      0.0038526564      0.1970677116
H       1.2660955299      0.7184253163     -0.7661134023     -0.0046896262      0.0063998292     -0.0046916405      0.1288098807
H       0.2513049486      2.1754683345     -0.8663813328     -0.0045852368      0.0062373980      0.0000992901      0.1315948601
H      -3.2695108881     -0.1359651849      1.0922636815      0.0027942036      0.0052783449     -0.0055606541      0.1392511963
H      -3.9696978563      1.4016281596      0.6503050290      0.0015376059      0.0003501388     -0.0073251462      0.1411834432
H      -2.5469361050     -1.0575698863     -2.6222212005     -0.0042398944      0.0044683085      0.0078354187      0.1034406588
H      -2.3274096711     -1.6966853393     -0.9902837084     -0.0028280245      0.0059087116      0.0044292960      0.1103011068
H      -4.4774070343     -0.4584059289     -1.0598813042      0.0155293100      0.0061291144      0.0073880999      0.0893341750
H      -3.6793717252      0.9582011579     -1.7676039568      0.0035453738     -0.0064205354      0.0077840373      0.0847143254
H       0.3078749611     -2.1771378825     -0.4599275952      0.0032983210     -0.0009214196      0.0004457955      0.0954868633
H       1.5214225254     -1.1481698575      0.3335660063      0.0011294642      0.0005435781      0.0019378586      0.1065317897
H       0.3314976940      2.3428922782      1.6882110923      0.0000686513      0.0016447204      0.0072856331      0.1942716432
H       1.4574314686      0.9832238152      1.7069205629      0.0013354929     -0.0032843135      0.0004004811      0.1241188195
H       1.4685643689     -3.4317876154      1.3540479837     -0.0044237915      0.0063777911      0.0052221382      0.0447238944
H      -0.2514072895     -3.2209921285      1.7740058877     -0.0061537484      0.0000508242      0.0035549356      0.0520187229
H       0.9760042751     -2.2014685722      2.5500753083     -0.0069263470      0.0029523894      0.0074205015      0.0662546683
H       2.6778599678      3.1491614497      1.7629044753     -0.0044739244     -0.0055841526      0.0001930264      0.0656362731
H       1.9196059907      3.6579657453      0.2394177043     -0.0010526464      0.0008004899      0.0018377413      0.0395065569
H       3.0655922649      2.2896470232      0.2526915644     -0.0065830243      0.0067426885     -0.0038513436      0.0312278678
N      -2.9228548467      1.6204601924      3.4675148700      0.0237722491     -0.0095026981     -0.0032018922     -0.8896509135
S      -1.9650648756      0.4488170099      3.9975955851      0.0080848945     -0.0006535864      0.0113753034      1.9359030881
S      -2.5938701171      3.1695837259      3.7790054829      0.0219917538     -0.0110208946     -0.0075571038      1.8955705444
F      -2.2212099664      0.4027556025      5.6144732543      0.0052484924     -0.0108733604     -0.0233875083     -0.4509705638
F      -1.3745590411      3.5030842529      2.6439423902      0.0112890408     -0.0069042740      0.0097919545     -0.4983449550
O      -2.5013479626     -0.8067121953      3.4954282386      0.0109289130     -0.0022654361     -0.0058757527     -0.7534431487
O      -0.5316784561      0.7003251260      3.8637144155     -0.0079707893     -0.0216345947     -0.0013445264     -0.7551888147
O      -1.9517985578      3.4513405831      5.0452510962     -0.0128661176     -0.0033193720     -0.0086603812     -0.6986856476
O      -3.7044117766      3.9551448032      3.2835087236      0.0152727225     -0.0012703656     -0.0083586497     -0.7127340438
