45
Properties=species:S:1:pos:R:3:forces:R:3:charge:R:1 energy=-243.36983712232833 homo_lumo=2.6076444560285235 dipole="-7.397596492850194 -1.7550602683595817 -2.4952581770579716" free_energy=-243.36983712232833
N      -0.2256069664      0.3051102155     -0.1679887480      0.0000981364      0.2824086440     -0.2503186393     -0.5202783977
C      -0.9158594003      1.2847046154      0.7344112691     -1.0486758674      0.9004977434      1.2706578756     -0.0382216392
C      -1.1284589919      0.0020698657     -1.3259988650     -1.2954470271     -0.5175378235     -1.1724856695     -0.0303528451
C       0.1257314172     -0.9337443310      0.6114767001      0.5883957362     -1.4176304606      0.4549105322     -0.0634674169
C       0.9977705085      0.9624908565     -0.7444529033      1.7659855743      0.7389269059     -0.1557294183     -0.0514628304
C      -2.3226535860      0.8403032582      1.1877210117      0.0059640590     -0.1332628930     -0.1140020745     -0.1713676879
C      -2.5183184504     -0.5139246078     -0.9195671906      0.0542101649      0.0295888499      0.0322113323     -0.1794382233
C      -3.2110148527      0.4885235636     -0.0024802201     -0.3051044158     -0.0977046770      0.1391398563     -0.1680684962
C       0.9164793749     -2.0137872528     -0.1660124893     -0.0486880535      0.2944046890     -0.1541183211     -0.2637447912
C       2.1300102535      1.2872338164      0.2608069840     -0.2405343263     -0.1843359556      0.0441181886     -0.2753288753
C       1.2292596695     -3.2081987569      0.7327749436     -0.0502539880     -0.0416528113      0.2529733167     -0.0937955312
C       3.2770133376      2.0122949656     -0.4405113506      0.0553974697      0.0899262113     -0.2352475822     -0.1003345132
H      -0.3220756427      1.4640212583      1.6563251147      0.1902889315     -0.2296980619     -0.5593096534      0.1705660791
H      -1.0261483845      2.2712742502      0.2277934646      0.3022496307     -0.5250635156     -0.1827747141      0.1494593836
H      -1.2922538769      0.9236188092     -1.9329007543      0.3816054148     -0.0747227507      0.5266822445      0.1530508357
H      -0.6667782306     -0.7245669677     -2.0259041523      0.2839767890      0.2210924146      0.5030984245      0.1573635107
H       0.7052455471     -0.6613921646      1.5208488699     -0.1285471937      0.3405065491     -0.4673802362      0.1733978483
H      -0.7848320768     -1.4244263344      1.0067239842     -0.0400011531      0.4503431370     -0.3287417570      0.1830712941
H       1.4282751916      0.3355240420     -1.5572102452     -0.4202730606     -0.0948510623      0.3643048817      0.1565031392
H       0.7126921487      1.9177599029     -1.2442183320     -0.3440673976     -0.4096184905      0.3037940005      0.1538244880
H      -2.2615039514     -0.0201191552      1.8860219123      0.0381598527      0.1861478910     -0.1203013471      0.1110237118
H      -2.7970095961      1.6731815245      1.7507737890      0.3711894852     -0.1681789590     -0.0539991973      0.1306319220
H      -3.1341707714     -0.6445100295     -1.8357079153      0.3549621933     -0.0486741706      0.1247052561      0.1226927483
H      -2.4529366016     -1.5092141292     -0.4340239833      0.0206180427      0.1686901714     -0.1031617046      0.1121008821
H      -4.1676391585      0.0562369123      0.3629453392      0.1876307444      0.2357107449     -0.1484755623      0.1059958819
H      -3.4478275301      1.4129922298     -0.5743230678      0.0124947406     -0.2087780848      0.1079546139      0.0994079684
H       0.3276550082     -2.3916659862     -1.0253824164      0.1147238973      0.2377842500      0.0489236547      0.1193557069
H       1.8802680531     -1.6140400037     -0.5398635542     -0.2782463113      0.0349079982     -0.0265489406      0.1412336142
H       1.7638615308      1.9419522048      1.0767983648      0.0313855662     -0.2518267321     -0.0796522356      0.1360222979
H       2.5430640746      0.3592318823      0.7060713512     -0.1978335198      0.1894618525      0.0135155160      0.1416350137
H       1.7915685191     -3.9717859825      0.1548730820     -0.1792677553      0.2291370465      0.2532841365      0.0778461445
H       0.2892681604     -3.6689234459      1.1051977901      0.3313241662      0.0461227329     -0.0212885340      0.0467434621
H       1.8497652794     -2.8900304952      1.5974849331     -0.1769394306     -0.2174191439     -0.2078549687      0.0720786498
H       4.0958614086      2.2074147650      0.2813031804     -0.1886700070     -0.0408523785     -0.1298036658      0.1529318556
H       2.9274283071      2.9849082963     -0.8479297999      0.1923317476     -0.2549188650      0.0405329820      0.0346570854
H       3.6802258559      1.3908611970     -1.2682976019     -0.0452267925      0.2501755117      0.1796938983      0.0409539097
N       7.3921170559      2.3516478008      1.8839442684     -0.4343791462      0.1016156261     -0.1464690252     -0.8603653428
S       6.4061234393      2.2179297269      3.1829550467     -1.2359722501     -4.3954245185     -0.7022210843      1.8489878410
S       8.9632792808      1.9007018868      1.9631498013      2.5389354354      4.4003590541      1.3868523191      1.8403860418
F       6.8079740078      3.3949835372      4.3032543586     -0.2841713869     -0.3291817740     -0.5823595735     -0.4408024881
F       9.0579233230      0.2293155454      1.9466436083     -0.2183094873      0.5219539996     -0.1745769212     -0.4479948283
O       4.9786693965      2.4058082732      2.7569266895      1.8594661216      1.2734737957      0.3548950337     -0.7672913933
O       6.5715914723      0.8648006613      3.8155668108      0.2934270298      2.2706674683      0.1160318566     -0.7258940769
O       9.5823371758      2.4111925133      3.2340861110     -0.9894273443     -1.8698662024     -1.2307014137     -0.7187482680
O       9.7063679385      2.4528316909      0.7803898470     -1.8247850151     -1.9827039561      0.8292423196     -0.7149636709
