64
Properties=species:S:1:pos:R:3:forces:R:3:charge:R:1 energy=-346.12934019199486 homo_lumo=5.409580814233499 dipole="-2.2268586488879434 2.9415732669565333 0.9065854195579264" free_energy=-346.12934019199486
N       1.9865494545     -1.5266192904     -0.0987718721     -0.0002342113     -0.0001972807     -0.0018928330     -0.4864109891
C       2.3306059404     -1.4761526973     -1.5852964471     -0.0016077339     -0.0040527109      0.0030201960     -0.0279766264
C       3.3492027205     -1.4184377330      0.5716901286     -0.0068453266     -0.0038732271     -0.0025528850     -0.0475088789
C       1.1413347750     -0.3294322891      0.2867646377     -0.0003036386      0.0072107998      0.0002763376     -0.0271618698
C       1.3078645362     -2.8386192615      0.2311259634      0.0037774219     -0.0094170050      0.0010335393     -0.0824352687
C       3.6029153131     -0.6240266859     -1.7065037825     -0.0009237058      0.0043288864      0.0032523508     -0.1731543785
C       4.1057646329     -0.3961742713     -0.2618248325      0.0067093402     -0.0060417162     -0.0026475274     -0.1545253340
C      -0.3017134404     -0.3752038671     -0.1878169081     -0.0031918810      0.0011437628      0.0004555533     -0.2194803828
C       1.0000389249     -3.0386422533      1.7034922400     -0.0028170596     -0.0038704239     -0.0020806954     -0.2206549057
C      -0.9969684989      0.9656377510      0.0650285064     -0.0045287478     -0.0043006520     -0.0079259360     -0.2042396088
C       0.3542095532     -4.4117982406      1.9187421837      0.0029400709      0.0061906464      0.0123706976     -0.2199692367
C      -2.4579688035      0.9464756400     -0.3765924982      0.0059089932      0.0053075153      0.0064016844     -0.0716003723
C       0.1136775719     -4.7100943615      3.3954437833     -0.0031905226     -0.0008067688     -0.0062102095     -0.0718815319
H       1.4617031820     -1.0839639961     -2.1274091870      0.0059633721     -0.0052383007      0.0044211947      0.1185330188
H       2.5184578167     -2.5115926862     -1.8930393533     -0.0017001439      0.0012658832     -0.0001839282      0.2075716519
H       3.8096406693     -2.4111406046      0.4896557609      0.0000524417      0.0029702894      0.0015451874      0.2428131600
H       3.2115513040     -1.1482040118      1.6258701939     -0.0042168301     -0.0033501409     -0.0053460436      0.0979738792
H       1.1821065759     -0.2556157247      1.3836888527      0.0036608758      0.0004355061     -0.0018670730      0.1355178315
H       1.6536688212      0.5506440198     -0.1292921173      0.0013517267     -0.0009801444     -0.0039749971      0.1662565469
H       0.3992481139     -2.8880643966     -0.3864234206     -0.0040865347     -0.0031248273     -0.0018120042      0.1308942207
H       1.9934630947     -3.6170182237     -0.1227233531      0.0046032114     -0.0014819827      0.0015087773      0.2567782920
H       4.3459284502     -1.1868463277     -2.2879138383      0.0037059860      0.0028795778     -0.0025956745      0.1599576533
H       3.4150636731      0.3289239577     -2.2215839686     -0.0024775670     -0.0031275032     -0.0017832183      0.0723324799
H       3.8987061844      0.6302781805      0.0783202422      0.0067111254     -0.0047691166      0.0056319592      0.0729567537
H       5.1875190766     -0.5666011805     -0.1729727029     -0.0016161087      0.0009061761     -0.0008137360      0.1301067735
H      -0.3553129587     -0.6067305182     -1.2652692581      0.0034363254      0.0011512271     -0.0061036063      0.1142780414
H      -0.8540583796     -1.1707396125      0.3389959804     -0.0001390832     -0.0022146148      0.0028061971      0.1269304039
H       1.9326252604     -2.9928893415      2.2901170115      0.0048920170     -0.0072131371     -0.0005910224      0.1236796083
H       0.3246259045     -2.2536317296      2.0877066589      0.0000836851      0.0026734213      0.0015863327      0.0962464051
H      -0.4554024020      1.7646381920     -0.4723405356      0.0024603181      0.0001726432     -0.0071109933      0.0918449804
H      -0.9360034042      1.2140463047      1.1396699691      0.0032767466     -0.0018876235      0.0083781038      0.0944278661
H      -0.5991132264     -4.4585501536      1.3630825311     -0.0109383402      0.0021320490     -0.0051065765      0.0830994449
H       1.0083909948     -5.1850486928      1.4860232255      0.0019674495     -0.0002014209     -0.0010486647      0.1504280819
H      -3.0263843473      0.1774103147      0.1694259663     -0.0012900374     -0.0011284022      0.0047843722      0.0432555303
H      -2.5425975474      0.7275283908     -1.4527401691     -0.0006584784     -0.0008168836      0.0000441188      0.0428574264
H      -2.9401432355      1.9176921199     -0.1910805015      0.0022405717     -0.0059359456      0.0002226227      0.0524102572
H      -0.5599477164     -3.9676275970      3.8523075230     -0.0021017662      0.0055293978      0.0027641970      0.0266816749
H       1.0621998167     -4.7007331633      3.9547838690     -0.0000833944      0.0014986902     -0.0014319656      0.0447022615
H      -0.3393465027     -5.7041397689      3.5251620422     -0.0065621308      0.0098230263      0.0037142829      0.0503134168
P       4.8298273842     -5.3165284595     -1.4126158765     -0.0021620307      0.0115193806      0.0012412170      1.7136370574
F       4.7653723797     -5.0991730822     -3.0596828961     -0.0034228197      0.0084222748      0.0018046657     -0.5127276106
F       4.3141759145     -3.6976051932     -1.2098591580     -0.0025813086     -0.0158265909      0.0027549270     -0.5533732567
F       5.3360814504     -6.8903994353     -1.5121449912     -0.0098776142      0.0051850434     -0.0142018398     -0.5130660787
C       2.9394687498     -5.9198658261     -1.6513834357      0.0062274742      0.0009150518     -0.0038872396      0.4886684002
C       6.7400129948     -4.7841182794     -1.5637350149     -0.0043548885      0.0142390380      0.0051346363      0.5393160436
C       4.8204590819     -5.3544219724      0.6026003188      0.0035630953      0.0088954333     -0.0008937500      0.5490515726
C       2.6805191842     -7.2034286641     -2.5163485576     -0.0062688334      0.0161107695      0.0068706812      1.3825468692
C       7.1102136320     -3.2765392016     -1.6920735152     -0.0020940165     -0.0146894048      0.0112266583      1.3664459507
C       5.0471158407     -6.6998726387      1.3441226564      0.0141389612     -0.0088060944      0.0137539110      1.3992798769
F       2.2261669753     -4.9040924265     -2.2812736156      0.0023431832      0.0024330913     -0.0003263709     -0.4652055062
F       2.2431629101     -6.1890014599     -0.4868775368     -0.0026961058      0.0041649222      0.0078157144     -0.4650913837
F       7.2400848098     -5.3590896020     -2.7103153111      0.0130929467     -0.0052239693     -0.0075145839     -0.4350039886
F       7.5060837193     -5.2799557658     -0.5339970841      0.0197335116     -0.0001351119     -0.0027663980     -0.4453546747
F       3.6137272942     -4.8637237679      1.0993333693      0.0024041268     -0.0008787471     -0.0044280574     -0.4768703350
F       5.7604032532     -4.4769848062      1.0999150879     -0.0116733477     -0.0024844871      0.0023899702     -0.4528503329
F       1.3282292680     -7.3216998735     -2.7020571172      0.0032473957     -0.0010731512     -0.0078659693     -0.4567288256
F       3.0963250745     -8.3140532903     -1.8696460722      0.0015497707     -0.0039221343      0.0021031502     -0.4397340665
F       3.2544483490     -7.1612414918     -3.7326409657     -0.0001881542      0.0023403793      0.0004863450     -0.4375680975
F       8.4482540559     -3.1437801784     -1.8905233207      0.0045135555      0.0057847763      0.0029764343     -0.4455537372
F       6.4792083150     -2.6956550923     -2.7448416691     -0.0098168819      0.0024610474      0.0061605954     -0.4584276738
F       6.7995601275     -2.5663505400     -0.5725675294     -0.0058746570     -0.0085927658      0.0020565574     -0.4681626934
F       4.9230303722     -6.5050626236      2.6930845657     -0.0027247973      0.0005762628     -0.0110677500     -0.4568241966
F       6.2797344616     -7.1924368393      1.1126176954     -0.0138983228      0.0015360773     -0.0044872133     -0.4371730833
F       4.1266460531     -7.6204144873      0.9778768047      0.0025913211     -0.0045407613     -0.0104744064     -0.4450785064
