29
Properties=species:S:1:pos:R:3:forces:R:3:charge:R:1 energy=-167.9845531410405 homo_lumo=1.806337364942845 dipole="0.17063387769969188 -0.8559555297536298 -1.6743941928688215" free_energy=-167.9845531410405
N      -0.5522454456      0.0445860662     -0.1159682643      0.1114968086     -0.2197054893     -0.4326243693     -0.4799515351
C       0.8925634885     -0.0418510561     -0.3610424247      0.3469540550      0.2537926700      0.6065665851     -0.0013008339
C       1.6829685907      0.4754989128      0.8459269576      0.3987496521     -0.1910633237     -0.4701483677     -0.2481603041
C       3.1794983509      0.4219649190      0.5609097830     -0.4305825218     -0.0333616903      0.0090733652     -0.0482389554
C      -1.2132470004      1.1660858036     -0.4453372192     -0.3858222005      0.1354277416     -0.1370804530      0.2825653437
C      -1.1697543802     -0.9514363560      0.5416080200     -0.3909765257     -0.1897349629      0.0235825625      0.2827867795
C      -2.5708961756      1.2698403751     -0.2227401579     -0.0483188728     -0.1486909467     -0.1477965344      0.0042632308
C      -2.5246916119     -0.8940235599      0.7887191191     -0.0214531315     -0.0387750981     -0.1808164088      0.0046944134
C      -3.2430227192      0.2292299047      0.4014913007      0.2435357875     -0.0590525256     -0.1498231282      0.0559132747
H       1.1360731468     -1.0887320432     -0.5635300187      0.0021319799     -0.2204563398     -0.1236715897      0.1021294225
H       1.1171752652      0.5504534672     -1.2524574338     -0.0060784910      0.0703144174     -0.2329603033      0.1029190045
H       1.4416275103     -0.1346732522      1.7194463656     -0.1589067105     -0.0063545577      0.2152372542      0.1388536391
H       1.3751752156      1.5014965817      1.0610461721     -0.1893392029      0.1477362194      0.1409985845      0.1573203780
H       3.4996797257     -0.6010349014      0.3566202593      0.2042563417     -0.3016541207     -0.0731887304      0.0212706157
H       3.7252317925      0.7897598152      1.4289294968      0.2288833731      0.0921292370      0.2150470815      0.0536834550
H       3.4327596575      1.0449935780     -0.2982758815      0.1799184137      0.1813558848     -0.2653676779      0.0220969022
H      -0.6379424687      1.9625166266     -0.8987338995      0.1418791238      0.0684010519     -0.0775557525      0.0924417165
H      -0.5587044494     -1.7894475746      0.8508286869      0.1469953004     -0.1005063224      0.0125269853      0.0907530789
H      -3.0802838940      2.1860551083     -0.4903482929     -0.0772092248      0.2165189707     -0.0466957334      0.0517432076
H      -2.9985792060     -1.7058502652      1.3244016232     -0.0732054916     -0.1854190591      0.1404760273      0.0495939249
H      -4.3011364963      0.3076205844      0.6158439493     -0.2407603546      0.0253151277      0.0658994849      0.0529010357
S      -1.1853673936      1.5028789510      2.7828777034     -0.0097132949      0.0985632634      0.2830037182      1.7979330466
O      -2.6299183213      1.5310081406      2.8728208974     -1.3892170999      0.1904394501      0.3708232409     -0.7871478362
O      -0.6322621078      2.3535219538      1.7298873086      0.5906846395      1.0946402651     -0.5763685123     -0.8124237584
O      -0.6052157157      0.1628799689      2.8130881499      0.5710174087     -1.0520652891      0.4795280031     -0.8104434736
C      -0.5708403175      2.2831711314      4.3432687861     -0.2813723158     -0.4625102632     -0.9026391362      1.1590126942
F      -0.9588369785      1.5865209380      5.4039507418     -0.4481437180     -0.7762357659      1.1433884061     -0.4429359063
F      -1.0257900732      3.5234637490      4.4653519622     -0.5306671177      1.3586119911      0.0925456445     -0.4426046782
F       0.7592620003      2.3247082495      4.3344415272      1.5152633900      0.0523394641      0.0180397542     -0.4496678819
