29
Properties=species:S:1:pos:R:3:forces:R:3:charge:R:1 energy=-166.0221486024685 homo_lumo=0.3776619939106378 dipole="0.19036194683479832 -0.6892297148403078 -2.658654880225612" free_energy=-166.0221486024685
N      -0.4861365100     -0.0001416530     -0.4214281151     -0.4678376551     -0.0032794554     -0.3717066891     -0.5264626457
C       0.9416885904     -0.0012739655     -0.7661380160      0.8259808761     -0.0267714895      0.0899774383     -0.0181194271
C       1.7930510974     -0.0003730594      0.5078449190      0.1353788409      0.1049074068      0.2232143492     -0.2493542380
C       3.2834460948     -0.0171051953      0.1862433866      0.0843202812     -0.0548053315     -0.0765444657     -0.0989852000
C      -1.1476915905      1.1875145025     -0.2658970080     -0.9217762304     -0.1892001229      0.5553757971      0.2720035494
C      -1.1396789950     -1.1870422290     -0.2303929956     -1.1287360265      0.2901701652      0.3929353599      0.2509808697
C      -2.4954978136      1.2064286687      0.1030857949      0.6414979600     -0.7021123420     -0.1572526196      0.0224596347
C      -2.4893894427     -1.2039990652      0.1313675054      0.9608354553      0.4240182852     -0.2417168251     -0.0091209599
C      -3.1676769906      0.0017342742      0.3029322066      0.1806641084      0.3152193965     -0.0135011638      0.0569137339
H       1.1865131529     -0.8954557236     -1.3821550753     -0.3564944861      0.2254723226      0.1713843853      0.1145840825
H       1.1893842068      0.8917844513     -1.3827635478     -0.3582016938     -0.2409333805      0.1966269752      0.1191935399
H       1.5439864212     -0.8918337405      1.1236758879     -0.1228598048      0.3337940941     -0.0702194090      0.1303820793
H       1.5707887618      0.9116879907      1.0997359656     -0.2485509422     -0.3318129414      0.0422396100      0.1737592459
H       3.5443502429     -0.9280447422     -0.3929081064      0.0971839181      0.2762044531      0.1128665115      0.0373073030
H       3.8650128707     -0.0184011743      1.1324444448     -0.1338775442      0.0042541801     -0.3577002307      0.0769794987
H       3.5611624174      0.8855199168     -0.3986659438      0.0604413265     -0.2971077844      0.1328514827      0.0429917852
H      -0.6289998403      2.1283424068     -0.4067008372      0.4596340512     -0.1309511078     -0.0571244825      0.1032927257
H      -0.6165543283     -2.1282385129     -0.3512976343      0.4712314879      0.1126071602     -0.1207177756      0.0968281290
H      -3.0116001645      2.1479764414      0.2398757012      0.0495330054      0.2592154246      0.0664977777      0.0665161203
H      -3.0033218762     -2.1448292237      0.2810228272      0.0323523556     -0.2849275681      0.0250833252      0.0588577186
H      -4.2111630027      0.0025006818      0.5909539432     -0.2429493720      0.0177051461      0.1213232080      0.0619209342
S      -1.0620929411      1.7500767742      4.0138873452     -0.5991599783     -9.5201501250     -3.7287189437      1.6185342666
O      -2.4635425162      1.1998781072      3.7116703437      0.7186192442      2.8390825753      1.1414027307     -0.7469423885
O      -0.3513838608      1.6490232179      2.6592844592      0.0758118044      2.4599039176      1.0039982207     -0.7804201285
O      -0.4098053759      0.6245002958      4.8296310056     -0.2566461284      3.2861332919      0.5756780547     -0.7191982919
C      -1.0126865890      3.3964553739      4.7748967362      0.0624417279      1.0401501684      0.6588718087      1.1260787888
F      -1.6614846642      3.3610748216      5.9941248741      0.6268181700      0.2971641989     -1.0686460583     -0.4226526003
F      -1.6397371464      4.3063740772      3.9451410206      0.5261226623     -0.4517059409      0.8073061906     -0.4317698199
F       0.3023397807      3.7770720991      4.9635541302     -1.1717774139     -0.0522445972     -0.0537845625     -0.4265583056
