40
Properties=species:S:1:pos:R:3:forces:R:3:charge:R:1 energy=-214.26692684142193 homo_lumo=6.3945052023749325 dipole="-1.3678242039735244 1.2888936886881481 -2.2856572754136524" free_energy=-214.26692684142193
N      -1.1289786613      0.4474117945      0.2726343684      0.1783116226      0.3496802207     -0.0928207138     -0.5315614825
C      -1.3828781210     -1.0366231602      0.3250509805     -0.1753839855     -0.5537662391      0.0329078415     -0.0169991231
C      -2.0366066511      1.0362772333      1.3126697374     -0.5572246991      0.0448614276      0.2687378356      0.0148888359
C       0.2934528333      0.7989496290      0.6071868829      0.5088411837     -0.2837528646     -0.3386146358     -0.0557385013
C      -2.7519478977     -1.2304592816      0.9813138804     -0.0394241478      0.0069097993     -0.0576042003     -0.1284025479
C      -3.2880228095      0.1748899880      1.2664268674      0.1966734517      0.0670059090     -0.0447211962     -0.1454147824
C      -1.4920313588      0.9817838906     -1.0641760291     -0.0474106110     -0.0256440752     -0.0614833561      0.0825102338
C       1.3288659472      0.1758244268     -0.3229898855     -0.0690201864      0.3989577789      0.4537275773     -0.1982401385
C       2.7259058529      0.4230623766      0.2617441381     -0.1456216726     -0.4334948563     -0.5850892411     -0.1730453255
C       3.8053899621     -0.2466458290     -0.5924770310      0.1156921575      0.4021528615      0.5052338278     -0.2001724814
C       5.1956985325     -0.0074045811     -0.0067164959     -0.3245535198     -0.1637330540     -0.2961629470     -0.0466191039
H      -0.5985849468     -1.4895933470      0.9288594173      0.1800768172     -0.0256977081      0.0780351013      0.2409762341
H      -1.3361316097     -1.4367357024     -0.6884069572      0.0592935506      0.0056708750     -0.2565822550      0.0898702409
H      -2.2077900568      2.0900068855      1.0914579397      0.0259057902      0.2836236680     -0.1064124429      0.0933227968
H      -1.5392933603      0.9343864847      2.2787549864      0.1768477329     -0.0809794987      0.1066491684      0.1853060312
H       0.4694090528      0.4468063790      1.6234532965     -0.0472871971      0.0255633069      0.1476172294      0.2603384956
H       0.3613522300      1.8901570380      0.5904554061     -0.0445981808      0.2957226093     -0.0041397047      0.0938755285
H      -2.6240551440     -1.7798579155      1.9162597856      0.0786982303     -0.1300964668      0.1584786464      0.1326976010
H      -3.4279181725     -1.7920686017      0.3348090749     -0.1887286097     -0.1619809592     -0.1215722555      0.0701365050
H      -3.9663954978      0.5074820269      0.4760251333     -0.2079366363      0.1153372662     -0.1516638543      0.0703390264
H      -3.8188374236      0.2196970659      2.2178794678     -0.1888622681      0.0709332329      0.2035459819      0.0987213433
H      -0.8735872557      0.5045747903     -1.8207845341      0.1534724515     -0.1335093193     -0.1645008954      0.0969346016
H      -2.5399417089      0.7680460332     -1.2629966141     -0.2944611681     -0.0786916694     -0.0458217931      0.1013815333
H      -1.3236526283      2.0574875754     -1.0749775176      0.0543708371      0.2963620580      0.0166026206      0.0736521458
H       1.1609170748     -0.9012297975     -0.3971522866     -0.0076983047     -0.2782092486      0.0067004916      0.1241228623
H       1.2653553186      0.6060587171     -1.3276066306      0.0460501568      0.1014446657     -0.2903481746      0.0745219458
H       2.7617925267      0.0185697790      1.2771265469     -0.0059546085     -0.0580571232      0.2309170520      0.1678653281
H       2.9120077275      1.5008011116      0.3192609816      0.0941617422      0.3093667043      0.0372920873      0.0669568928
H       3.7643115274      0.1473559066     -1.6143789051     -0.0351206638      0.0511214046     -0.2989877897      0.0663733495
H       3.6115776074     -1.3231794348     -0.6400544426     -0.1035587094     -0.2757403876     -0.0391421594      0.0878791452
H       5.4193334089      1.0599089343      0.0254909655      0.1142600753      0.3197178330      0.0351879111      0.0234544804
H       5.9492212280     -0.5025983551     -0.6193452055      0.3291559438     -0.1115737113     -0.1215934756      0.0279479273
H       5.2540502377     -0.4053276988      1.0067331641      0.0563306728     -0.1061557853      0.3162341336      0.0439975418
P       0.7713439934     -1.5064187886      3.5930964112     -0.1055533370      0.0842044069     -0.0784414022      2.2025474827
F       0.3945702784     -1.1849249876      5.1399758183     -0.0594048887      0.0458150625      0.2328864725     -0.4927035078
F       2.2092240033     -2.1365985598      3.9987016796      0.2439819534     -0.0958773061      0.0481324235     -0.4935172160
F       0.0412753221     -2.9645241526      3.6626638547     -0.1062329593     -0.2058539038      0.0056445427     -0.5015126068
F       1.1073284486     -1.7764109383      1.9629397574      0.0672845082     -0.1410642627      0.0132641324     -0.5368120001
F      -0.7073593488     -0.8261672150      3.1036986143      0.0009457537     -0.0555518188      0.2057660814     -0.5460060313
F       1.4482009132      0.0028324795      3.4243595211      0.0736817222      0.1249791678      0.0521413347     -0.5238732605
