40
Properties=species:S:1:pos:R:3:forces:R:3:charge:R:1 energy=-214.19655383616117 homo_lumo=6.132357430688082 dipole="-1.5763692930216509 -2.4868852693861996 -1.098137355021446" free_energy=-214.19655383616117
N      -1.2428990018      0.5009652154      0.0839224106      0.2155142909     -0.0141318092      0.1242428961     -0.5314504203
C      -1.7106056166     -0.7373445489     -0.6063754352     -0.3702554378     -0.2261986440     -0.1902392586      0.0218659909
C      -2.2552732644      0.7139662414      1.1671965588     -0.6221427749      0.0653484407      0.0920235927      0.0169562495
C       0.1142831500      0.3296206211      0.7058622269      0.5938209196      0.0314818005     -0.3953568780     -0.0502550478
C      -3.2369856642     -0.6511948400     -0.5975729515      0.0984559238     -0.0145708267     -0.0389784636     -0.1312758450
C      -3.5903682842      0.3085065556      0.5518238262      0.1143782424      0.0007874471      0.0100913288     -0.1431175434
C      -1.2728510818      1.6589875288     -0.8518869838     -0.0973152193      0.1646887282     -0.1444005482      0.0526975429
C       1.2486496533      0.1461900221     -0.2950135392     -0.1448994100      0.0011968834      0.5608920814     -0.2033866950
C       2.5686190855      0.0304107561      0.4781239791     -0.0669924046      0.0154477096     -0.7436188963     -0.1681204265
C       3.7547807535     -0.1158054817     -0.4786051078      0.0352752651     -0.0311513416      0.6566184285     -0.1996055712
C       5.0727822321     -0.1988594166      0.2889700295     -0.2928900612      0.0014939538     -0.3666667172     -0.0456288746
H      -1.3624057049     -1.5955297792     -0.0270235396      0.1452244191     -0.1160727347      0.1754915965      0.1231099568
H      -1.2851033216     -0.7821744117     -1.6088573082      0.1781859051     -0.0355632162     -0.1688593768      0.1199525479
H      -2.2089479178      1.7522969027      1.4934096430      0.1360631667      0.1502480564      0.1368349109      0.1733073819
H      -1.9917409913      0.0595348964      2.0004858557      0.1781516120     -0.1547096706      0.1425847758      0.1180975159
H       0.0481293683     -0.5391817565      1.3668619924     -0.1301018947     -0.2317715983      0.1294020413      0.0876683555
H       0.2922233154      1.2192198666      1.3100921464     -0.0000190050      0.0814558197      0.1256313401      0.2652278926
H      -3.6670290447     -1.6416582414     -0.4400079351     -0.1048183382     -0.2447044757     -0.0671909824      0.0954074046
H      -3.6089915620     -0.2680909719     -1.5498432274     -0.1215546641      0.0194260632     -0.2338899731      0.0860262977
H      -4.1275118227      1.1808254433      0.1746537735     -0.1703764172      0.1852380209     -0.0270456262      0.0873678281
H      -4.2184185951     -0.1773050048      1.3001570269     -0.1860257963     -0.0250521924      0.1868921257      0.0976692943
H      -0.6236611144      1.4540297078     -1.6991449025      0.1623398579     -0.0898516601     -0.1900268503      0.0697915237
H      -2.2921973261      1.8076832372     -1.1997953792     -0.3271042238     -0.0478904023     -0.0901246373      0.0847556065
H      -0.9237680636      2.5416907574     -0.3221158132      0.0830185768      0.1432814972      0.1091623531      0.1866952977
H       1.0879379536     -0.7479617461     -0.9065206133      0.0087519200     -0.2972322133     -0.1777641152      0.0725523676
H       1.3105281887      1.0128959949     -0.9563440684      0.0489494022      0.1968854233     -0.0989692335      0.1373113617
H       2.5258183548     -0.8331866680      1.1509742095      0.0304678740     -0.2404651228      0.2058545009      0.0644221104
H       2.6993954503      0.9284830052      1.0887093028     -0.0047927835      0.1997477596      0.1606642727      0.1613681895
H       3.7817988212      0.7446571583     -1.1550256371     -0.0447304993      0.2084325931     -0.1959219489      0.0891565000
H       3.6268834056     -1.0178777190     -1.0878380658     -0.0455178647     -0.2120434685     -0.2198441085      0.0663632509
H       5.2230096818      0.7024801332      0.8838682759      0.0742141434      0.2616283661      0.2040660578      0.0421474344
H       5.9050315493     -0.2989064936     -0.4080279641      0.3488708068     -0.0403059502     -0.1257552149      0.0282981384
H       5.0730543404     -1.0608822566      0.9577687173      0.0470229648     -0.2528210917      0.2203897804      0.0229555045
P       0.8601002195      3.9086157583      1.5984479329     -0.0116230914     -0.0645453009     -0.0952895508      2.1966113001
F       0.5924083922      4.6377009265      3.0234013385     -0.0518862992      0.1066813543      0.2249747551     -0.4917297735
F       1.5163706932      2.5920129819      2.3717918962      0.0495161109     -0.0617764828      0.1409878341     -0.5227543937
F      -0.6577050500      3.1461283315      1.7181397000      0.0083965851      0.1235216570      0.0896350173     -0.5479674902
F       1.0804283847      3.0902512713      0.1411380792      0.0982012324      0.1646309018      0.0113572428     -0.5374960344
F       0.1452236286      5.1269901267      0.7797417088     -0.1102808278      0.1742217117     -0.1157618953     -0.5014113151
F       2.3267267878      4.5846924482      1.4460154915      0.2485077938      0.1050140143     -0.0220926567     -0.4935834134
