40
Properties=species:S:1:pos:R:3:forces:R:3:charge:R:1 energy=-212.4259440128947 homo_lumo=3.853296113806962 dipole="1.468266651939818 6.099468680276457 0.22847978362304125" free_energy=-212.4259440128947
N      -1.4405158668      0.4258480724     -0.0711495630      0.2560930421      0.5543573533      0.1009682251     -0.5475940479
C      -1.7688192721     -0.8465630520     -0.7792526286     -0.2065983343     -1.9866829768     -1.4832439329     -0.0184312050
C      -2.5222492153      0.6152259633      0.9353556653     -1.5017474496      0.5181565859      1.9311538821     -0.0021867801
C      -0.1247250771      0.3396883225      0.6345750554      1.6880728647     -0.1003684416      0.3421531095     -0.0359630475
C      -3.0403203714     -1.4200743878     -0.1709417881     -0.0855219183     -0.8127275042      0.3198430862     -0.1527045654
C      -3.6910745870     -0.2568172126      0.5264534109     -0.6855307837      0.4353934041     -0.2673033579     -0.1480616589
C      -1.4599307503      1.5692773065     -1.0205988379      0.0653045191      1.0238641441     -0.9442366869      0.0081163467
C       1.1069418519      0.2911560255     -0.3000327508     -0.4001361019      0.1413688073      0.0724761370     -0.2102063085
C       2.3674706405     -0.1023062414      0.4806458233     -0.1291197947      0.0189086578     -0.1739410092     -0.1740445464
C       3.6072527113     -0.0831148554     -0.4213982359      0.0294081469     -0.0242516977      0.1439385136     -0.2127845920
C       4.8602157868     -0.4757007651      0.3560407142      0.2098384963     -0.0212908831     -0.0830961211     -0.0900140294
H      -0.9638968503     -1.6106477709     -0.6978337796     -0.0544782496      0.6219939651      0.0415307132      0.1767811014
H      -1.9423006075     -0.6887126222     -1.8693675579      0.3211867600      0.3955135747      0.5102918892      0.1411931272
H      -2.8482774262      1.6765464286      1.0344340044      0.5856879440     -0.2977754882     -0.2055614852      0.1316797308
H      -2.2054718930      0.2867752525      1.9534419633      0.4057714655      0.0850778757     -0.5955806121      0.1506768908
H      -0.1136803418     -0.5663160912      1.2852071457     -0.3774329895      0.2676137708     -0.3729385124      0.1611900418
H      -0.0008323312      1.2165451798      1.3115121749     -0.3936174056     -0.2096557391     -0.2842775987      0.1442954645
H      -2.7775235029     -2.1985816351      0.5794989333     -0.1804832378      0.0149532860     -0.4663723445      0.1532046259
H      -3.7098459752     -1.8579895369     -0.9427782957      0.4303508308     -0.1480406099      0.3817650909      0.1331115231
H      -4.3458213784      0.2937332534     -0.1840636108      0.0141740865     -0.1130926053      0.2986893928      0.0954797728
H      -4.2853716017     -0.5897373859      1.4053911512      0.1014433732      0.3157369424     -0.3641145377      0.1173258822
H      -0.7801272976      1.3928351124     -1.8828512580     -0.1987562891     -0.1359696006      0.4959742594      0.1274999857
H      -2.4799981773      1.7225776169     -1.4392564726      0.3192162065     -0.2994747077      0.3661912863      0.1295364917
H      -1.1479416886      2.5109285806     -0.5157140939     -0.1043086096     -0.5038977587     -0.0061269915      0.1080962904
H       0.9499376670     -0.4363700421     -1.1238066273      0.0063691175      0.1687813985      0.1511603596      0.1278870642
H       1.2675383010      1.2964838009     -0.7472597517     -0.0358729552     -0.2987769455      0.0109634780      0.1144562981
H       2.2353978292     -1.1249293309      0.8992341336      0.0478912587      0.2752867404     -0.0018000113      0.1126688168
H       2.5151129022      0.6082416564      1.3239162347     -0.0049722360     -0.2342041408     -0.1022245231      0.0958958379
H       3.7500315600      0.9367448686     -0.8406461573     -0.1243762674     -0.2427879580     -0.0207111407      0.0902802696
H       3.4689461560     -0.7953345572     -1.2639379178     -0.0506247903      0.2556083552      0.1158807026      0.1022491103
H       5.0337617983      0.2335708023      1.1934354237      0.0252450537     -0.2732057355     -0.1895465372      0.0432006449
H       5.7400989738     -0.4476182856     -0.3207988726     -0.1585915933     -0.0590615966      0.3173104671      0.0567633286
H       4.7566105924     -1.5045975377      0.7619351588      0.1155991119      0.3127884204     -0.0527802855      0.0541082310
P      -2.8717531938     -6.3308804264     -0.3152214266     -0.1331975199     -0.9196206165     -0.0988767412      2.0977469946
F      -2.8473852897     -8.0443175935     -0.1970836113     -0.0578914459      1.6948423824      0.1044380404     -0.5029791573
F      -1.2371159450     -6.2596056899      0.2073134931     -1.2989211287      0.0336344962     -0.5945994480     -0.5140926525
F      -2.3874817120     -6.4795862960     -1.9562990547     -0.3870871060      0.2110560539      1.4052632192     -0.5095610246
F      -2.8690878558     -4.6287550415     -0.5345264386     -0.0169805029     -0.7360600087      0.3699626661     -0.5347506672
F      -4.5317867656     -6.3753896497     -0.7539141235      1.5264186291      0.1104359558      0.2246123597     -0.5082087371
F      -3.3557965890     -6.1639472787      1.3243890172      0.4381758029     -0.0384271556     -1.3972350008     -0.5118608513
