41
Properties=species:S:1:pos:R:3:forces:R:3:charge:R:1 energy=-236.48753919616178 homo_lumo=2.766624327854806 dipole="-0.4025833542371185 -1.6744885852395275 1.2195173455729047" free_energy=-236.48753919616178
N      -0.5050138089     -1.0725311378     -0.9066973048     -0.4706324363     -0.1148123529     -0.0247685187     -0.4890545420
N       1.5080717996     -1.4296960114     -0.2266146968      0.2812512529     -0.2332773427      0.2997212299     -0.4822309679
C      -1.9097536587     -0.6790936124     -0.9218116072     -0.0298882249      0.5357905069     -0.2595873671      0.0063193820
C       2.6990155049     -1.4556459771      0.6147087126      0.2984134493      0.5142983257     -0.1727731496      0.0027002715
C      -2.0593739531      0.8077276455     -1.2596693974      0.1574996191     -0.2097210865      0.5638465631     -0.1813653109
C       3.4096174832     -0.0963308690      0.5765002794     -0.4084580072     -0.1864851205      0.4365593842     -0.1679914709
C       0.2883104900     -1.0653805908      0.1661261548      0.0446849738     -0.0478737075      0.1971147411      0.5605429299
C       0.2332458182     -1.3904253869     -2.0107212517      0.0692024315     -0.1383988106     -0.2492495734      0.2641172287
C       1.5039584679     -1.6165560280     -1.5818367553      0.0154493081     -0.2814992732     -0.0695361646      0.2330105262
C      -1.4849766156      1.7120512867     -0.1662710389     -0.2268589033      0.0829072104     -0.4339769609     -0.2776677410
C       2.6784226466      0.9661656843      1.4016636293      0.4018430076      0.0614925186     -0.3745317749     -0.2410628317
C      -1.6749383236      3.1853246350     -0.5193187060      0.1201608680     -0.3792396618      0.2042639059     -0.0560080705
C       3.2560065329      2.3538450925      1.1337120945     -0.2494062136     -0.2824106569      0.1298363170     -0.0564970179
H      -2.4136504042     -1.2908919281     -1.6746026718     -0.0781514359     -0.2368545409     -0.0823739355      0.1008402377
H      -2.3324901316     -0.9040458558      0.0622168979     -0.0799115215     -0.1050297086      0.1797866293      0.0889485915
H       2.3927959346     -1.7153594591      1.6323998814     -0.0604173462     -0.1128259709      0.1892271906      0.0926143196
H       3.3548583845     -2.2404913820      0.2287320811      0.0293842849     -0.2627139637     -0.0522180117      0.0986793479
H      -3.1280451277      1.0064012979     -1.3863212955     -0.3379092141      0.0529400261     -0.0362294589      0.0729964498
H      -1.5573829634      1.0065368782     -2.2101067613      0.1557925015      0.0432693296     -0.2610936524      0.1650952238
H       3.4767858527      0.2331562699     -0.4632033029     -0.0066293141      0.1181329353     -0.2526380811      0.1417902221
H       4.4238926092     -0.2376706607      0.9611922896      0.3049863819     -0.0418606864      0.1241531459      0.0762377011
H      -0.0182162437     -0.8619993202      1.1767154529     -0.0462311974      0.0729000355      0.1852276218      0.0810913807
H      -0.1927230851     -1.4184506750     -2.9964363578     -0.0754550181      0.0175664985     -0.1824083620      0.0352363932
H       2.3954028498     -1.8746220508     -2.1248701625      0.1971069745     -0.0219655504     -0.1218346194      0.0275128096
H      -1.9767835442      1.4905093413      0.7888206662     -0.1648222766     -0.0740308726      0.2963137405      0.0475851189
H      -0.4164067078      1.5072260583     -0.0534487325      0.2571049757     -0.0118183904     -0.0313665483      0.1985820080
H       1.6205390151      0.9699071879      1.1234119896     -0.2008375000      0.0585151260     -0.0869953010      0.1643135844
H       2.7497695456      0.7196678625      2.4675120142      0.0239651087     -0.1168713496      0.3089931471      0.0468161714
H      -2.7344039632      3.4223335606     -0.6288952523     -0.3245216472      0.1124971555     -0.0362322249      0.0073461913
H      -1.1660104763      3.4181036419     -1.4541292199      0.1364336237      0.0975027160     -0.2350011584      0.0906451026
H      -1.2565063204      3.8112904350      0.2689216344      0.1075353086      0.2884908436      0.1784711231      0.0219371465
H       3.1004483825      2.6172265753      0.0872693532     -0.0762008340      0.0512366527     -0.2590054946      0.1029492207
H       4.3246002896      2.3780107087      1.3522729284      0.3478526644      0.0429393389      0.1116951120      0.0050400514
H       2.7530406918      3.0921414636      1.7584568278     -0.0786623847      0.3120818466      0.1728499187      0.0125374495
C       1.1562691026      1.5243218449     -2.4505331705      0.6318923193      1.5111020645     -0.4317548500      0.9533964865
O       0.4298749469      0.9034456925     -3.2252455333     -1.0514951757     -0.5434469187     -1.2897958939     -0.8105699073
O       1.5733764557      1.2366477442     -1.3268917872      0.4215709492     -0.2590231805      1.3638020237     -0.8403653861
C       1.6154180662      2.9746460762     -2.9793581067     -0.2587912203     -1.2637448836      0.4994563482      1.3117662028
F       0.5725891557      3.8320393046     -3.0047539895     -0.8764832745      0.6558107627     -0.0471365028     -0.4747561940
F       2.1204678821      2.9371655198     -4.2227120025      0.3773188301     -0.1317416443     -1.0364951029     -0.4613193122
F       2.5525503633      3.5327270425     -2.1926928720      0.7223143127      0.4261717800      0.5856845651     -0.4717589969
