37
Properties=species:S:1:pos:R:3:forces:R:3:charge:R:1 energy=-205.51944614209364 homo_lumo=3.21928269937129 dipole="-0.29192678852259785 0.9535920105649462 -1.8326921661143085" free_energy=-205.51944614209364
N      -0.0206862309      0.4312523795      0.2968820097      0.0011700006     -0.0076798217      0.0045694890     -0.5139452222
C      -1.0954485058      1.1071138701     -0.5253313612      0.0008645487      0.0036572515      0.0016965249      0.0106228792
C      -0.3089355512     -1.0654503809      0.4043965174     -0.0051794701     -0.0057402023      0.0011641773     -0.0580041259
C       1.2960105459      0.6401531508     -0.4298790814      0.0000989528     -0.0027103008      0.0087574233     -0.0035497161
C      -2.4980044955      0.8567101482      0.0032434052      0.0091570433     -0.0100685675      0.0056481304     -0.1635674733
C      -1.7213883933     -1.3547700906      0.8810022143      0.0036858570      0.0140695123     -0.0036776649     -0.1774700829
C      -2.7912909356     -0.6429890802      0.0577004128      0.0161323641      0.0041586877     -0.0025759549     -0.1606419587
C       0.0680544226      1.0491721779      1.6650690224     -0.0011233498     -0.0149559337      0.0052031288      0.0246342721
C       2.4911109944     -0.1063794144      0.1402728040      0.0030965136     -0.0034206743      0.0052241764     -0.2433582958
C       3.7711884776      0.3517799912     -0.5575784754     -0.0097153453      0.0102730349     -0.0036390448     -0.0652988900
H      -0.9984212254      0.6964608501     -1.5440201076     -0.0074506007      0.0000507369      0.0023507195      0.1186637407
H      -0.8435662057      2.1790944615     -0.5545249546     -0.0062250114      0.0044926265      0.0059745726      0.1111512544
H       0.4236652430     -1.4400494127      1.1507032824      0.0059341443     -0.0115507690     -0.0024964944      0.2425704896
H      -0.1191811518     -1.4682836568     -0.6053346283     -0.0114490586      0.0082193169     -0.0090241600      0.0825086579
H       1.4709301894      1.7297910116     -0.4158049372      0.0003630657     -0.0123936726     -0.0036261212      0.1209906845
H       1.1153363710      0.3371965461     -1.4749318455      0.0107321711      0.0146536725      0.0069864013      0.1111000988
H      -3.1996694834      1.3802760446     -0.6677823583     -0.0020847255     -0.0068310423      0.0009101048      0.0973867459
H      -2.6178012897      1.3084578100      1.0019128897     -0.0049823538     -0.0007834446     -0.0054918538      0.1071609212
H      -1.7685067249     -1.1039034535      1.9565376794     -0.0084521511     -0.0000250786      0.0095660078      0.1636726294
H      -1.8468250627     -2.4495616896      0.8289511458     -0.0092738955      0.0077057899     -0.0008748948      0.0967652865
H      -3.7911902913     -0.8195139980      0.4859341178      0.0124133838      0.0004033875      0.0074057531      0.0815483214
H      -2.8065901213     -1.0436439528     -0.9740861743     -0.0048632393      0.0043145937     -0.0134335505      0.0696924959
H       0.8424432893      0.4953367997      2.2216133560     -0.0042010826     -0.0078973131      0.0056359739      0.1858974484
H       0.2777492507      2.1207618908      1.5381197213      0.0104364545     -0.0166196133      0.0000462580      0.0297806732
H      -0.8657438543      0.8773414295      2.2076368202     -0.0103286903      0.0052630500     -0.0066175240      0.1237988460
H       2.5660283894      0.0408002561      1.2271353430      0.0126590957     -0.0114706181      0.0009673314      0.1615833534
H       2.3581544257     -1.1899344328      0.0013090300      0.0076686335     -0.0006992181      0.0039231332      0.1153723947
H       3.7296995770      0.1759903719     -1.6450697464     -0.0052430611      0.0116764631     -0.0005463268      0.0287238528
H       3.9566834966      1.4252147369     -0.3925890775     -0.0060635011      0.0039868941     -0.0031980694      0.0323962598
H       4.6367259751     -0.1998124047     -0.1633203344     -0.0108489038     -0.0090510593      0.0050907230      0.0579203774
C       1.1122016918     -2.3899270642      4.9373869991     -0.0005345386      0.0060898124     -0.0032332569     -0.0931958975
C       0.6142732355     -1.5552643425      3.7481962311      0.0069553968     -0.0036331126      0.0057277145      0.8988090150
O      -0.5769186614     -1.1389755710      3.7757429492      0.0024185217      0.0034588750     -0.0116691206     -0.8211151789
O       1.4698560919     -1.3700137738      2.8107136264      0.0100136654      0.0008598988     -0.0046589893     -0.8645415569
H       1.2570969470     -3.4313444742      4.6080927790      0.0057603765      0.0070561674     -0.0006218292      0.0345341791
H       2.0924402222     -2.0224476434      5.2766341588     -0.0023665272      0.0026953435     -0.0053996288      0.0304289555
H       0.3935339065     -2.3752972557      5.7679099354     -0.0091746832      0.0124453272     -0.0060632591      0.0269745654
