31
Properties=species:S:1:pos:R:3:forces:R:3:charge:R:1 energy=-174.65768263400793 homo_lumo=3.348443454782842 dipole="-1.112417990382794 -0.05207771698778889 -2.3082516505557007" free_energy=-174.65768263400793
N       1.6524571689      0.2250378426      0.2575622206     -0.0560384404      0.0703007661      0.1456970873     -0.4895686769
C      -0.7706140110     -0.0746323926      0.0369537177     -0.0612865761      0.0873535929      0.6554764788     -0.1594510750
C       0.3919175254      0.1505503157      1.0038350826     -0.6508561304     -0.1296041756     -0.5325527098     -0.0241932499
C      -2.0942897949     -0.1505433556      0.8047929389      0.1048518644     -0.0666855675     -0.6538557694     -0.2116131263
C      -3.2696028500     -0.3803284173     -0.1426108121      0.2606941205      0.0694568795      0.3810075903     -0.0463396298
C       2.1779683028      1.4226687984     -0.0357263702      0.2505614739      0.1959959931     -0.2706850101      0.3040611054
C       2.2977057713     -0.9107343437     -0.0427539323      0.2880601288     -0.1706838368     -0.2770638995      0.3021689322
C       3.3833753635      1.5138972608     -0.7005472827     -0.0509147900     -0.0838538155     -0.0977931845      0.0017845326
C       3.5038789317     -0.8731558537     -0.7108878568     -0.0483923216      0.0763677068     -0.0812980986      0.0042542383
C       4.0595858114      0.3529765965     -1.0496233622     -0.2666298132     -0.0146608347      0.0600021897      0.0530304002
H      -0.6070575854     -1.0045879330     -0.5167622406      0.0120942965     -0.2561416040     -0.2152282299      0.0989626247
H      -0.8044635917      0.7462921103     -0.6865625183     -0.0278044359      0.2012944013     -0.2568252701      0.0964686932
H       0.4804901853     -0.6714891750      1.7170421836      0.1022866577     -0.0189260717      0.1897719333      0.1522283942
H       0.2730396002      1.0839507225      1.5561678477      0.0718021637      0.0850952603      0.1563540604      0.1370022277
H      -2.0438585159     -0.9671503691      1.5315233284      0.0254684971     -0.1724729849      0.2558661252      0.0964410292
H      -2.2456296154      0.7818705874      1.3573812062     -0.0191747327      0.2209364990      0.2184696372      0.0939607740
H      -4.1974907658     -0.4326545771      0.4258571244     -0.3565786498     -0.0338686059      0.0768370757      0.0423252777
H      -3.3473782610      0.4359046375     -0.8615359058     -0.0707116139      0.2316298906     -0.2523902751      0.0319170001
H      -3.1434337474     -1.3151764175     -0.6896160519     -0.0126370091     -0.2887475178     -0.2032914460      0.0319635240
H       1.6299433689      2.2947606815      0.2965681329     -0.1195083524      0.0690329623      0.0585239645      0.0970877247
H       1.8431480272     -1.8363092750      0.2864979383     -0.1145087337     -0.0830562054      0.0434813364      0.0998276948
H       3.7995553871      2.4903463792     -0.9114492930      0.0648794485      0.2304856508     -0.0316809298      0.0526601115
H       4.0187320019     -1.7998342663     -0.9285279285      0.0833834086     -0.2299801854     -0.0357705001      0.0525425625
H       5.0176296107      0.4031260553     -1.5520327154      0.2366659275      0.0120153037     -0.1158119293      0.0525644722
P       3.4446438967      0.2945424195      3.2232644303      0.0330912609      0.0314750241     -0.1483452884      2.2076420724
F       2.3366327076      1.3879147883      2.5702423687      0.0563556000      0.1426294542      0.2390005454     -0.5355690353
F       4.3116011040      0.4103496058      1.8061568759      0.0929612650     -0.0015082901      0.0829263727     -0.5220884520
F       4.2877164297      1.5341327457      3.8567303003      0.1025677681      0.1665756647      0.0873427864     -0.4941884142
F       4.5010698810     -0.8006548765      3.7973553992      0.1579664234     -0.1711057166      0.0874195226     -0.4935736370
F       2.5122259994      0.1734865254      4.5544759980     -0.1621725731     -0.0210692189      0.1846910113     -0.4963637047
F       2.5530756957     -0.9542448446      2.5111052005      0.0735238677     -0.1482804186      0.2497248235     -0.5359443906
