25
Properties=species:S:1:pos:R:3:forces:R:3:charge:R:1 energy=-149.7032771820964 homo_lumo=3.209506555101649 dipole="0.12564512558945803 0.23743449473267128 -0.17827945590209274" free_energy=-149.7032771820964
N       0.3211858997     -0.4110490040     -0.4063387919     -0.0028197076     -0.0827127204     -0.1089304368     -0.5574004242
C       1.7772411949     -0.5514504303     -0.4672782283     -0.0999777346     -0.0844645066      0.5651435913     -0.0203821456
C      -0.2665442820      0.7549271679     -0.8063143683      0.1155137711     -0.0907752435      0.0744533556      0.2614721952
C      -0.4541923037     -1.6143871999     -0.2693386166     -0.1366664994      0.4341705843      0.6796454741      0.3107501059
C       2.3487399259     -1.0384593051      0.8625656990     -0.1142555038      0.0854373957     -0.3552841833     -0.0744733970
C      -1.6065264055      0.9354390596     -0.7707575552     -0.4957537884     -0.0757660879      0.0070871469     -0.0932307499
C      -1.8960414794     -1.3293048862     -0.0076919967      0.5680117598     -0.4626072331     -0.0207876210     -0.0547194093
C      -2.4346393028     -0.1354953891     -0.2994737151      0.2156674776      0.5169372449     -0.1917172484      0.0160342151
H       2.0496420328     -1.2455883323     -1.2703293649      0.0757342095     -0.1048925017     -0.1928902259      0.1170349879
H       2.1931280004      0.4313247505     -0.7079387735      0.0019551412      0.1807576315     -0.0901921997      0.0871820517
H       0.4134936553      1.5519131570     -1.0882732055      0.1454445935      0.0870291813     -0.0615154468      0.0482107403
H      -0.0120777861     -2.2623177739      0.4991939004      0.0660369011     -0.0090108449     -0.1137813011      0.1323411510
H       1.9676966897     -0.4326051951      1.6843914648     -0.0936072225      0.2410279918      0.2343803528      0.0441549490
H       3.4349403374     -0.9577957818      0.8352073674      0.3626368522     -0.0370393504      0.0424932332      0.0377729143
H       2.0854780354     -2.0809072396      1.0362897623     -0.0157108417     -0.3119141483      0.0428456412      0.0624872948
H      -2.0431424180      1.8826770175     -1.0543339560     -0.0309609283      0.2494420001     -0.0687773377      0.0069972332
H      -2.4842816811     -2.1623663530      0.3556745963     -0.1644243100     -0.1740084073      0.1561984794      0.0304678122
H      -3.4926471313      0.0481755231     -0.1484734588     -0.2657975545     -0.0091755847      0.0385757125      0.0190914915
C       0.4173370031     -4.0853138446     -2.9485813401      0.0217853111      0.1620556955      0.3977773384     -0.0904507930
C       0.4891599656     -3.3955925628     -1.6054143253     -0.0998529352     -0.5753958697     -0.9025147279      0.9129775972
O       1.2368843589     -3.7228756129     -0.7196241299      0.9670663977     -0.4719914441      1.0750175512     -0.7157154729
O      -0.3718368516     -2.3884981733     -1.5382194420     -0.9221428470      0.5965282130     -0.7923086159     -0.6669796902
H       1.0565033129     -4.9644430240     -2.9459408215      0.1815734900     -0.2078596437      0.0389486737      0.0618549604
H      -0.6127782291     -4.3673295600     -3.1575474084     -0.3226872198     -0.0548845076     -0.1442291873      0.0660184958
H       0.7471103698     -3.3904995101     -3.7194578840      0.0432311878      0.1991121560     -0.3096380183      0.0585038865
