33
Properties=species:S:1:pos:R:3:forces:R:3:charge:R:1 energy=-177.56670755886427 homo_lumo=2.9826703137198307 dipole="-1.0601664395639896 -5.905942353965177 -0.12376361233433626" free_energy=-177.56670755886427
N       0.8341608898     -0.0027848078     -0.0357192075      0.6730503633     -0.1015736044     -0.1562385372     -0.5756206545
C       0.0727740473      1.2211252115     -0.4188343529     -1.2898660724      1.6189328839     -0.2351524553     -0.0494193017
C       0.0790903614     -1.2327695841     -0.4124243450     -1.2061967022     -1.4473299738     -0.2200861132     -0.0170044467
C      -1.3586330485      1.2529046737      0.1448498781      0.0215610858     -0.1780554595      0.0125959298     -0.1876627508
C      -1.3540022985     -1.2649757473      0.1502991104      0.0025212654      0.1107386649      0.0167351138     -0.1811875396
C      -2.1280304131     -0.0077825129     -0.2434974581     -0.2531269132      0.0259400792      0.1239593294     -0.1719783930
C       1.1577448285      0.0021230783      1.4147541619      0.2399994006      0.0254497708      1.4807494477      0.0239514422
C       2.1200115498     -0.0004727082     -0.7768009326      1.4238362396      0.0332114543     -0.7873447823      0.0239158511
H      -0.0016282882      1.2976390292     -1.5287729521      0.3139739829     -0.3751877248      0.3748541125      0.1507957847
H       0.6022064220      2.1336680494     -0.0709932841      0.2175663064     -0.4172516353     -0.0726483495      0.2194076040
H       0.6160080579     -2.1443944673     -0.0636903294      0.1557826853      0.5675924044     -0.0549772031      0.1428264365
H       0.0036526815     -1.3125697647     -1.5220536659      0.2907050660      0.3989897867      0.3688420722      0.1500853525
H      -1.8881123459      2.1388221423     -0.2678597873      0.4050666273     -0.0945989429      0.1744843930      0.1542975641
H      -1.3450559480      1.3693936677      1.2486733629      0.0191328071      0.0587321862     -0.2292631943      0.1185633934
H      -1.3408952009     -1.3757383470      1.2546873145      0.0266846427     -0.0204078402     -0.2111704921      0.1115135548
H      -1.8819148985     -2.1532976355     -0.2588759240      0.3565575488      0.1023861677      0.1424404252      0.1270870624
H      -3.1154592496     -0.0075994910      0.2672505322      0.2191676475     -0.0154915565     -0.2709234505      0.1118514381
H      -2.3086909938     -0.0097329402     -1.3410458056     -0.0056601371     -0.0079231153      0.2247758237      0.1008099826
H       0.2513235450      0.0024403018      2.0510444426      0.1577869761      0.0217756993     -0.4830924082      0.1260845265
H       1.7544893688     -0.8953887888      1.6930386811     -0.2458993331      0.2903876150     -0.4055250976      0.1089343681
H       1.7513057909      0.9035132821      1.6877070276     -0.2656058573     -0.2631575619     -0.4042933132      0.1394224422
H       1.9551292442     -0.0027198397     -1.8776847294     -0.2216000468      0.0251835793      0.5265677589      0.1101811575
H       2.7245499705      0.9017359763     -0.5293442296     -0.4605679215     -0.2563320935      0.0453389733      0.1434925774
H       2.7296241699     -0.8982092721     -0.5261365006     -0.4507185025      0.2925643832      0.0704565912      0.1075989721
N       2.0013801016      6.7326210637     -0.5685881898      0.2371446426     -0.1947188385     -0.1564239485     -0.8384395134
S       0.5309015344      7.2689069122     -0.0903823412     -3.0519926189     -2.6277711440     -2.4759271307      1.8451476497
S       2.8181114797      5.6036764844      0.2896860350      2.9888697026      4.2000993003      2.9544875449      1.8239271883
F       0.7176089067      8.2963578262      1.2184166903      0.0718140930     -0.3957532543     -0.6305329331     -0.4397532050
F       2.1157486027      4.1075357430      0.0390404108     -0.1151975945     -0.4264875449     -0.2138294928     -0.4891399351
O      -0.1228124782      8.0145202418     -1.2185696786      1.9342668061      0.0023055487      2.0702652954     -0.7098079359
O      -0.3324910100      6.1084875272      0.3185318396      1.2365307712      1.5474950930      0.7261054216     -0.7489031090
O       2.7617280192      5.9297952254      1.7556999260     -0.8251193188     -1.5442868389     -1.7013236826     -0.7186855579
O       4.2481948577      5.5609832255     -0.1669377397     -2.6004676419     -0.9554574883     -0.6039056482     -0.7122920058
