51
Properties=species:S:1:pos:R:3:forces:R:3:charge:R:1 energy=-276.6164713260198 homo_lumo=3.042337187441507 dipole="-1.9144557436989083 -5.969167424812906 2.7960464528210816" free_energy=-276.6164713260198
N      -0.6944281272      0.5369293127     -0.2054677672      0.0759567824      0.2097497603     -0.1776344626     -0.5205874967
C      -1.6647766109      0.2844460672     -1.3201125725     -1.4030317407     -0.3729272645     -1.1636415624     -0.0371988801
C      -1.2488856211      1.6174877207      0.6744020207     -0.9413769157      1.1667363527      1.2134474389     -0.0493388431
C       0.5705769005      1.0404282247     -0.8449784094      1.7256952033      0.5900593219     -0.3328755381     -0.0642179081
C      -0.4472948985     -0.7009743212      0.6145946317      0.4234180202     -1.3886708651      0.4463096934     -0.0547579207
C      -3.0857193456     -0.0691639996     -0.8482350955      0.0684824083      0.0196721836      0.0561084975     -0.1792354511
C      -2.6737064181      1.3339655170      1.1959017547     -0.0024927752     -0.1417208585     -0.0900742308     -0.1711183993
C      -3.6386423982      1.0297393506      0.0532329947     -0.3113220440     -0.0342918843      0.1204114534     -0.1707966156
C       1.7651848946      1.2797557828      0.1133174599     -0.3683351320     -0.1578556749     -0.1324829420     -0.2284128148
C       0.2205116628     -1.8816662972     -0.1329107166     -0.1245728257      0.3951067335      0.1176419848     -0.2247151632
C       2.9843728041      1.7952521273     -0.6625521622     -0.0591102183      0.1143683982     -0.1585611657     -0.2273326678
C       0.4344382796     -3.0683666601      0.8162943997     -0.0613648894      0.0590517630      0.0779977414     -0.2107728163
C       4.1799793392      2.0185307815      0.2587771043      0.1286766239     -0.0028578258      0.0130617233     -0.0904889145
C       1.0934827217     -4.2425357736      0.0977711017      0.0449269402     -0.1390627888      0.0374861479     -0.0901222227
H      -1.3052843481     -0.5137111786     -2.0017731592      0.3227491843      0.2121176367      0.4686551583      0.1537813448
H      -1.7546355441      1.1939462039     -1.9597663984      0.4001766732     -0.0938073747      0.5184994724      0.1724244951
H      -1.2818520048      2.5877140042      0.1266668410      0.2604378553     -0.5253974625     -0.1613345889      0.1822392737
H      -0.6035426329      1.7756446039      1.5649970595      0.1286041081     -0.2678997982     -0.5475531073      0.1591592521
H       0.3709192687      2.0024990605     -1.3724933385     -0.3424243199     -0.3381166038      0.3305875426      0.1982476063
H       0.9029052320      0.3426656049     -1.6458031942     -0.4130266666     -0.0351231441      0.3785760252      0.1520340446
H      -1.3917342727     -1.0867944229      1.0436943763     -0.0093342699      0.4377955299     -0.3420554332      0.1824342657
H       0.1719948955     -0.4526625484      1.5041173982     -0.1124948306      0.3312682978     -0.4750303665      0.1557527680
H      -3.1071520536     -1.0492562043     -0.3290680231      0.0413657454      0.1495706159     -0.0963654360      0.1035321755
H      -3.7457113949     -0.1659338554     -1.7372580450      0.3678478529     -0.0676705251      0.1041271865      0.1255224536
H      -3.0412235889      2.2301208491      1.7410522381      0.3614943304     -0.1925988986     -0.0793509196      0.1342808501
H      -2.6703059268      0.4981335351      1.9259830406      0.0422230495      0.1548022524     -0.1152955746      0.0997070199
H      -3.8055538494      1.9517773582     -0.5460688110      0.0114561095     -0.2025556440      0.1264522798      0.1146876485
H      -4.6180289702      0.7090804922      0.4697978300      0.2069095372      0.2037167373     -0.1646491220      0.1027080397
H       2.0592528107      0.3373266618      0.6179147176     -0.1293304566      0.1560684243      0.0138210002      0.1135127716
H       1.4988307131      2.0314274857      0.8841471660      0.0452624503     -0.1919292431     -0.1067074870      0.1284700696
H       1.2081282723     -1.5842541296     -0.5398277659     -0.2470593473     -0.0202740687     -0.0145302100      0.1349670529
H      -0.4228166532     -2.2241099825     -0.9682419872      0.1736439110      0.1281936080      0.0633273615      0.1233887195
H       2.7339035998      2.7562780870     -1.1560299056     -0.0174731902     -0.2251929049     -0.0344082029      0.1652003900
H       3.2695744001      1.0625880886     -1.4487044877     -0.1490371296      0.1876073558      0.0766949260      0.0888625701
H      -0.5439267076     -3.4032602953      1.2250516294      0.2159176828      0.1545406680      0.0330492634      0.0947687914
H       1.0823699864     -2.7591304021      1.6652704768     -0.2468399677     -0.0226989565     -0.1015983525      0.1011747001
H       4.4864228784      1.0613811050      0.7315355242     -0.0003374610      0.2995311001     -0.0272934071      0.0307575555
H       3.9263590999      2.7560879579      1.0496537406      0.1672981575     -0.2186512969     -0.1851693732      0.0524730208
H       5.0339892615      2.4120784159     -0.3319219371     -0.2162632541     -0.1064802400      0.2839210216      0.0718266102
H       2.0914238403     -3.9465312512     -0.2899913506     -0.2814978198     -0.1821564373      0.0436510694      0.0519626297
H       0.4577751634     -4.5852717204     -0.7462820070      0.2695339559      0.0339885905      0.1979172798      0.0485407031
H       1.2246139639     -5.0858255103      0.8081420802      0.0198973547      0.1795043974     -0.3122780675      0.0640160742
N       1.4065240895      7.4596059765     -2.5747515851     -0.1887712508     -0.2300323767      0.4076112227     -0.8404085144
S       0.6592905207      6.0180093002     -2.3779075267     -4.4307042281      2.2069040931     -1.6456195842      1.8286907996
S       2.1884781111      7.8261188830     -3.9643216495      4.7269079590     -1.2089632398      0.6849226393      1.8402208572
F       1.8154249988      4.8183103784     -2.2454854018     -0.0534543389     -0.0334424980      0.2314175783     -0.4689566590
F       1.0621184047      8.1892518352     -5.1476771839      0.2896054184     -0.0505334749      0.6039590848     -0.4431795958
O      -0.1778977509      6.0480849415     -1.1308320356      2.4022667197     -0.4850526206     -0.7583598964     -0.7392147849
O      -0.2104081912      5.7236966400     -3.5678450152      1.8803463373     -0.6984042186      1.1682940718     -0.7269614043
O       3.0118281103      6.6533123875     -4.4187374528     -1.9973258830      1.1929810506     -0.2233946277     -0.7288980356
O       3.0784489018      9.0158863030     -3.7423528839     -2.6941194155     -0.9489666822     -0.3716852061     -0.7086294451
