51
Properties=species:S:1:pos:R:3:forces:R:3:charge:R:1 energy=-278.9083855604351 homo_lumo=5.277083363061646 dipole="-3.3032919863838273 0.8619211540577865 1.3703077357887392" free_energy=-278.9083855604351
N       0.3608626343      0.3440799671     -0.2396056458      0.0030872390      0.0090140498     -0.0023691087     -0.4845331883
C       0.1313528541     -0.5137449258     -1.4729226879      0.0039283595     -0.0035687394      0.0032679634     -0.0510464542
C      -0.8363926384      1.2541269276     -0.0457516039     -0.0032431981     -0.0055751996      0.0010078258     -0.0090280651
C       1.5952970900      1.1974862463     -0.5216003047     -0.0000010966      0.0016174187     -0.0063883287     -0.0713193539
C       0.5603598983     -0.4999406296      1.0072388208      0.0061291857     -0.0087806978     -0.0011784578     -0.0357964759
C      -1.1632162425     -1.3022180148     -1.4038971185     -0.0064308705      0.0037053764      0.0068230002     -0.1771937277
C      -2.1634975320      0.5108184043      0.0143957322      0.0044682597     -0.0045025336     -0.0127684719     -0.1641793747
C      -2.3647444473     -0.3766556313     -1.2138272655     -0.0020385878     -0.0043721207     -0.0067747197     -0.1644235312
C       2.1356991735      1.9754542122      0.6662444695     -0.0085339241      0.0023624070      0.0047655048     -0.2311570113
C       1.7016590501     -1.4949047747      0.9338543360     -0.0003399402     -0.0018828618     -0.0052050705     -0.2617726781
C       3.0696283245      3.0916487104      0.1871050158     -0.0020526536      0.0061710199     -0.0135585571     -0.2201955141
C       1.9551270562     -2.1148744374      2.3096678188     -0.0142721834      0.0111373845      0.0067360518     -0.2017757080
C       3.7546328366      3.8000473168      1.3495222001     -0.0034199049     -0.0034783069      0.0165685151     -0.0699946040
C       3.1148896468     -3.1066143033      2.2690398890      0.0058143068     -0.0025268643     -0.0189891935     -0.0726406232
H       1.0212111251     -1.1444924005     -1.6000559715     -0.0058806499      0.0021198476     -0.0069466866      0.2350155839
H       0.1093713840      0.1953345696     -2.3166178594     -0.0123474449      0.0088623242     -0.0083958224      0.1302829728
H      -0.8241401100      1.9417587552     -0.9060320828     -0.0075009225     -0.0025717053     -0.0089287426      0.1295868172
H      -0.6552039323      1.8381884388      0.8670083052     -0.0051216426     -0.0038686861     -0.0041008898      0.1395320275
H       1.2922167139      1.8778768863     -1.3332997480     -0.0078916546      0.0017703929     -0.0009927222      0.1243587943
H       2.3604547882      0.5284442208     -0.9348539260     -0.0073530037     -0.0008885619     -0.0017213151      0.2518105825
H      -0.3903075150     -1.0131981662      1.1990851575     -0.0021471405     -0.0048939581     -0.0014430419      0.1539479707
H       0.7198661575      0.2192714022      1.8246573943     -0.0054415577      0.0003692115     -0.0052053800      0.1417487471
H      -1.1173508104     -2.0534771645     -0.5966738125      0.0038805378      0.0016996488     -0.0026049792      0.1041535143
H      -1.2474655573     -1.8710930900     -2.3441142639      0.0011698796      0.0030077346     -0.0108517251      0.1141150136
H      -2.9576291490      1.2734013114      0.0832044168     -0.0007982666     -0.0045170461     -0.0097692440      0.1111751326
H      -2.2335705933     -0.0859813040      0.9386051861      0.0036268741     -0.0110418657      0.0002345065      0.0969842520
H      -2.4724937663      0.2621672198     -2.1101307130      0.0008052767     -0.0061215686      0.0011922618      0.0932347857
H      -3.2966700345     -0.9562184993     -1.1186392090      0.0072199499     -0.0032059661     -0.0021809902      0.0888856571
H       2.7026520656      1.2992114369      1.3279474520     -0.0055311746      0.0004033253     -0.0057636685      0.1313261766
H       1.3237806286      2.4278109728      1.2634892422      0.0032899793     -0.0020610778     -0.0035667955      0.0874358372
H       2.6264680866     -1.0148901083      0.5833977033     -0.0011155448      0.0002749678     -0.0042881478      0.2132595349
H       1.4796753632     -2.2942624442      0.2092370508      0.0007416761      0.0008691662      0.0013926433      0.1305864870
H       2.4856261435      3.8167552348     -0.4093242290      0.0008797772      0.0025776807      0.0048162180      0.0673781246
H       3.8214599704      2.6599692133     -0.4907888969     -0.0038886726      0.0108780485      0.0024490644      0.1776330098
H       1.0391608500     -2.6181776321      2.6720381895      0.0070062211      0.0039465234     -0.0036767453      0.0707906156
H       2.1809727082     -1.3108122064      3.0343376359     -0.0015972472     -0.0056244130     -0.0039392131      0.0836881341
H       4.3753167593      3.0933565858      1.9230893942     -0.0020080925      0.0028509769     -0.0064631490      0.0456480437
H       3.0208438042      4.2496156363      2.0386900703      0.0047090596     -0.0020888435      0.0004281834      0.0198085488
H       4.4133765292      4.6017911653      0.9849185898      0.0046095017      0.0076101976      0.0015079949      0.0470884598
H       4.0362132475     -2.6112971500      1.9258492235     -0.0021294889     -0.0031404592     -0.0019926222      0.0643151651
H       2.9035049119     -3.9315617412      1.5709692532     -0.0010342355      0.0020951240      0.0001924452      0.0450201320
H       3.3028164856     -3.5378641885      3.2628385612      0.0046371592     -0.0072274644      0.0059713594      0.0378391568
N       5.4508177752     -1.2785370367     -2.1638298729      0.0075976204      0.0020813568      0.0089594416     -0.8506683693
S       5.3209313279      0.1701429367     -1.5066207558     -0.0010252592     -0.0032246578      0.0267896817      1.9227030571
S       4.1442285383     -2.0308737759     -2.7102190092      0.0088428149     -0.0004058529      0.0182300733      1.9392120515
F       4.6996895125     -0.1660966759      0.0350536103     -0.0021829092      0.0016138903      0.0176104075     -0.4970617645
F       3.7435267783     -1.1821339660     -4.0724334354      0.0068462653      0.0145008770     -0.0115546708     -0.4622211543
O       6.6372270535      0.6954407720     -1.2272551704      0.0070458879     -0.0220564698      0.0250237110     -0.7062693113
O       4.2848642586      1.0314014208     -2.0685091103      0.0160206917      0.0037106802      0.0231019579     -0.7630807186
O       2.9494037967     -1.8896330846     -1.8767276289     -0.0062609218      0.0070402921     -0.0025668543     -0.7980224242
O       4.5264721698     -3.3386883537     -3.1895665310      0.0092316654      0.0053359976     -0.0028834974     -0.7061843340
