51
Properties=species:S:1:pos:R:3:forces:R:3:charge:R:1 energy=-276.1615893130974 homo_lumo=2.2776869291583988 dipole="-9.00143932170892 1.1869314754693077 0.7028073805884048" free_energy=-276.1615893130974
N      -0.7027525881      0.5314039172     -0.2088119647      0.0024606970      0.2956878149     -0.2378096020     -0.5193840919
C      -1.6770114090      0.2708774145     -1.3179447607     -1.4048209000     -0.4167435129     -1.1054571219     -0.0315620269
C      -1.2574489006      1.6109308815      0.6725264042     -0.9071974435      1.0589649249      1.2405485356     -0.0368563410
C       0.5546899129      1.0405542844     -0.8573942580      1.7614175707      0.5377063839     -0.2659058433     -0.0496755158
C      -0.4432377028     -0.7025665218      0.6134462100      0.4679614629     -1.4612844133      0.4957832133     -0.0604444808
C      -3.0944944564     -0.0848719387     -0.8386349277      0.0622076554      0.0230007096      0.0382908376     -0.1801598915
C      -2.6792263140      1.3244749570      1.1991620008     -0.0159672461     -0.1185877432     -0.0966571410     -0.1709011301
C      -3.6463828748      1.0167589168      0.0599249140     -0.3085529268     -0.0683351177      0.1397875817     -0.1682080761
C       1.7476234435      1.2997251077      0.0953224873     -0.4049194014     -0.1597035890     -0.1803996251     -0.2276514731
C       0.2273289926     -1.8824183845     -0.1330925775     -0.1084176174      0.4192727139      0.0860632652     -0.2290287958
C       2.9505565062      1.8481233318     -0.6818874556     -0.0165111641      0.0525619823     -0.0997029579     -0.2125213009
C       0.4464964814     -3.0666386441      0.8182591834     -0.0610615070      0.0424797767      0.1147586508     -0.2135413826
C       4.1423232109      2.0764947601      0.2416801542      0.0825284345      0.0315080331      0.0209747641     -0.0932547171
C       1.1070851688     -4.2409463309      0.1011921382      0.0639156628     -0.1182036571      0.0094781487     -0.0940594490
H      -1.3175836937     -0.5285040558     -1.9981595190      0.3235196926      0.2124600722      0.4762707985      0.1597228517
H      -1.7731089671      1.1774337708     -1.9609048392      0.3922687970     -0.0950636569      0.5146233156      0.1534765486
H      -1.2936289177      2.5811719433      0.1252426333      0.2324876454     -0.5566252693     -0.1639633857      0.1485993642
H      -0.6113488772      1.7701680347      1.5623414332      0.1384939835     -0.2728002294     -0.5544195584      0.1642241670
H       0.3442864538      1.9960428008     -1.3922550712     -0.3713266234     -0.3671037338      0.3305153208      0.1525873475
H       0.8920958894      0.3389078564     -1.6527955414     -0.4011996277     -0.0334741055      0.3904739819      0.1610605289
H      -1.3832133686     -1.0917312648      1.0494830476     -0.0149592949      0.4390507641     -0.3423889093      0.1825267765
H       0.1813367124     -0.4479336886      1.4976177010     -0.1172871882      0.3341539366     -0.4778458785      0.1620119985
H      -3.1099505476     -1.0624534549     -0.3146716196      0.0383367537      0.1662730596     -0.1084661285      0.1130348735
H      -3.7575677285     -0.1871382738     -1.7246617798      0.3578414089     -0.0793344724      0.1085986799      0.1248036100
H      -3.0466043458      2.2205089201      1.7445683675      0.3465476991     -0.2001587370     -0.0591467041      0.1287625524
H      -2.6708098241      0.4892725999      1.9299164776      0.0493916272      0.1751381893     -0.1272286705      0.1101139197
H      -3.8145122565      1.9370338319     -0.5418207961     -0.0051545526     -0.1935453723      0.1150414313      0.0995991623
H      -4.6246155867      0.6971617833      0.4797103820      0.2018831659      0.2095971692     -0.1685332191      0.1069708586
H       2.0615699593      0.3586343582      0.5911852657     -0.0916330113      0.2126684545     -0.0227591848      0.1349630842
H       1.4720785126      2.0400367633      0.8734124905      0.0365803639     -0.2008361301     -0.0649799201      0.1164714360
H       1.2135365174     -1.5821162190     -0.5414700166     -0.2400934865     -0.0332278686     -0.0056059589      0.1455922125
H      -0.4157947754     -2.2286802325     -0.9668967861      0.1642352308      0.1208943261      0.0577627175      0.1212456258
H       2.6806256171      2.8127061904     -1.1646191358     -0.0308497951     -0.2629304306     -0.0400120385      0.0853818642
H       3.2463564056      1.1276743050     -1.4756603760     -0.1188774998      0.1957649493      0.0964178615      0.1136424070
H      -0.5300660819     -3.4033595490      1.2298669108      0.1996009017      0.1622828712      0.0316342733      0.0910463646
H       1.0952422263     -2.7540005894      1.6653963759     -0.2369384749     -0.0210782522     -0.1163772215      0.1094138471
H       4.4266019332      1.1255886217      0.7398855710      0.1523549494      0.3765972424     -0.1693538178      0.0786181866
H       3.8927516507      2.8330593374      1.0153776495      0.1094794721     -0.1858884300     -0.1507455146      0.0255517811
H       5.0063631043      2.4438185940     -0.3509268280     -0.1590559662     -0.2421971728      0.3617610902      0.0976947207
H       2.1037066513     -3.9435770115     -0.2888406577     -0.2813889721     -0.1905268009      0.0593297674      0.0685307820
H       0.4707060460     -4.5870263786     -0.7409656634      0.2617110651      0.0356512834      0.1975677421      0.0450870491
H       1.2412676926     -5.0824374746      0.8131427383      0.0214113070      0.1986554216     -0.3130062145      0.0687379040
N       8.9014580351     -1.0920549765     -0.0412880555     -0.3210720658      0.1854953642      0.2836100359     -0.8471272671
S       7.7434101791     -0.1590480549     -0.7222760258      2.8018345666      4.2640348409      0.5836017884      1.8433031256
S      10.1444543037     -1.6874418730     -0.9212665464     -1.4573843066     -4.6087373520     -1.3274303473      1.8397337642
F       6.6742073761     -1.1338391702     -1.5641162577      0.0589269095      0.1159759804      0.3355995155     -0.4588051637
F      11.1902771410     -0.4402723528     -1.3115733971     -0.4058352338     -0.3820971104      0.3510962331     -0.4441449379
O       7.0032577248      0.5774837052      0.3562376347     -0.0278203795     -2.2709777452     -1.1249873285     -0.7490011804
O       8.3626696473      0.8242896431     -1.6758328914     -1.3772652173     -1.9104309738      0.2553361504     -0.7241749131
O       9.6254929931     -2.3042344044     -2.1899105767      1.0259958173      1.8367526638      1.0118421279     -0.7270997503
O      10.8787218069     -2.7219389955     -0.1165279834     -0.4678029380      2.7472629485     -0.3835855365     -0.7149068289
