28
Properties=species:S:1:pos:R:3:forces:R:3:charge:R:1 energy=-148.1344672270695 homo_lumo=5.893145588172908 dipole="-0.242722270285859 3.148466245633447 -1.290819222790914" free_energy=-148.1344672270695
N       0.3212979409     -0.4213584160      0.2786697644      0.0134524553     -0.0000568962     -0.0021870361     -0.5450975905
C      -0.0248786333      0.8281938822     -0.5199435225     -0.0159644097     -0.0009779291      0.0062568026      0.0244855405
C      -1.0257312688     -1.1450514949      0.5183310460     -0.0100175650      0.0090979952     -0.0057381992     -0.0043700539
C      -1.4734275347      1.1216331883     -0.1746186376      0.0051050350     -0.0171306292      0.0015321605     -0.1614848564
C      -2.0845962975     -0.2838526471     -0.1636781436      0.0217809211     -0.0012737470      0.0000797052     -0.1512700908
C       0.9291289690     -0.0473810725      1.5990976049     -0.0102442710     -0.0032991829     -0.0192318865      0.0394573267
C       1.2868861443     -1.2853157578     -0.4780540317     -0.0156360934      0.0095295715      0.0140634807      0.0355035206
H       0.0723718461      0.5622204977     -1.5832373163     -0.0035479784      0.0042078287      0.0064591501      0.1365118863
H       0.6983486885      1.6176397930     -0.2754496584     -0.0002267248      0.0039640187      0.0010730237      0.1128823221
H      -1.1618429328     -1.2098052333      1.6036831280     -0.0051083611      0.0056636150     -0.0035870078      0.1619068686
H      -0.9327901506     -2.1737036059      0.1507957855     -0.0023196011      0.0014920140     -0.0021553950      0.1998796104
H      -1.9358962947      1.7935035112     -0.9123708424      0.0052378397     -0.0004111715      0.0136139952      0.0969570004
H      -1.5541530876      1.5987297113      0.8163419228     -0.0041372465     -0.0077272599      0.0035507008      0.1008341970
H      -3.0419096713     -0.3355978239      0.3743969524      0.0101884141     -0.0028965385     -0.0143507154      0.0983231298
H      -2.2604290257     -0.6259891701     -1.1966994136      0.0072833507      0.0056558231     -0.0077765715      0.0946624385
H       1.8992376264      0.4331264550      1.4138507710     -0.0054408729     -0.0050246084      0.0020329112      0.0766965599
H       0.2501207429      0.6440698102      2.1128643562      0.0058863474     -0.0002275933     -0.0033660979      0.0822575140
H       1.0590791352     -0.9727050495      2.1773089680      0.0021281002      0.0044632444      0.0016396298      0.1701190831
H       0.7958506565     -1.6262777670     -1.3972730363     -0.0005568149      0.0002121506     -0.0042681805      0.0754236906
H       2.1723052503     -0.6796424125     -0.7156025690     -0.0033389488     -0.0066280657      0.0021612779      0.0720136758
H       1.5422741375     -2.1482050992      0.1499290285     -0.0009546943      0.0020619852     -0.0050280080      0.1920002447
P       0.3658102887     -4.4431205381      1.9319821010     -0.0019747708      0.0190027846     -0.0049598042      2.1851829280
F      -0.6021340153     -5.7416360109      1.7286934267      0.0042917160     -0.0188005296      0.0155881199     -0.4930034341
F       1.6957586171     -5.2900407673      1.4872496845      0.0009901267     -0.0075897058     -0.0013969092     -0.4974009803
F       0.1261221029     -4.0115097794      0.3162168016     -0.0088134119      0.0071058854      0.0086035544     -0.5370219212
F       1.3390611750     -3.0556583877      2.0909590160     -0.0075067867      0.0093275036     -0.0071289681     -0.5451123273
F      -0.9511081791     -3.5017833612      2.3372442900      0.0061692889      0.0019034415      0.0008301530     -0.5262964782
F       0.6153043919     -4.7845777349      3.5102754911      0.0132749563     -0.0116440044      0.0036901144     -0.4940398043
