22
Properties=species:S:1:pos:R:3:forces:R:3:charge:R:1 energy=-125.05375323110333 homo_lumo=3.382698790268642 dipole="-1.5665087663705277 -0.9520251628194535 1.6166516422219044" free_energy=-125.05375323110333
N       0.5758034071      0.6708611983     -0.1234436881     -0.2879129457      0.0006588607     -0.0418478875     -0.5291135305
C       1.0179593427      1.5114445585      0.8236662853      0.1681539381      0.0085580373      0.4263266953      0.3121748311
C       1.1264606211     -0.5408660520     -0.2899777738      0.1859057240     -0.3397120267      0.2251037023      0.3122714070
C      -0.3842990699      1.1568770789     -1.1111798746     -0.1143110957      0.0983372397     -0.1925184500      0.1001347505
C       2.0062044377      1.1174854846      1.7011982192     -0.0186791196     -0.1067251269      0.0118018318     -0.0015958835
C       2.1184967232     -0.9804251746      0.5614619514     -0.0420429700      0.0491894121      0.0964644380     -0.0012899124
C       2.5683297213     -0.1456846633      1.5755880841     -0.2697821011      0.0477866685     -0.1317139433      0.0573897370
H       0.5759314378      2.4990704894      0.8496585853     -0.1090734959      0.1069220926     -0.0265625814      0.1011918032
H       0.7672235155     -1.1333936024     -1.1214277026     -0.0943182900     -0.0448875204     -0.1041710752      0.1014631236
H      -0.9519727610      0.3191131793     -1.5102015089     -0.1544791308     -0.2099863302     -0.0117723986      0.0539437854
H      -1.0504261651      1.8808013570     -0.6467017317     -0.1711179277      0.1050538305      0.1650163372      0.0542410227
H       0.1881134097      1.6333162095     -1.9092597769      0.0765508023      0.0769515047     -0.1267461139      0.1394065658
H       2.3556510544      1.8136719521      2.4524819569      0.0540267476      0.1813710867      0.1594997148      0.0546157608
H       2.5569297693     -1.9571597118      0.4039287274      0.0736838972     -0.2255971777     -0.0664303951      0.0547020044
H       3.3626906239     -0.4640085648      2.2389860252      0.2011754672     -0.0784104933      0.1637341546      0.0544813902
P       3.2510939782      1.8593754901     -2.0765634877     -0.0239469278     -0.0675921007      0.1811580449      2.2095454520
F       2.0545678406      2.6635223954     -1.1904073671      0.1155371743      0.2286959503     -0.1427218577     -0.5356409974
F       3.7199769381      1.1168805107     -0.6643887968      0.1097075380      0.0267744254     -0.0505768103     -0.5204079598
F       2.1512405986      0.5959949123     -2.3112774981      0.1154168352     -0.0068534393     -0.2679692914     -0.5354558834
F       4.3730054231      1.0278756014     -2.9083041515      0.1516453700     -0.1249010202     -0.1288783855     -0.4920599845
F       2.6877216052      2.5681672494     -3.4332233622     -0.1048360370      0.0932679023     -0.1777670489     -0.4979628270
F       4.2769415792      3.0879912147     -1.7932757227      0.1386965474      0.1810982250      0.0405713198     -0.4920346550
