42
Properties=species:S:1:pos:R:3:forces:R:3:charge:R:1 energy=-229.19008911876185 homo_lumo=5.539909414317606 dipole="-0.551121203097431 2.444980825832616 -0.9689259541709516" free_energy=-229.19008911876185
N       0.0185023648     -0.6385152648      0.4121314945      0.2560583936      0.1086153979     -0.2283657868     -0.5314606325
C      -0.7777835670     -1.6411043436     -0.3715498591     -0.5180266551     -0.3332936571     -0.1233546425     -0.0161331327
C      -0.5269771526     -0.7549136873      1.8034799023     -0.3271179031     -0.1054946822      0.3985579184     -0.0355054937
C      -2.1855907524     -1.5820826807      0.2088052965      0.1494169318      0.0846354957     -0.0861197489     -0.1408794207
C      -2.0112028370     -1.0807495179      1.6502215929      0.0566434260      0.0742814395     -0.0005976540     -0.1358379813
C       1.4751125947     -0.9946164367      0.3437832757      0.4433234805      0.3810284148      0.4073428702     -0.0761240068
C      -0.2170757402      0.7239767351     -0.1264026411     -0.0190930326      0.0623163518      0.0397868107      0.0830808311
C       2.3906647395     -0.0878732455      1.1597019221     -0.0258906250     -0.3019411736     -0.2932783704     -0.2469842891
C       3.7840699106     -0.7168741986      1.2088885823     -0.3472819851      0.2013299658      0.0646567095     -0.0588263023
H      -0.3302334029     -2.6213757398     -0.1978820156      0.1345607224     -0.0608678866      0.0475195966      0.2544588210
H      -0.7236418935     -1.3961943173     -1.4324039436      0.1183078410      0.0869801107     -0.2736411608      0.0844697042
H      -0.3411233101      0.1701303515      2.3486934942      0.1296934589      0.2151175724      0.0967223403      0.0854869214
H      -0.0027455589     -1.5790570706      2.2863625357      0.0319023279     -0.0657374688     -0.0214244584      0.2565097515
H      -2.6378293018     -2.5745401656      0.1845453586     -0.1096957647     -0.2290720498     -0.0750117891      0.1016544745
H      -2.8202542742     -0.9030141814     -0.3654507277     -0.2066077857      0.1165872303     -0.1557079469      0.0671690968
H      -2.6299151307     -0.2002606271      1.8342121019     -0.1783421264      0.2082545028      0.0673711362      0.0618890033
H      -2.2824645691     -1.8526870942      2.3729138731      0.0187382021     -0.1115634857      0.1923835115      0.1472539785
H       1.7569898858     -0.9882931665     -0.7121867110      0.0248651782     -0.0736418162     -0.2712639769      0.1138673572
H       1.5576795743     -2.0140004270      0.7186566375     -0.0864103170      0.0184647161     -0.0272699456      0.2760736902
H       0.1776311615      0.7764312865     -1.1397060724      0.1015199162     -0.0021226379     -0.2783237882      0.0743809108
H      -1.2861052753      0.9252628411     -0.1343368904     -0.3129264415      0.0366707332      0.0042309237      0.1066952800
H       0.2859946735      1.4529927231      0.5050643281      0.1228757695      0.1703997897      0.1602193144      0.0915106664
H       2.4508148783      0.9093546892      0.7130067052      0.0148545296      0.2874164263     -0.0700270190      0.0793619530
H       2.0051097269      0.0156251663      2.1772764361     -0.0949114979      0.0435935392      0.2529028216      0.1141224717
H       4.4457292113     -0.0980876722      1.8136030237      0.2652211461      0.1729083086      0.1445105503      0.0299891947
H       3.7330156529     -1.7128100585      1.6491509217      0.0396664516     -0.2737996141      0.0665714651      0.0993881202
H       4.2002903393     -0.8004932649      0.2048309597      0.1846284973     -0.0625404017     -0.2893578051      0.0315170671
N       0.3393133274     -3.8709010710      1.5517695007      0.2375145695     -0.2986330375      0.1427758255     -0.9097165574
S       0.1663867065     -4.2046466169      3.1138351622     -0.5597883467      0.0803682147     -0.0845417045      1.6432268478
S       1.6186469702     -4.4547954056      0.7691256915     -0.0648495087      0.2502643828     -0.3519290566      1.5887423005
C       1.5624131482     -3.3829652275      4.0653482170     -0.5383903174     -0.2211973474     -0.6929330035      1.1988228352
C       1.5471816280     -6.3270751596      0.6975774972     -0.1728383184      0.8864952425      0.1920091886      1.2076087290
O      -0.9927431115     -3.4458079832      3.5291173397     -0.7645753019      0.7210239753      0.3938519947     -0.7753689408
O       0.2397650643     -5.6002165823      3.4506488437      0.3336416950     -1.0548706643      0.2620610226     -0.7287261084
O       2.8815111957     -4.1266534835      1.3940694932      0.8492606350     -0.0728229720      0.5368943033     -0.7495842842
O       1.4298351426     -4.0312337331     -0.6043772209     -0.2283314643      0.0354997720     -1.0463523851     -0.7723357379
F       1.1256992299     -3.0631998458      5.2721980719     -0.4775708100      0.2680968632      1.3296924510     -0.4340813454
F       1.9084540756     -2.2469750726      3.4426109351      0.3850153965      1.1083252345     -0.4645493967     -0.4732525635
F       2.6221364801     -4.1500434541      4.1778394327      1.0958234718     -0.8426025438      0.1950014582     -0.4244693144
F       2.1696825230     -6.7201678825     -0.4010758535      0.7438198046     -0.3910632417     -1.2164745617     -0.4327646904
F       0.2882659684     -6.7227750591      0.6425082179     -1.3989386656     -0.4791789463     -0.0828390828     -0.4318254755
F       2.1392587829     -6.8592881639      1.7435919936      0.6942350221     -0.6382300531      1.1383010712     -0.4234037288
