42
Properties=species:S:1:pos:R:3:forces:R:3:charge:R:1 energy=-227.44431225872592 homo_lumo=3.4860784875864685 dipole="-1.0204384102064479 -4.438442558659642 0.8400964201112349" free_energy=-227.44431225872592
N      -0.3925517924      0.4999657390     -0.0759045848      0.2969050699      0.2534119370     -0.0953152658     -0.5499017624
C      -1.4034795312      0.7278421746     -1.1351789660     -1.1742034296      0.5102160947     -1.8816394641     -0.0164851916
C      -0.8368420876     -0.7545977021      0.5703395551     -0.1231037003     -1.9204680353      0.9418557576     -0.0080274532
C      -2.7247644739      0.1403018513     -0.6461947290     -0.6872329565      0.4392678888     -0.1588416758     -0.1548201315
C      -2.3580750279     -0.7815976018      0.5053752095     -0.3796391986     -0.1447086610      0.7194423409     -0.1388173283
C       0.9641673700      0.3695436934     -0.6871287157      1.7994518038     -0.0560401346     -0.2573972989     -0.0473543357
C      -0.4353815885      1.6280656457      0.8926701999     -0.0765080533      1.1756015321      0.9933314087     -0.0117979318
C       2.0949289011      0.1033057801      0.3318975603     -0.2754248847      0.1784006373      0.1844698835     -0.2542559924
C       3.4173806782     -0.1760516897     -0.3772044751      0.0863807943     -0.0009653944     -0.2217360251     -0.0910918991
H      -1.1287838636      0.1983289758     -2.0773735010      0.4147748519      0.1861172321      0.5679932464      0.1393325585
H      -1.5145676387      1.8062274470     -1.3914039401      0.4436038758     -0.3772856552      0.2445321561      0.1859270662
H      -0.4849023325     -0.8414700636      1.6230573776      0.1350671722      0.2402779864     -0.5686687400      0.1360692927
H      -0.4556714676     -1.6429308129      0.0144271157      0.1917317872      0.6369722721      0.0073422785      0.1420958191
H      -3.2323821545     -0.4230806760     -1.4598058159      0.1439571048      0.4158515217      0.2296710564      0.1089950398
H      -3.3984865797      0.9508364864     -0.2912247063      0.0993513981     -0.3392962878     -0.2660409192      0.1080964788
H      -2.7830109973     -0.3904010121      1.4561065484      0.0438269461     -0.3102664549     -0.2928424355      0.1025476654
H      -2.7348003103     -1.8139593086      0.3361762345      0.1955563242      0.3602757797      0.2774379310      0.1061823171
H       1.2109720361      1.2968005985     -1.2532731029     -0.3306871067     -0.0928405975      0.3277896984      0.2037973339
H       0.9679952455     -0.4623492992     -1.4290692449     -0.4350196235      0.2040458073      0.3409690235      0.1270283833
H      -0.0512907243      2.5632310370      0.4296527210     -0.0041734456     -0.3808314450     -0.0126228475      0.1993077386
H      -1.4733471994      1.8261407961      1.2407324600      0.2856287367     -0.3086325822     -0.3744994046      0.1218090579
H       0.1680510645      1.4108502832      1.7997310836     -0.0968625311     -0.1127586207     -0.5382824017      0.1066545038
H       2.2415996931      0.9885989193      0.9850781752     -0.1536517605     -0.1733673894     -0.1607061571      0.1511770726
H       1.8485829505     -0.7719203998      0.9686444094     -0.0588393219      0.1968091671     -0.0787427209      0.1062461618
H       4.2151748454     -0.3442040181      0.3768457650     -0.2258931182      0.0629745213     -0.3074673263      0.0657627762
H       3.3323280314     -1.0849913724     -1.0101785404      0.1360773172      0.2510906048      0.1195204216      0.0366468041
H       3.7050618010      0.6888342112     -1.0123370611     -0.0152233537     -0.2801587887      0.1896018647      0.0850805145
N       0.6409702988      5.4144829848     -0.2275723676      0.0229009655     -0.5014131735      0.4309487864     -0.8846685086
S      -0.4605337948      6.3042432894     -1.0534679690      3.7267315394      6.3244585388      0.9705678836      1.5737117205
S       2.0488520697      4.9061780561     -0.8954644454     -3.5414619755     -4.6132742873     -3.1576960091      1.5664330183
C      -1.6627210869      5.2187284411     -1.7936901636     -0.9760713035     -0.7998872820     -1.0180503119      1.1488865514
C       3.3114175203      6.1333168466     -0.6241451701      1.3163287303      1.8824529918      0.3242067215      1.1643095156
O      -1.1649735706      7.2268487377     -0.0991392012      0.0240387196     -2.5953303631     -0.9048761254     -0.7153126694
O       0.2095806474      7.1117628545     -2.1304279718     -1.4610089818     -1.9746492413      0.5450136525     -0.7171852216
O       1.8810399956      4.6809284514     -2.3725919747      0.9650094587      1.0845134268      1.6456790208     -0.7299729859
O       2.4748574801      3.6249606278     -0.2366852464     -0.0303317936      1.8639131176      0.4969761712     -0.7840152121
F      -2.6271937273      5.9691301960     -2.4388788563      0.7661566261     -0.9781365823      0.5757478216     -0.4210868365
F      -2.2603812123      4.4524217877     -0.8113534643      0.0199694281      0.0314452312     -0.7159918004     -0.4563680026
F      -1.0425023910      4.3889903796     -2.7078704277     -0.8859604873      0.3379943157      0.6714280854     -0.4348707697
F       4.5184567811      5.6695097457     -1.1111628107     -0.9307867428      0.5003618419      0.4794803012     -0.4279957324
F       3.4299942495      6.3820325745      0.7299977045      0.1536390496     -0.0413719545     -1.0409983031     -0.4288703457
F       2.9760410341      7.3041888570     -1.2762530450      0.5949960691     -1.1347695153      0.7684097209     -0.4131990797
