28
Properties=species:S:1:pos:R:3:forces:R:3:charge:R:1 energy=-148.8594470190229 homo_lumo=3.5109612048578125 dipole="-0.6385622201655797 -1.9635597483300196 1.1300926146517576" free_energy=-148.8594470190229
N      -0.2674750657      0.2413889309     -0.0210570849     -0.0053631331     -0.0144074914      0.0065870149     -0.5077911168
C      -1.2492867576      0.4626135709     -1.1610450557     -0.0058962317      0.0029108266     -0.0085163964      0.0042721469
C      -0.8113535178     -0.9878971846      0.6568696504     -0.0104605206     -0.0019903361      0.0046864404      0.0188503280
C      -2.6143145106      0.1619076726     -0.5489550381      0.0037778502     -0.0012810673      0.0029434740     -0.1580849339
C      -2.3360111794     -0.8240116588      0.6209511800     -0.0006213850      0.0104145021     -0.0054428126     -0.1434537547
C       1.1220710595      0.0531821881     -0.5926113107      0.0185239890     -0.0047226466      0.0050228473     -0.0257532744
C      -0.3040556236      1.4321071198      0.8966286253      0.0050497232     -0.0033774125      0.0017858713      0.0449902347
C       2.2006966354     -0.2316105415      0.4368083066      0.0087431804      0.0024633727     -0.0133331729     -0.2410231788
C       3.5313874685     -0.4753259012     -0.2802369643     -0.0106810940     -0.0017730160      0.0112802420     -0.0662707820
H      -0.9828413450     -0.2793114823     -1.9293851072     -0.0003634301     -0.0000244029      0.0021710430      0.1123068858
H      -1.0533510440      1.4817135048     -1.5566044177     -0.0083955896      0.0016615616     -0.0145815232      0.1641412787
H      -0.3850969136     -1.0720586250      1.6645292414     -0.0008370455     -0.0095238777     -0.0006364303      0.1123903358
H      -0.4831074042     -1.8451637190      0.0496411853     -0.0003324360     -0.0036389717      0.0035931699      0.1221875885
H      -3.2826256767     -0.2721101538     -1.3063872901      0.0099957555      0.0060487176      0.0053100281      0.0984420493
H      -3.0957092760      1.0810932118     -0.1839940415      0.0073390292      0.0035740418      0.0014324417      0.0896966766
H      -2.7134549896     -0.4246325671      1.5741134375      0.0068952118     -0.0001186065     -0.0098408139      0.0862317554
H      -2.8142146200     -1.8024644902      0.4661713831      0.0008537873      0.0158344473      0.0031043554      0.0960239364
H       1.3121052365      1.0006555425     -1.1497187406      0.0024375155     -0.0014134133     -0.0069297156      0.2000241892
H       1.0331801348     -0.7842240856     -1.3049594378      0.0076324408      0.0056553387      0.0054911248      0.0951029681
H       0.0586798891      2.2941837583      0.2918574375     -0.0023579761      0.0054984375     -0.0043953896      0.1404218449
H      -1.3386219348      1.5904576086      1.2233791441      0.0096353283     -0.0149994478      0.0011442125      0.0868890052
H       0.3353112912      1.2256201377      1.7626968449     -0.0088275993     -0.0072900107      0.0008842260      0.0586899316
H       2.3152843458      0.6322816388      1.1110128342      0.0009497082      0.0031641635     -0.0000817932      0.1126956584
H       1.9462106454     -1.1115387148      1.0549679965      0.0044963576      0.0113892872     -0.0037382447      0.0846125599
H       4.3360233009     -0.6704835766      0.4437214098     -0.0122083640      0.0090061343     -0.0012131063      0.0447029487
H       3.4659143833     -1.3435938274     -0.9552239895     -0.0026526330      0.0089360144      0.0016627925      0.0351421288
H       3.8127985350      0.4036724773     -0.8797771353     -0.0105027947     -0.0052462417      0.0001227801      0.0661820973
Cl      0.6283871605      3.1244286270     -1.7400632630     -0.0068296440     -0.0167499033      0.0114873350     -0.7316195077
