46
Properties=species:S:1:pos:R:3:forces:R:3:charge:R:1 energy=-247.33084489885746 homo_lumo=6.272664126190006 dipole="-1.3971187167558468 -0.857907776921469 2.7963267310653563" free_energy=-247.33084489885746
N      -0.5538406233      0.4913052801     -0.2522430428     -0.1457087349      0.2226067184      0.0485644190     -0.4978121539
C      -1.0237668591     -0.1498198676     -1.5291642132     -0.2611253614     -0.8006406235     -0.1131656009     -0.0459725773
C      -1.7480920870      0.7823563951      0.6071092152     -0.3360375313     -0.4017481230      0.3672614912     -0.0054446517
C       0.4071451689     -0.3861358089      0.4997669482      0.4842299633     -0.2216823773     -0.2756205274     -0.0318627331
C       0.0931862976      1.7988365666     -0.6437057040      0.4474711381      0.3206346118      0.5411517956     -0.0923770993
C      -1.8451888580     -1.4077855861     -1.2964709718     -0.2387859527      0.4835802691      0.2371851185     -0.1604419947
C      -2.6170243730     -0.4432273373      0.8741851327      0.0060524145      0.1713482495     -0.4583823402     -0.1519436026
C      -3.0650248220     -1.0997908661     -0.4308887629      0.4245384128     -0.1252236592      0.2239778808     -0.1527827225
C       1.6945830568     -0.7211784879     -0.2502096796     -0.2678949379     -0.1374004367      0.7044436410     -0.2293710185
C       0.6965795093      2.6099782329      0.4978256819     -0.1571267342     -0.0378901741     -0.3731425589     -0.2503590336
C       2.6076125686     -1.5593326101      0.6519018479      0.0281086142      0.1818776388     -0.5264199109     -0.1935049647
C       1.2647865948      3.9064508802     -0.0836826424     -0.0523427582     -0.3238207180      0.2332614283     -0.0477530060
C       3.8972032399     -1.9262175978     -0.0798762704     -0.3237288514      0.0382821522      0.3500768061     -0.0481861913
H      -0.1463077783     -0.3600744739     -2.1385551702      0.1619735702      0.1792642037     -0.1362990827      0.2265833697
H      -1.6261269082      0.5987794568     -2.0483925222     -0.0176569536      0.1811714910     -0.0895761154      0.1515283771
H      -2.3333554324      1.5443669103      0.0854448435     -0.0684191242      0.1959264474     -0.1652645798      0.1271986615
H      -1.3883241073      1.1975994766      1.5504888879      0.1210737517      0.1602506337      0.1381965242      0.1341702973
H      -0.1175169843     -1.3105515941      0.7483798131     -0.1268187971     -0.1145833518      0.0597045779      0.1605257865
H       0.6385106735      0.1286244940      1.4357375054     -0.0205569469      0.1437834025      0.2025038821      0.1293913232
H      -0.6767273274      2.3832892406     -1.1520564210     -0.1480198847      0.0355028516     -0.1747068019      0.1411123061
H       0.8647821372      1.5623515176     -1.3737699549     -0.0035904895     -0.0218199302     -0.1073687965      0.2878597692
H      -1.2403463857     -2.1919659293     -0.8329296645      0.1619322695     -0.2678642512      0.0568574588      0.0890152448
H      -2.1654705714     -1.7727068787     -2.2752835826      0.0362616951     -0.1319912846     -0.2881414016      0.1083171528
H      -3.4897262907     -0.1042166844      1.4390690638     -0.1686355579      0.0791408184      0.2560457842      0.1023924146
H      -2.0814718566     -1.1657554275      1.4959089000      0.0898310977     -0.1698365724      0.2191892084      0.0908651700
H      -3.7361091886     -0.4230478260     -0.9691221544     -0.2078986787      0.1668291493     -0.1637770896      0.0864185045
H      -3.6122900073     -2.0192524192     -0.2106958459     -0.2512498853     -0.2111670334      0.0285189782      0.0805184815
H       2.2188798028      0.1884432392     -0.5459989434      0.1266125493      0.1747522929     -0.1526338519      0.1547352069
H       1.4696031788     -1.2841579476     -1.1578411342      0.0112438133     -0.0792517454     -0.2393241376      0.1419630178
H      -0.0554269732      2.8483923694      1.2561679736     -0.1470436715      0.0589802163      0.2436182320      0.0809144749
H       1.5047152851      2.0546048176      0.9812658448      0.2025476435     -0.1588991627      0.1537333585      0.0971205768
H       2.0848505133     -2.4724419807      0.9573157627     -0.1330041432     -0.2306200335      0.1524830821      0.0726426914
H       2.8477187812     -0.9915266800      1.5575431492      0.0334997115      0.1061052164      0.2874831832      0.0772277244
H       1.7467156467      4.4840195216      0.7042644984      0.1288370200      0.2310169693      0.2157802359      0.0294286775
H       1.9978668038      3.6806686604     -0.8574118049      0.1581710422      0.0195641112     -0.2326002630      0.0887815152
H       0.4691529133      4.5072035032     -0.5241391490     -0.1823487665      0.2177997406     -0.1731153469      0.0340087250
H       4.4365532512     -1.0257578839     -0.3741950657      0.1886100621      0.2332875950     -0.1349104287      0.0453063297
H       3.6745297471     -2.5058217506     -0.9759579442     -0.0115389911     -0.1576541048     -0.2962859457      0.0420661777
H       4.5376345804     -2.5208461530      0.5712362126      0.2762597840     -0.1941297860      0.1336386639      0.0328054351
P       1.4030033635      1.5178713638     -4.0888850806     -0.2351965743     -0.0465779954      0.1359565252      2.1900763769
F       1.1187599961      2.7163964251     -5.1462069955     -0.0255151548      0.2073933142     -0.1825172761     -0.4930415643
F       2.9317664458      1.3301875317     -4.6080524716      0.2462094642     -0.0307576769     -0.0778445904     -0.4940806498
F       1.9101727916      2.6156393660     -2.9443317106      0.1139584582      0.0865801582      0.0018801990     -0.5268993714
F       1.6548839839      0.2963469550     -2.9381264718      0.1114919817      0.0116923963     -0.1679497912     -0.5413450598
F      -0.1578472752      1.6806688443     -3.4776778403      0.0375193645      0.1283995482     -0.3011978434     -0.5376852050
F       0.8552097130      0.3867631270     -5.1316975618     -0.0661893402     -0.1722111561     -0.1612681932     -0.5021101886
