46
Properties=species:S:1:pos:R:3:forces:R:3:charge:R:1 energy=-247.37340239827603 homo_lumo=6.173312824951446 dipole="0.5482932686555159 3.2928092586016047 -1.0364316406344989" free_energy=-247.37340239827603
N      -0.9604890561      0.2315899764     -0.1128273120      0.0094008696      0.2741125746     -0.1696797111     -0.4958856893
C      -1.5595623542     -0.4727121934     -1.3027546329     -0.4498985230     -0.5418051635     -0.0824262694     -0.0099453437
C      -2.0667821357      0.8802334469      0.6741530710     -0.4859692148     -0.1926948760      0.3536708164     -0.0106014141
C      -0.1946952072     -0.7140547508      0.7780473197      0.4255947921     -0.3187872984     -0.2021811697     -0.0826933736
C      -0.0690533234      1.3110209297     -0.6648887232      0.3883562144      0.3003333609      0.4442817608     -0.0110852444
C      -2.6657163829     -1.4537890161     -0.9416322496     -0.0034995948      0.4889798665      0.1352257302     -0.2129098269
C      -3.1723815730     -0.0874537560      1.0796432443      0.1086198377      0.1460560401     -0.4070972625     -0.1620695025
C      -3.7734541513     -0.7757727816     -0.1421574403      0.4043040777     -0.0854198408      0.1417188100     -0.1568917726
C       1.0215029560     -1.3719751987      0.1322807648     -0.2493939587      0.1493799428      0.4906880096     -0.2236278137
C       0.7261511869      2.1004296372      0.3743207349     -0.0661459958     -0.0171404709     -0.4720461730     -0.2507467297
C       1.7820193501     -2.1652127437      1.2043669317      0.0684556390     -0.0118059307     -0.5263139512     -0.2163462622
C       1.5296748347      3.1934469292     -0.3305146696     -0.2345142488     -0.2852433907      0.2241664506     -0.0454524489
C       2.9582315133     -2.9194373818      0.5906695417     -0.2725931113      0.2487500284      0.2533886182     -0.0482322032
H      -0.7466566358     -0.9850771017     -1.8199710747      0.2373274831     -0.0371076949     -0.0978199927      0.1402266087
H      -1.9526814846      0.3111259271     -1.9580727703     -0.0262575562      0.2740060161     -0.1030238883      0.1107653981
H      -2.4789131406      1.6739454549      0.0430517570     -0.0297103787      0.1840927051     -0.2052296495      0.1133588512
H      -1.6181834534      1.3317305986      1.5609982894      0.1643443857      0.1153786369      0.1264713852      0.1330093060
H      -0.8885739072     -1.4880897186      1.1005541273     -0.1446327553     -0.1461392109      0.0912468214      0.2888321109
H       0.1055131429     -0.1389449873      1.6572371096      0.0093132730      0.1903761424      0.1729444089      0.1150082577
H      -0.7138942037      1.9927066137     -1.2267298222     -0.1863517056      0.0988186136     -0.1404946298      0.1279523587
H       0.6149374807      0.8351665700     -1.3713597367      0.0989031585     -0.1386188468     -0.1584406933      0.1429339171
H      -2.2640255962     -2.2949626718     -0.3797451966      0.0630373689     -0.1821214258     -0.0265578902      0.2502381892
H      -3.0677995876     -1.8429295938     -1.8805924268     -0.0202608295     -0.1932616616     -0.2666390271      0.0809447648
H      -3.9370590083      0.4982484236      1.5970270233     -0.1507025979      0.1872213292      0.2125003621      0.0862777226
H      -2.7919248507     -0.8334558282      1.7786637643      0.0295609695     -0.1678163361      0.1762525889      0.1579318546
H      -4.2954338773     -0.0421508357     -0.7668607033     -0.1915143102      0.2280794807     -0.1622523964      0.0574063244
H      -4.4940040716     -1.5292920751      0.1823044436     -0.2199476267     -0.1824450451      0.0488856150      0.1046546259
H       1.6925662257     -0.6294161471     -0.3094370365      0.2382503892      0.2044712389     -0.1122670780      0.0896458856
H       0.6996318395     -2.0586366366     -0.6539966189     -0.0435503618     -0.1891520377     -0.1569730630      0.1334186597
H       0.0548552295      2.5615720582      1.1029585667     -0.1479216594      0.0875743193      0.2016524626      0.1096925767
H       1.4143280231      1.4442890154      0.9113254422      0.1332118252     -0.1929138549      0.1564075410      0.1273018945
H       1.1013916487     -2.8786286807      1.6748393050     -0.1605333911     -0.1057080840      0.1241881926      0.1848688497
H       2.1440488646     -1.4770134404      1.9761613492      0.0828063377      0.1961650114      0.2322333441      0.0581577299
H       2.0991031211      3.7597457356      0.4053657863      0.2076947466      0.2216927016      0.1432103500      0.0508352351
H       2.2249675677      2.7553112769     -1.0470266910      0.2425383448     -0.0709741433     -0.2344928056      0.0421055690
H       0.8664096021      3.8779500317     -0.8602775696     -0.1403758982      0.2542588822     -0.1766435538      0.0349400835
H       3.6567610674     -2.2292646941      0.1136109280      0.2616897920      0.1668382236     -0.1598190543      0.0083706234
H       2.6036146680     -3.6300540628     -0.1563351677     -0.0909138905     -0.2476558247     -0.2134206404      0.0422106633
H       3.4875984581     -3.4694297233      1.3683142008      0.2302292396     -0.2182673280      0.1609624624      0.0366078811
P      -1.7143584259     -4.3810876659      1.4219408974      0.0158798936      0.0660831712     -0.0976452449      2.2028149666
F      -2.1330211367     -2.8356364179      1.9651688931     -0.0131867911     -0.0123442429      0.1448157116     -0.5433546852
F      -2.6477754958     -5.0369114302      2.5785870844     -0.1403164536     -0.0882130105      0.1840858138     -0.4937562029
F      -2.9934704740     -4.3104813068      0.3814102202     -0.1345790337     -0.0396800009     -0.0826430268     -0.5163427051
F      -1.2814077144     -5.8389817599      0.8497209527      0.0682013626     -0.2222142004     -0.0869517075     -0.4946411902
F      -0.7647119256     -3.6369940780      0.2400591552     -0.0237436086     -0.1642008578     -0.0354249247     -0.5416327436
F      -0.4176301193     -4.3453338616      2.4330059830      0.1387934949     -0.0309375088      0.1574865478     -0.5142957564
