46
Properties=species:S:1:pos:R:3:forces:R:3:charge:R:1 energy=-245.30667507742723 homo_lumo=3.222290455971867 dipole="-7.765341704188364 2.2200221846920822 1.09880751664733" free_energy=-245.30667507742723
N      -0.7272838323      0.3218960108     -0.1581880313     -0.2162143708      0.3461699817     -0.1710952694     -0.5188414079
C      -1.2907036393     -0.4507133375     -1.3123625771     -0.7593202808     -1.1649096701     -1.2267431931     -0.0324404448
C      -1.8594744915      0.7463877188      0.7291183217     -1.3792283309      0.1747763144      1.2047097865     -0.0347275033
C       0.2561649452     -0.4933776585      0.6377817626      1.3825924503     -0.8914230103      0.4389878990     -0.0658413555
C      -0.0857695730      1.5519689557     -0.7375743770      0.9556580312      1.4826050185     -0.1963846489     -0.0467616939
C      -2.1446914512     -1.6614898306     -0.8994099988      0.0279690495      0.0516551520      0.0679754912     -0.1808818087
C      -2.7615670061     -0.4155511475      1.1941623486      0.0548389652     -0.1118386133     -0.0736664326     -0.1715194621
C      -3.2873283556     -1.2225940052      0.0104184751     -0.1929760405     -0.2428503726      0.1223676573     -0.1679480081
C       1.5360095383     -0.9281041809     -0.1167270838     -0.3981926643      0.2312684364      0.1264336107     -0.2297018229
C       0.6466420753      2.4684837401      0.2733913095     -0.0813426459     -0.3092581968      0.1086579499     -0.2650250712
C       2.4573496639     -1.7333804356      0.8091340706     -0.0520135211     -0.0547846566      0.1079289800     -0.1964520790
C       1.2200482305      3.6971454220     -0.4280711012     -0.0071739565      0.0931605860     -0.2279795435     -0.0930449270
C       3.7290471428     -2.1631758092      0.0860945619      0.0599530411     -0.0048947125      0.0040668118     -0.1097484930
H      -0.4929757106     -0.7929978419     -2.0032925996      0.1159915107      0.3287188089      0.5084029818      0.1656376416
H      -1.9449678481      0.2097507116     -1.9295045024      0.3374843239      0.1544471007      0.5240863805      0.1487410320
H      -2.5105342054      1.4842711518      0.2052747080      0.5190106484     -0.2651237245     -0.1687339517      0.1429279883
H      -1.4824344372      1.2479670543      1.6460261063      0.2941527695     -0.1153535242     -0.5435973483      0.1598393755
H      -0.2155384759     -1.4169065866      1.0244135405     -0.2916757063      0.3490106542     -0.3293531035      0.1853262946
H       0.5590192978      0.0607442247      1.5530791256     -0.3051603746      0.1947786611     -0.4566067242      0.1561625817
H      -0.8551232262      2.1731254808     -1.2525916022     -0.0567003363     -0.5243782996      0.3077135180      0.1505027055
H       0.6344670960      1.2726023365     -1.5381246585     -0.2718920092     -0.3114651259      0.3798210812      0.1684116680
H      -1.5291828285     -2.4413929525     -0.4065432817     -0.0663592281      0.1653079588     -0.1170078103      0.1208029463
H      -2.5757923675     -2.1260198554     -1.8124353844      0.3301068872      0.1740229195      0.1148724419      0.1263440063
H      -3.6285681264      0.0025461992      1.7512544687      0.4047393647      0.0771403750     -0.0638313978      0.1261452660
H      -2.2215982685     -1.0796829277      1.9009653795     -0.0766685784      0.1872965675     -0.1381577598      0.1138106543
H      -4.0045820728     -0.6011544314     -0.5701335375      0.1085313968     -0.1627803431      0.1132901650      0.0968966357
H      -3.8302260127     -2.1179800475      0.3830036294      0.0248983553      0.3020267197     -0.1539434134      0.1078610820
H       2.1000670874     -0.0451980665     -0.4803102067     -0.1294661991     -0.2027888575     -0.0223933606      0.1374943911
H       1.2768772809     -1.5693744768     -0.9832794055      0.0655753155      0.1941494131      0.0746991994      0.1254351543
H      -0.0459490494      2.8237980290      1.0627921085      0.1089850715     -0.2287388728     -0.0872863735      0.1187947117
H       1.4919136436      1.9360237719      0.7552196270     -0.2946004897     -0.0130481762     -0.0411405350      0.1428781103
H       1.9276603946     -2.6417193991      1.1711212710     -0.0099944191      0.2582112320      0.0581614550      0.0819295710
H       2.7391820128     -1.1160948529      1.6899010001     -0.1838306479     -0.1326178205     -0.0994047713      0.0935753925
H       1.7511502955      4.3341873285      0.3106072197     -0.1624153630     -0.1885067894     -0.3105930109      0.0792422021
H       1.9415246809      3.3908688444     -1.2153352580     -0.1839953697      0.2199111659      0.1976527839      0.0704043232
H       0.4045012164      4.2940267287     -0.8891027130      0.3193414520     -0.0761532649      0.0618189672      0.0479919202
H       4.2822332082     -1.2720999925     -0.2779230362      0.0531105999     -0.4286616776      0.0494282975      0.0908294874
H       3.4812273528     -2.8187530386     -0.7760206505      0.2447219137      0.2009973821      0.2311131647      0.0459015137
H       4.3816555455     -2.7259858977      0.7860677273     -0.0590246391      0.2046669026     -0.4179080839      0.0858955307
P       7.6998709832     -2.1779336936     -1.2574394323      0.8370170646     -0.1212678184     -0.1837520290      2.1068802548
F       9.1223402555     -1.2562071024     -1.5349914670     -1.5159861043     -0.1599933155      0.5134420939     -0.5073884021
F       6.8654865922     -0.7890757163     -0.6880664342      0.1493658513     -1.0038470702     -0.4392178836     -0.5238166828
F       7.0755852121     -1.7888134248     -2.8097778880      0.8571286680     -0.5068739873      1.0499490776     -0.5141525451
F       6.4048640898     -3.2958019388     -1.1077640031      0.6222275795      1.1627125571      0.1553535367     -0.5196842329
F       8.6843298846     -3.4754935448     -1.8034930384     -1.2629867996      0.7380253348      0.4440672642     -0.5068518459
F       8.0729567000     -2.4489372355      0.3973425296      0.0838177653     -0.0695013421     -1.4962039507     -0.5118346549
