43
Properties=species:S:1:pos:R:3:forces:R:3:charge:R:1 energy=-238.34767429992897 homo_lumo=3.0716832239818372 dipole="1.350318707465273 1.4892666468650697 -0.8979429232466454" free_energy=-238.34767429992897
N       2.2651429980      0.2577955284      0.1009376821      0.0019420379      0.0020110640      0.0015749218     -0.5111672511
C       2.5628505802     -0.5321770409      1.3698522512      0.0138234396      0.0033313137     -0.0067614022     -0.0436120123
C       3.3087171829     -0.2826647663     -0.8495680936      0.0034859877     -0.0027058141      0.0130593649      0.0183250626
C       0.8777106442     -0.0364199015     -0.4492784146     -0.0063898464      0.0101590922      0.0142054047     -0.0285940901
C       4.0878115392     -0.5646372418      1.4502646718     -0.0083506026      0.0050628698     -0.0035231235     -0.1444154096
C       4.5828364251     -0.4279431132     -0.0155460791     -0.0028258425      0.0055183743      0.0044090294     -0.1516499973
C       2.4621755280      1.7185218370      0.3215579162      0.0110768673     -0.0092006011     -0.0131340492      0.0776864947
C      -0.2517947829      0.4386746602      0.4430308606      0.0029231487     -0.0035812619     -0.0116335836     -0.2178569112
C      -1.5696942598     -0.2135541908      0.0061947397      0.0015689638     -0.0011354736      0.0171680724     -0.1572141117
C      -2.6337927126     -0.0990070680      1.0955440318     -0.0003480765     -0.0010498099     -0.0052188742     -0.1779037089
C      -3.9288136620     -0.8280390468      0.7504156704      0.0000847101      0.0013871146     -0.0047846493     -0.2091977733
C      -4.9433268944     -0.7695623196      1.8896677243     -0.0058967729     -0.0036773735      0.0004966609     -0.0644109230
H       2.0941779459     -1.5272269095      1.1970322909      0.0099484814      0.0028881141      0.0012146925      0.2445265522
H       2.0461912531     -0.0742479623      2.2207017051      0.0049230909      0.0102068280      0.0003282876      0.1120215014
H       3.3901247086      0.3875592724     -1.7168493832     -0.0006094722     -0.0127801677     -0.0039832015      0.0970390015
H       2.9252591393     -1.2612327290     -1.1733432034      0.0068433287     -0.0025567946      0.0143689251      0.1519338695
H       0.8321377083     -1.1400378268     -0.4906718732      0.0054080125     -0.0052920498     -0.0025032603      0.1946004891
H       0.8509235226      0.4100739389     -1.4583068178      0.0012232629     -0.0025833937     -0.0020094138      0.0799805174
H       4.4098414237     -1.5103351478      1.9091695772     -0.0087112238     -0.0065178489     -0.0068645211      0.1040712591
H       4.4887073367      0.2497782161      2.0741369306      0.0009758312     -0.0030227972     -0.0090689069      0.0705018411
H       5.2423709357      0.4451702491     -0.1360368331     -0.0102177416     -0.0052218544      0.0053698296      0.0759588455
H       5.1499207905     -1.3081728319     -0.3499028714     -0.0096058502     -0.0018631341      0.0054583480      0.1039800094
H       1.7697789331      2.0468656992      1.1043593203     -0.0017399770      0.0074913046      0.0007186482      0.1035882215
H       3.4956607206      1.9007923352      0.6391758227     -0.0047236281      0.0073538573     -0.0051316188      0.1059847671
H       2.2532708232      2.2529232766     -0.6152727852      0.0009725879     -0.0015615447     -0.0015903791      0.0693885007
H      -0.0521175063      0.0617603184      1.4623308031      0.0027705805      0.0005316999      0.0197660555      0.1898939358
H      -0.3548386692      1.5382060175      0.4481263731      0.0006091064     -0.0033314771      0.0069224157      0.0472026827
H      -1.3756118532     -1.2850128524     -0.1763663097     -0.0013395492     -0.0078177028     -0.0070419549      0.1359508888
H      -1.9330805133      0.2196985408     -0.9449551451      0.0051485338      0.0107169337      0.0001103410      0.0528746574
H      -2.8539325626      0.9660958482      1.3041225421      0.0039141225      0.0059892867     -0.0062467903      0.0591359025
H      -2.2081331330     -0.5326388778      2.0188451100      0.0004097059      0.0006232880      0.0098243203      0.1399309128
H      -4.3691424010     -0.3999110663     -0.1699140669      0.0023356756      0.0049997959      0.0006747558      0.0648946620
H      -3.6916181275     -1.8828517098      0.5202757883     -0.0013378407     -0.0043104787      0.0030112840      0.1009387338
H      -5.2022056212      0.2745578018      2.1310230298     -0.0115065005      0.0006719190     -0.0014284200      0.0244406254
H      -5.8734156624     -1.3006886743      1.6356817788     -0.0070153729     -0.0019676149      0.0014239900      0.0262027309
H      -4.5252854681     -1.2276602496      2.8006469383     -0.0096858282     -0.0018938290      0.0003223851      0.0421472884
C      -0.9230763761     -3.9063048964      2.0373253548      0.0013722080     -0.0015545254     -0.0079968504     -0.1038698042
C       0.0374167473     -2.7423965500      1.7527616607     -0.0061121991     -0.0133896861      0.0016532810      0.8831589465
O      -0.0037115433     -1.7665577037      2.5538049985      0.0043011072      0.0060885756      0.0156654111     -0.8261931953
O       0.7778162098     -2.8533442235      0.7132574244      0.0212996588      0.0037183497     -0.0171361664     -0.8485072100
H      -0.9394344466     -4.1268220704      3.1150029474     -0.0059666041      0.0029378584     -0.0053848609      0.0332604618
H      -1.9444939975     -3.6017376682      1.7549987120     -0.0018916551      0.0063711092     -0.0057900667      0.0543828837
H      -0.6535024917     -4.8049007703      1.4660803660     -0.0030858657     -0.0010435153     -0.0105143316      0.0205901525
