32
Properties=species:S:1:pos:R:3:forces:R:3:charge:R:1 energy=-185.60835467134268 homo_lumo=1.620806916724105 dipole="-2.74356593918471 -0.2637048088337287 0.4197720566873186" free_energy=-185.60835467134268
N       0.2274647015     -0.7055212847      0.1838215122     -0.0111201624     -0.0068515293      0.0018301435     -0.5173945314
N       1.9744495197      0.3371310921      0.9420659331      0.0033323170      0.0091218534      0.0093335086     -0.5089830960
C      -1.1602889465     -1.1359000720      0.0131897050      0.0030462527     -0.0008909657     -0.0020614151      0.0009149451
C      -1.8957716276     -0.2722394096     -1.0107945356      0.0009606315     -0.0008408193      0.0034236813     -0.2256163213
C       0.6907941697      0.0485852854      1.1939363117     -0.0038093245     -0.0013733820      0.0050298445      0.5599863013
C       1.2524463840     -0.8791631678     -0.7309231423     -0.0011662864      0.0019791962     -0.0024600968      0.1608079096
C       2.8284094248      1.2008075430      1.7763990090     -0.0022312737     -0.0027749983      0.0017473818     -0.0950258478
C       2.3615807773     -0.2261755578     -0.2595193848     -0.0039590339      0.0067292961     -0.0006332755      0.1511486114
C      -1.9782766735      1.1955073867     -0.6040386608      0.0048799120     -0.0083257009     -0.0019705791     -0.0946413359
C       2.5580647118      2.6643056351      1.4680074736      0.0008689865      0.0067944757     -0.0047269246     -0.0880350430
H      -1.6451811048     -1.0716524760      0.9995383669     -0.0043017545     -0.0083610297      0.0001001668      0.1081874651
H      -1.1468326269     -2.1949780215     -0.2867057448     -0.0003367049     -0.0042802244     -0.0080558121      0.1168411509
H      -1.3917963165     -0.3673758578     -1.9879386669      0.0007201980     -0.0043870891     -0.0013318313      0.1150789994
H      -2.9068492671     -0.6968471457     -1.1337544663     -0.0023041701     -0.0007129261     -0.0006931910      0.1021606627
H       0.1197656362      0.3675490795      2.0562019465     -0.0038634417     -0.0077650912      0.0073306444      0.0805163416
H       1.1125682031     -1.4662347595     -1.6314075311     -0.0030138884      0.0069016522      0.0009137607      0.0340380688
H       2.6189012896      0.9476219097      2.8273780163     -0.0029277340      0.0057238508      0.0031124249      0.0690189187
H       3.8858036698      0.9427290712      1.5088346230     -0.0039460451     -0.0012850851      0.0045782244      0.2286467654
H       3.4375001334     -0.0916829916     -0.6683968563     -0.0051356934      0.0116857707      0.0005771415      0.1920051942
H      -0.9753949912      1.6371082987     -0.4958489645      0.0065369333     -0.0056917552     -0.0059631234      0.0842399086
H      -2.5138172139      1.3134667826      0.3522450673      0.0079236282     -0.0027519198     -0.0000239991      0.0352603563
H      -2.5168702281      1.7807747517     -1.3634591261      0.0027155527     -0.0028964627     -0.0026668495      0.0605458633
H       2.8652895756      2.8897939011      0.4356192588     -0.0057911098      0.0002021654     -0.0044284953      0.0749522881
H       3.1568706742      3.2927713039      2.1434331592      0.0160582057     -0.0018533431     -0.0151574871      0.0584237224
H       1.4952322413      2.9301079649      1.5936381712      0.0134857465      0.0070248808      0.0114491506      0.0240584771
C       7.1416442559      0.8707435152     -1.0202596868     -0.0010632441     -0.0012802603     -0.0009906892     -0.1113295830
C       5.7403187090      0.6074110780     -0.4585370422      0.0010575760      0.0061934828      0.0027372767      0.9165725073
O       4.8818626491      0.1649300453     -1.2948599002     -0.0059549918      0.0134034698     -0.0020870434     -0.8185712361
O       5.5600891310      0.8295981501      0.7731592431     -0.0034580728     -0.0031548624     -0.0059718930     -0.8215736505
H       7.7298265811     -0.0587604777     -0.9598458138     -0.0068648114     -0.0050654314      0.0006513463      0.0458973688
H       7.0866656758      1.1647588166     -2.0778800435      0.0086136422     -0.0042810003      0.0021889209      0.0309895120
H       7.6598955832      1.6388532849     -0.4302663395      0.0010481605     -0.0009362174      0.0042190887      0.0308793067
