24
Properties=species:S:1:pos:R:3:forces:R:3:charge:R:1 energy=-137.35874812850543 homo_lumo=0.5870651836935932 dipole="5.904261183440507 -0.29432493710731483 -3.0253897876848006" free_energy=-137.35874812850543
N      -0.5112124994      0.1626471775     -0.3664866588      1.1434985097     -0.7404271423     -0.4394036095     -0.5100013205
N       1.6768181360     -0.0748411942     -0.0567672411     -0.6840791812     -0.6619103554     -0.2526153864     -0.5606570146
C      -1.9069982973     -0.1425340639     -0.6704159635     -1.1722288014     -0.4043475908      0.0052714957     -0.0696625612
C       0.5310770007     -0.6902351021     -0.4086529062     -0.2901851008     -1.2403208819     -0.3094323670      0.5864224034
C      -0.0073928133      1.3531703365      0.0181697443      0.8491253873      1.2663484283      0.4819719837      0.2519081709
C       1.3515725286      1.2050892196      0.2103244699     -0.6963361155      1.6252327389      0.3032218647      0.2489628799
C      -2.7304164829     -0.1893514045      0.6110975433      0.0629797443      0.0688956881      0.2366981720     -0.1373507715
C       3.0025723762     -0.6718221105      0.0400464284      0.5658591758     -0.3018647566      0.0273195159      0.0608174919
H      -2.3171724208      0.6313543312     -1.3546038362      0.4231390707     -0.1611404172      0.1234478482      0.1404006039
H      -1.9791895189     -1.1276055577     -1.1810093178      0.3918853071      0.3862237404      0.0313548641      0.1256813520
H       0.4551528033     -1.7368866465     -0.6773299027     -0.0171777787     -0.0085064013     -0.0082738022      0.1047174594
H      -0.5837519412      2.2601707432      0.1495267371     -0.2491911185     -0.0693793174     -0.0302128170      0.0764742382
H       2.0479022697      1.9716666099      0.5253455321      0.2045519694     -0.1055591607      0.0104720190      0.0632430286
H      -2.3439981413     -0.9868275719      1.2810217960     -0.2164202689      0.2760975457     -0.1328303514      0.0714189685
H      -3.7908882321     -0.4090124848      0.3662841418      0.2567463583      0.1612066038      0.2489943907      0.1303936006
H      -2.6776687803      0.7867157633      1.1377386173     -0.2838520059     -0.3747411477     -0.0254646959      0.1027232160
H       2.9641558254     -1.7502949430     -0.2238782071     -0.1205821108      0.4926764352      0.0987608627      0.0912133690
H       3.6963904866     -0.1552589754     -0.6557663842     -0.3093739508     -0.1538127627      0.2119172396      0.0947733501
H       3.3816993384     -0.5702677849      1.0786854716     -0.2144288943     -0.0189165308     -0.3478057839      0.0997113043
B      -5.8957957573      0.2615945549      3.0930473950     -0.4728386476     -0.0753752845      0.4468762867      1.2874692737
F      -7.0319536365      0.9232018847      3.6301327236     -0.0178882863      0.0679999046     -0.0148845706     -0.5540938116
F      -6.2953685720     -0.5563795106      2.0028365393      0.0945905502     -0.1989099093     -0.4223801709     -0.5683373003
F      -5.2993501809     -0.5463961918      4.0973110643      0.2333307101     -0.1422004736      0.0716362012     -0.5609399041
F      -4.9570522420      1.2269245933      2.6425796135      0.5188754779      0.3127310471     -0.3146391894     -0.5752880266
