26
Properties=species:S:1:pos:R:3:forces:R:3:charge:R:1 energy=-151.69825624406678 homo_lumo=1.2478964048791656 dipole="-0.9409432623470392 0.6359688942069944 -2.101271831670075" free_energy=-151.69825624406678
N       0.4280730502     -0.4464118844     -0.0825957137      0.0013157871      0.0069396277     -0.0090819461     -0.4969268352
C       1.6305804529     -0.0315701167     -0.8514558111     -0.0044359786     -0.0001332716      0.0120793368     -0.0645095903
C      -0.2241484947      0.4655997282      0.6698959194     -0.0065036644      0.0027619149     -0.0011618096      0.2927643429
C       0.0778673359     -1.7504522723     -0.0456854880     -0.0013451160      0.0033244139      0.0034049956      0.2921871441
C       2.8876149234     -0.1106730787     -0.0039611445     -0.0084591267     -0.0014530303      0.0077173374     -0.0931281393
C      -1.3193630924      0.1003369612      1.4245577177     -0.0008781230     -0.0108389790     -0.0039317853      0.0026885989
C      -1.0133132791     -2.1633690873      0.6908279373      0.0002768663      0.0149024412      0.0086200168     -0.0009227082
C      -1.7235074456     -1.2304005297      1.4378180755     -0.0004194895      0.0029771614     -0.0011979311      0.0518584920
H       1.6786070556     -0.6901957758     -1.7314422962      0.0001200364      0.0078770041     -0.0078249863      0.1116311999
H       1.4304889562      0.9892537206     -1.2096442010      0.0023422727      0.0072760672     -0.0054428988      0.1112014341
H       0.1663798518      1.4799049015      0.6411767802      0.0020124404      0.0061231553      0.0065934664      0.0992095200
H       0.6966163779     -2.4327824419     -0.6232713693      0.0106082999     -0.0012024851      0.0113353886      0.1000591193
H       2.7922134753      0.5148092143      0.8952377504     -0.0004972287      0.0070150059     -0.0012700616      0.0966653479
H       3.7423068479      0.2270204053     -0.6083534089     -0.0044595579     -0.0040381367      0.0014415337      0.0467059501
H       3.0558401764     -1.1372329009      0.3505733048     -0.0044976849     -0.0004914032      0.0001453243      0.1019829815
H      -1.8173919511      0.8532614664      2.0328308639      0.0027265208      0.0023504819      0.0137601988      0.0617623669
H      -1.2672118570     -3.2219820349      0.7112907465      0.0123458991     -0.0052442162      0.0195212518      0.0638659493
H      -2.5640432782     -1.5452716874      2.0559923519     -0.0017032363     -0.0012770729      0.0084802970      0.0665457578
S       1.4008165879     -1.4908160570      3.2003786894      0.0062132539     -0.0069635396     -0.0038023926      1.7530267131
O       1.8720835759     -2.3439695053      2.0824721249      0.0005172308     -0.0137632249     -0.0067808052     -0.8060394206
O       0.1652093753     -1.9490514832      3.8534525249     -0.0063555782     -0.0079416483     -0.0088535444     -0.7779374507
O       1.4642016593     -0.0353566681      2.9256789935     -0.0038305961     -0.0047789267     -0.0104330578     -0.8053039863
C       2.7325862300     -1.7307263007      4.5005352611      0.0095650311     -0.0033027758     -0.0002914802      1.1275685377
F       3.9413465194     -1.2854408922      4.0543139198     -0.0060071770     -0.0144911211     -0.0116904150     -0.4486662530
F       2.8662378122     -3.0446460142      4.8215962782     -0.0068024967      0.0107304217      0.0011821614     -0.4431415738
F       2.4335845473     -1.0489426015      5.6380593845      0.0081514154      0.0036421361     -0.0225181945     -0.4431474986
