41
Properties=species:S:1:pos:R:3:forces:R:3:charge:R:1 energy=-235.54075356070348 homo_lumo=3.227487323136915 dipole="-0.8155946765320802 -1.1314082677992647 -0.5430022669737664" free_energy=-235.54075356070348
N       0.1901547657     -1.1189339789      0.7639153010     -0.2277859526     -0.1611070017      0.3069868295     -0.4915637811
N       1.9989018776     -1.0678189025     -0.3694298792      0.4030093720     -0.0490712831     -0.0739655080     -0.5083959269
C      -0.8369548329     -0.7327404935      1.7208289063     -0.4111090518      0.2415459103     -0.2277487352      0.0177693418
C       3.2938558508     -0.6418227361     -0.8848791790      0.1615074578      0.0671166112     -0.4559977390     -0.0013913093
C      -1.8149949292      0.2656272805      1.0936892640      0.6180184404      0.1792807412      0.1191879290     -0.1693190385
C       3.1248924648      0.0791808453     -2.2241590076     -0.2890123390      0.2741245500      0.5659806520     -0.1726940291
C       1.3602260111     -0.4804393916      0.6442633538      0.0989894389      0.2508941830      0.3971928024      0.4087616096
C       0.0798940423     -2.1057403170     -0.1823286847     -0.2061286115     -0.1951217279     -0.1226423521      0.1978449540
C       1.2312631127     -2.0742573931     -0.9006955204     -0.0543426731     -0.1990428273     -0.2451988208      0.1940427150
C      -1.1220900153      1.5666629999      0.6759028800     -0.6442118801     -0.0781412402      0.0103537593     -0.2800918620
C       2.2843789446      1.3519901830     -2.0796334385      0.2939148586     -0.1030717170     -0.5040758377     -0.2677543415
C      -2.1314496960      2.5981297978      0.1783442679      0.3639197796     -0.2653769232      0.0594064912     -0.0433969944
C       2.1793494012      2.1039242286     -3.4034575460     -0.1056637765     -0.1991491280      0.3906417840     -0.0408387202
H      -1.3653922232     -1.6343770735      2.0430285331     -0.0015776353     -0.2369332370      0.1002524258      0.0895314069
H      -0.3337365305     -0.2812597965      2.5803769119      0.1338495488      0.0495334827      0.1461258426      0.1278736460
H       3.7289812929      0.0339593736     -0.1427835299     -0.0254835930      0.2037460958      0.1837760958      0.1707569461
H       3.9282073460     -1.5253687497     -1.0018306814      0.0884294138     -0.2660208058      0.0537551225      0.0737751740
H      -2.5871080815      0.4818024281      1.8386056099     -0.2534279156      0.0395869413      0.1804041462      0.0851071931
H      -2.3009744997     -0.1963152196      0.2278994205     -0.2061054627     -0.1433785415     -0.2267293527      0.0806492868
H       2.6620313902     -0.5961432233     -2.9526281644     -0.0771463283     -0.1867146515     -0.2665918987      0.0746318260
H       4.1230172162      0.3352200790     -2.5918616799      0.2813906467      0.0462662525     -0.1250076236      0.0847348167
H       1.6351208371      0.4683122397      1.3563170457      0.0857045754     -0.1330385750     -0.1615287384      0.2679556811
H      -0.7855555733     -2.7409098190     -0.2582048447     -0.2006579227     -0.1687226921     -0.0249825117      0.0186314982
H       1.5637402093     -2.6802030755     -1.7255983849      0.0793686197     -0.1423613183     -0.1948658613      0.0224306766
H      -0.5656657198      1.9729926508      1.5261378010      0.2547109231      0.0312308422      0.1283819457      0.1344598028
H      -0.4014487386      1.3542265375     -0.1198292576      0.2206047278      0.0065154363     -0.1162121061      0.1718268790
H       1.2804369041      1.0852845701     -1.7322428063     -0.2282475546     -0.0324678983      0.1174541115      0.1350584666
H       2.7394330318      1.9966068498     -1.3220268216      0.0415136928      0.0484920328      0.2860018794      0.1561070490
H      -2.8425688244      2.8511016288      0.9660845799     -0.2466692714      0.1118941182      0.2071074023      0.0208672050
H      -2.6854729318      2.2122153728     -0.6790573680     -0.2192239473     -0.0529424889     -0.2729349326      0.0173836141
H      -1.6113919230      3.5068097318     -0.1246216997      0.0677583869      0.3238357340     -0.1192113995      0.0389034089
H       1.7139867699      1.4790421062     -4.1678878786     -0.1361696398     -0.1420402436     -0.3044166106      0.0108025909
H       3.1685850388      2.4018699892     -3.7533128259      0.2926067248      0.1150332816     -0.1533186175      0.0219586884
H       1.5744133811      3.0016563799     -3.2737475442     -0.1750088709      0.3062929669     -0.0691908851      0.0315582504
C       3.0464072917      3.4952371362      2.5919667582     -0.0362702016     -0.3919343282     -0.3221635593     -0.0943916883
C       2.7417120879      2.2148861489      1.8048646175      0.1336003925      1.0076733649      0.7457184147      0.9544141063
O       3.4602965482      1.9056891462      0.8529519985      1.0114006258     -0.2938473619     -1.0937600796     -0.8247298303
O       1.7318798515      1.5549494812      2.2120984895     -0.8685693134     -0.2440901537      0.7591834927     -0.8162234953
H       3.2008824509      3.2437787737      3.6401553623     -0.0003950038     -0.0235355847      0.3644093712      0.0378750017
H       3.9335591887      3.9808112256      2.1917177592      0.2588370956      0.1608296348     -0.1046884174      0.0315029677
H       2.1924947546      4.1677247733      2.5206795560     -0.2759277761      0.2442175491      0.0629110895      0.0335762143
