56
Properties=species:S:1:pos:R:3:forces:R:3:charge:R:1 energy=-308.96501202308593 homo_lumo=3.9452676742170762 dipole="-2.3044424792346594 1.7126926279415682 0.12418115430492316" free_energy=-308.96501202308593
N       2.7551045720     -0.6312815871      1.4274327600     -0.1436191687     -0.3577261172     -0.1350277159     -0.5025424984
N       3.8215105418      1.2321900737      1.2935099587      0.1870449680      0.4356654893     -0.2083930900     -0.5482348232
C       0.7289339462     -1.9216030393      0.8939786340      0.4648850479      0.3467257121     -0.4697699554     -0.1518680433
C       0.3155819233     -1.0393281783     -0.2879250812     -0.4730155826     -0.4082850324      0.5618556803     -0.1897331185
C       2.2455865785     -1.9542607029      1.0776568255     -0.6455079144     -0.0387429562      0.0305563321     -0.0437260569
C      -1.2051721862     -1.0319966774     -0.4705220528      0.5945095744      0.4768979107     -0.5201536276     -0.1512244453
C      -1.6169589505     -0.1458189960     -1.6503900070     -0.4986863814     -0.3541314071      0.4169090953     -0.1986079631
C       3.3879412038      0.1883404893      0.5912796920     -0.1698696967      0.0760562015     -0.1159755268      0.6126974790
C       2.7912182682     -0.1045106082      2.6887627958     -0.0820556229      0.1150532684      0.1394188780      0.2288823548
C      -3.1332356162     -0.1353855540     -1.8357096409      0.4613395233      0.1169267667     -0.1003121470     -0.0452860371
C       3.4655358251      1.0715013804      2.6066574613     -0.1676508111      0.0453998231      0.2331360448      0.2282594839
C       4.6583504481      2.3051384368      0.7833187371     -0.0563086228      0.0419375600      0.0889643388      0.0864974305
H       0.2585738705     -1.5590316444      1.8132642027     -0.1854596415      0.0431580595      0.2619981693      0.0903522730
H       0.3921904566     -2.9477955720      0.7237411704     -0.1029156252     -0.2903492028      0.0086874634      0.0969171891
H       0.7934536650     -1.4099070387     -1.2010277136      0.1497005773     -0.0818440820     -0.2739064191      0.0884966075
H       0.6678674110     -0.0153557647     -0.1188269356      0.0457247855      0.2740688196     -0.0063956887      0.1117008352
H       2.7486897252     -2.2691663773      0.1605276148      0.1537393897     -0.0737923954     -0.0277013569      0.1742167009
H       2.5264427509     -2.6334022291      1.8859311912      0.2202071658     -0.1185063372      0.0531030619      0.1323254346
H      -1.5550791266     -2.0554458942     -0.6415476833     -0.1262426370     -0.2736476127     -0.0135133199      0.0876307622
H      -1.6794438057     -0.6656413368      0.4464897759     -0.1624461509      0.0623894753      0.2508069811      0.0819015898
H      -1.2633986978      0.8766572544     -1.4779224129      0.1497014982      0.2476952996      0.0132606541      0.0777628521
H      -1.1404129659     -0.5143269767     -2.5649320612      0.1822092537     -0.0542737317     -0.2314265911      0.0838481458
H       3.5587066553      0.0137797533     -0.4572299965      0.0620974131     -0.0405368781     -0.1505913845      0.1290039435
H       2.3625139921     -0.6141680542      3.5334792449     -0.0576593950     -0.1383230155      0.1930735901      0.0417627617
H       3.7342646066      1.7869668828      3.3635085943      0.0910670352      0.1561321173      0.1713188013      0.0382658764
H      -3.6253834409      0.2481133395     -0.9408814494     -0.2008905736      0.1060799338      0.2528376328      0.0278973419
H      -3.4016033046      0.5003037891     -2.6795387250     -0.2223952851      0.1733193158     -0.2520315096      0.0331983156
H      -3.5012711515     -1.1437512662     -2.0291181100     -0.1644949850     -0.2881456885     -0.0605712973      0.0310136658
H       5.6359131637      2.2419019798      1.2623748061      0.1696626812     -0.0335796262      0.0097352518      0.1063152241
H       4.7707574380      2.1837511070     -0.2920785650      0.0559280910      0.0043799217     -0.1859895753      0.0697115914
H       4.1960952944      3.2659368001      1.0088545868     -0.1670231701      0.2297368580      0.0034028389      0.0657783417
P       6.5164732378     -2.3994353206      0.9368322461     -0.0680550123      0.2544111024     -0.5045253879      1.6967252050
F       5.6449856896     -3.8242140608      0.9583387818     -0.0694615581     -0.1249737864      0.0158031319     -0.5220324576
F       7.9551288368     -3.1598670405      1.2404106021     -0.0897093226      0.1187444913     -0.0847428991     -0.5076355256
F       5.0776014706     -1.5100264644      0.5956785587      0.4944485882     -0.3381294503      0.1827369842     -0.5466604658
C       6.6788903860     -2.7639784189     -0.9805660107     -0.7727527020      0.3343068595      0.9550957970      0.5601259559
C       6.0322413256     -2.4216977119      2.8762692357      0.5199328685      0.6278075625     -0.5308990832      0.5271256076
C       7.4273832499     -0.5871269900      0.9900370938     -0.5582142084     -0.7379048075     -0.5970014343      0.5482339533
C       5.3813695055     -2.6776732646     -1.8362841051      0.4044516523      0.0338699813      0.7700177564      1.3901938586
C       6.4022850237     -1.4266702320      4.0176457479     -0.2107728276     -0.2528607637     -0.6468941814      1.3960242867
C       7.6153499400      0.4182334881     -0.1800918297     -0.3622135630     -0.6676229646      0.3384296979      1.4259104574
F       7.1577381354     -4.0051881286     -1.1422561473      0.4035786971     -1.2605469251     -0.2592899786     -0.4385942567
F       7.5613902659     -1.9229883459     -1.5551031867      0.8405878944      0.6293052329     -0.7416625905     -0.4623958247
F       6.4634599587     -3.6149946831      3.3107177241      0.5684990971     -1.1153092333      0.5880570908     -0.4319215215
F       4.6722945325     -2.4576905822      2.9164061512     -1.2491643313     -0.0470517412      0.2800322697     -0.4679057784
F       8.6215865239     -0.6869942009      1.5906492316      1.2479106219     -0.0258754847      0.2733765541     -0.4417449314
F       6.6107421845      0.1064317773      1.8411796065     -0.6113209619      0.8200168129      0.5412231155     -0.4774136161
F       5.5886535007     -3.1669924081     -3.0557695039      0.3565163968     -0.4836991343     -1.1603985904     -0.4478680245
F       4.9722674995     -1.4092794871     -1.9780093537     -0.3117905053      1.1005059309     -0.3795758797     -0.4759025308
F       4.3682582911     -3.3552372254     -1.2939366391     -0.8009127752     -0.7136974451      0.3409091507     -0.4647453293
F       6.2281592267     -2.0327791518      5.1940744612     -0.2155097866     -0.6382719738      1.1232805475     -0.4516045799
F       7.6522107807     -0.9942894875      3.9687486971      1.1511130133      0.2030415425      0.0390842233     -0.4460584346
F       5.5812618396     -0.3647885394      4.0119411577     -0.6326197214      0.8292346921      0.1751830426     -0.4700134380
F       8.6807019568      0.1794111947     -0.9208034790      1.0709853307     -0.1864752181     -0.5248658578     -0.4394648427
F       7.7430167472      1.6599854677      0.3179003269      0.3367496423      1.1407133972      0.5096378950     -0.4710133468
F       6.5290536828      0.4441791888     -0.9652797550     -0.8038522668      0.1007228730     -0.6403169821     -0.4745776348
