64
Properties=species:S:1:pos:R:3:forces:R:3:charge:R:1 energy=-345.5116989628374 homo_lumo=5.397050734413414 dipole="-0.9607531461870242 0.42699907347401944 -3.0912177057107972" free_energy=-345.5116989628374
N      -0.9677733712      0.0249016716      0.6417500852      0.0104518930     -0.1579224130     -0.2436022058     -0.5239860801
C      -0.8098466627      1.1756377815      1.5913785441     -0.3088355789      0.4742451773      0.2476596251     -0.0911304060
C      -2.0364414630     -0.9106787281      1.1354920768     -0.6269413637      0.0546835247      0.1360393130     -0.0404960135
C       0.3106228406     -0.7791972734      0.5915647929      0.6171848718      0.2560456919     -0.0520367926     -0.0469556630
C      -2.1182974084      1.8862554995      1.9096230869      0.0380030275     -0.5017191132      0.0740800515     -0.1571020757
C      -3.3599275831     -0.2170726104      1.4291776648      0.4045862382      0.1125264019      0.2362093985     -0.1653689445
C      -3.1579921501      0.9059449271      2.4434974559      0.0581749571      0.0633620143     -0.4032526504     -0.1713641575
C      -1.2972664845      0.5124677949     -0.7218230747     -0.0812336734      0.0767164345     -0.0122947802      0.0787907754
C       1.5815421717      0.0351414218      0.3688789318     -0.2263156576     -0.5473137315      0.0580694156     -0.2256865086
C       2.7720189058     -0.9247741923      0.2488063148     -0.0354529595      0.7365741106     -0.0110436468     -0.1525624672
C       4.0900248062     -0.1494049690      0.1685382829     -0.0765838770     -0.8540855485     -0.0215761351     -0.1598931940
C       5.2859044504     -1.1022153920      0.0771234439      0.0708131090      0.7184122876     -0.0036996442     -0.1986068114
C       6.6039007096     -0.3330733664      0.0086508514     -0.2907897366     -0.3730485145     -0.0027953161     -0.0445968648
H      -0.1026131111      1.8763099759      1.1456537258      0.2049043323      0.0428960654     -0.1295928977      0.1209379786
H      -0.3792982930      0.7666567593      2.5034262767      0.0755033976     -0.1119019395      0.1429659173      0.2949506445
H      -1.6565385371     -1.3646360180      2.0516693472      0.1084349533     -0.0358902650      0.0726352064      0.2285466013
H      -2.1584970477     -1.6888323182      0.3782344733      0.0807566247     -0.2034735240     -0.2021109431      0.0987881814
H       0.3913304799     -1.3003627273      1.5463907582     -0.0423900791     -0.0309804856      0.1649695421      0.2266056929
H       0.1813726450     -1.5194813461     -0.2028105258     -0.1150368606     -0.1600755141     -0.2211438363      0.1016539454
H      -1.8921398937      2.6366028346      2.6713525296      0.1303276122      0.2425724742      0.1242981628      0.1204793375
H      -2.5028730777      2.4074508543      1.0273072569     -0.1147257226      0.2263273811     -0.2042615300      0.0708986359
H      -3.8105241773      0.1721915049      0.5111082142     -0.2024343215      0.0507583011     -0.2501612845      0.0792362432
H      -4.0346694440     -0.9731400041      1.8384969208     -0.1957784215     -0.2488154215      0.0134939651      0.1064150794
H      -2.8129663123      0.4880316834      3.3928545086      0.0733062790     -0.0481479729      0.2214032711      0.1581329005
H      -4.1035051677      1.4242286809      2.6170123164     -0.2665263630      0.1271601720      0.1108298417      0.0700430039
H      -0.5005728807      1.1675501671     -1.0673956145      0.2066766061      0.1582837318     -0.0650488034      0.0937346527
H      -1.3910150670     -0.3414268168     -1.3905674445     -0.0277792642     -0.2479909653     -0.1603703537      0.0702324435
H      -2.2338357044      1.0634974714     -0.6974207265     -0.1998340416      0.1318609799      0.0018988299      0.1057168912
H       1.5088357815      0.6464093257     -0.5354674222      0.0540760995      0.1649922740     -0.2730988413      0.0800950723
H       1.7530677645      0.6957013798      1.2212487649      0.0442032230      0.0930275761      0.1660218961      0.1693611817
H       2.7908727202     -1.5852930748      1.1210053555     -0.0004966523     -0.1671387651      0.2431469768      0.1130084233
H       2.6524144071     -1.5491852236     -0.6434327380      0.0053646182     -0.2095237366     -0.2310117659      0.0709045192
H       4.1926598901      0.4805120149      1.0581445105      0.0177401792      0.1935980044      0.2326668479      0.1011143506
H       4.0748517153      0.5082203862     -0.7077793039      0.0215836134      0.2129470506     -0.2240889080      0.0727446052
H       5.1833695796     -1.7319211621     -0.8134481823     -0.0550624817     -0.2144435720     -0.2011753506      0.0757192307
H       5.2930515979     -1.7592312678      0.9528984845     -0.0473026796     -0.2052068988      0.1925934051      0.0903379167
H       6.6239334073      0.3155150942     -0.8684551618      0.0533162772      0.2168085512     -0.2569065814      0.0236781615
H       6.7324833768      0.2832537197      0.8992347686      0.0783957678      0.2116839767      0.2565081176      0.0335798645
H       7.4396390237     -1.0300484314     -0.0552459468      0.3583289023     -0.1175452205     -0.0255467763      0.0316309650
P       0.5721877905     -0.5173537231      5.0822142824      0.2370262971      0.3244775473     -0.2338742892      1.7061219403
F       1.0943054560     -0.5783951477      3.4543857437      0.0502214425      0.0519201460      0.0198024152     -0.5576526833
F       1.7125449237     -1.6412901561      5.5319018592     -0.0895940016      0.1865289820     -0.0385372408     -0.5123122675
F      -0.5971852394      0.6339295804      4.5943726418      0.1558760832     -0.1831148953      0.1399518491     -0.5415351529
C       1.9540268149      0.8760672206      5.2117511096     -1.1261559175     -0.2144646117     -0.3700960923      0.5478690743
C      -0.6632029743     -2.0098757105      4.5449988566      0.4981083350      0.2222455366      0.8994711445      0.5170096515
C      -0.2235031980     -0.4422849779      6.9101131283      0.5448888532      0.4885607206     -0.6955384118      0.5458056221
C       1.7304118201      2.2331619042      4.4907572199     -0.2624113907     -0.8179604195      0.1471298735      1.3902045285
C      -0.9055421412     -3.2789509191      5.4188685040      0.2908479794      0.5443053725     -0.1589863038      1.4049385346
C      -0.1092005113      0.7393988963      7.9151350507      0.1718922885     -0.3289002967     -0.7593343440      1.4122957663
F       3.0883840478      0.3806163029      4.6848016681      1.2299033560     -0.3673102533     -0.5621302856     -0.4434961223
F       2.2139168677      1.1567310295      6.5003572062      0.4611055698      0.3864540354      1.1101458947     -0.4566984466
F      -0.2112210991     -2.5258638955      3.3720815488      0.5160146566     -0.7360306173     -0.9157755581     -0.4713385293
F      -1.8935038393     -1.5208587237      4.2589283871     -1.2787187679      0.2815607519     -0.1934715976     -0.4709807503
F       0.1504136829     -1.5483975667      7.5766166843      0.4670462069     -0.8740064161      0.8481456512     -0.4461152533
F      -1.5492103673     -0.5571745004      6.6652752138     -1.3029884326      0.1995788615      0.0013764977     -0.4530923350
F       2.8061882776      3.0081561738      4.6093544829      1.1250434274      0.6615460419      0.2452924649     -0.4500657431
F       0.6878327583      2.9047093905      4.9620003079     -0.8241047330      0.6462392114      0.5088780453     -0.4496944786
F       1.5241820878      2.0431961271      3.1742773459      0.0068697505     -0.0342370948     -0.9787764264     -0.4841289582
F      -1.4856287526     -4.2104248568      4.6479554643     -0.6276080075     -0.8734542363     -0.7762445062     -0.4590604639
F       0.2288403263     -3.7897201745      5.8783480317      0.9945044171     -0.4554622302      0.3126213817     -0.4402431830
F      -1.7194044856     -3.0559567719      6.4402637278     -0.7863602418      0.1396312708      0.8279381256     -0.4450100298
F       1.0003091048      0.6657804002      8.6381090639      0.9698874527     -0.2062947100      0.7485321657     -0.4457165034
F      -1.1429691339      0.7185462434      8.7568283993     -0.9833897039     -0.1493599175      0.8292034143     -0.4507449468
F      -0.1333548265      1.9111939772      7.2794435254     -0.2365177676      0.9772886409     -0.4563946078     -0.4559473823
