42
Properties=species:S:1:pos:R:3:forces:R:3:charge:R:1 energy=-229.25021699494815 homo_lumo=5.393462879077139 dipole="-3.013489796034044 0.4360270854418385 0.08441208894099778" free_energy=-229.25021699494815
N       1.0857014660      0.6004191966     -0.3255217167     -0.3260744091     -0.0781212519     -0.0402859319     -0.5028986430
C       1.8755530947      0.7480077732     -1.6028886050      0.3481122051      0.1733599611     -0.2947050569     -0.0157274916
C       0.8092273264      2.0139325218      0.0988246291      0.2307588660      0.4546303811      0.0344621696      0.0050152824
C       2.5874367588      2.0991251588     -1.5305058144      0.0221568466     -0.0034646634     -0.0249137314     -0.1659217864
C       2.0710601854      2.7838184517     -0.2618731382     -0.1624523838     -0.0917928652      0.0788291127     -0.1477151148
C       1.9088122244     -0.0765366808      0.7416326606      0.1992882864     -0.5246620469      0.1254402147     -0.1159994906
C      -0.1844342922     -0.1397401575     -0.6077973894     -0.3856548191     -0.1769275839      0.4430007946     -0.0530969780
C       2.1570924340     -1.5569301220      0.5022518680     -0.2536126599      0.5151062228     -0.0021655065     -0.1101726065
C      -1.0867649233     -0.3013841695      0.6064434663      0.3447463532      0.0627035299     -0.3482320926     -0.0733103289
H       1.1707049355      0.7178830600     -2.4359240144     -0.2647926009     -0.0597632089     -0.1124015768      0.0927018872
H       2.5703506029     -0.0861673895     -1.6950289627      0.1220622570     -0.2211803407     -0.0371150499      0.2280510341
H       0.5709077495      2.0403947572      1.1617134195     -0.1110074084     -0.0356188853      0.2335157415      0.1122682804
H      -0.0476426291      2.3717060019     -0.4778969124     -0.2228981069     -0.0071711160     -0.1882738026      0.1150270481
H       2.3550422564      2.6890827657     -2.4193633637     -0.0830697217      0.1269296609     -0.2443569330      0.0655595691
H       3.6681846293      1.9601178856     -1.4828011322      0.0894964860     -0.0349428555     -0.0334564218      0.1853081724
H       2.8080005955      2.7153240382      0.5411401689      0.1742110904     -0.0174053816      0.1516406693      0.1443173853
H       1.8407161269      3.8368227287     -0.4294093948     -0.0628246909      0.2815163415      0.0258842264      0.0767878511
H       2.8619346527      0.4527086829      0.7741005664      0.0915586885      0.1354193705      0.0096215208      0.2872782580
H       1.3921546630      0.0713724142      1.6923202041     -0.1819644237      0.1476496377      0.1686335654      0.1048220969
H      -0.7114077671      0.4204080930     -1.3846821691     -0.0043231069      0.1462048113     -0.2237643656      0.1197775257
H       0.0935284352     -1.1148468859     -1.0130202173      0.1041066171     -0.1699566960     -0.1502907003      0.1559503138
H       2.9052796822     -1.8795996549      1.2257396792      0.1980129523     -0.0951467244      0.1453757563      0.0914747699
H       1.2573101942     -2.1527491531      0.6488857286     -0.2947154474     -0.2375434735      0.0701549080      0.0306898472
H       2.5540011545     -1.7465198388     -0.4927994882      0.2304637228     -0.0992077094     -0.2631361760      0.0960383966
H      -1.9983889031     -0.8021494348      0.2814364488     -0.2914962486     -0.1439944089     -0.0495196126      0.0686025656
H      -0.6211123086     -0.9094414492      1.3792154496      0.0973868928     -0.2024404928      0.2453744800      0.0606450650
H      -1.3577625793      0.6641679284      1.0303779043     -0.1532318348      0.2692743538      0.1414095061      0.0544183443
N       4.6975675068      0.1382685530     -0.4163323986      0.4898620374     -0.0963441982      0.0559728541     -0.9283132682
S       5.3709825068     -0.9134303357     -1.4268836642     -0.3893236244      0.1994365613     -0.0687341761      1.6329501162
S       5.6144361118      0.9226803371      0.6432781154     -0.4367771355     -0.0256327375      0.1996999518      1.6306836232
C       5.9720567570     -2.3861470085     -0.4325473399     -0.4091358024      0.8051029656     -0.2203013774      1.2077111506
C       6.6195422461      2.1982496485     -0.2944275046     -0.5962405812     -0.6752949669      0.2519444533      1.2051816532
O       4.2534902470     -1.4461063912     -2.1815274593     -0.9035059170     -0.5916502545     -0.5212307479     -0.7848916993
O       6.5144046070     -0.4230129410     -2.1501646016      1.0421617737      0.2925975592     -0.3530494945     -0.7275447285
O       6.5610103383      0.1116608689      1.3620233673      0.9193080958     -0.5707523487      0.3606727812     -0.7280268752
O       4.6745095191      1.7231430326      1.4048118645     -0.6567008427      0.7683560850      0.4922717997     -0.7890069214
F       5.8584731591     -3.4751598196     -1.1756543710     -0.0992611350     -1.1730004838     -0.8817938904     -0.4362092677
F       5.1976718898     -2.5303070862      0.6404412782     -0.6782245636     -0.2748573445      1.1364728884     -0.4551576055
F       7.2228781589     -2.2484633199     -0.0561835593      1.3675403664      0.1175254644      0.3499920820     -0.4233321850
F       6.8262396807      3.2437248548      0.4907070828      0.2595725190      1.1046587892      0.8992462622     -0.4363429191
F       5.9219903484      2.6020611535     -1.3534833981     -0.6314681190      0.5072305454     -1.1552163814     -0.4541865549
F       7.7766568336      1.7182344677     -0.6895807010      1.2679495261     -0.5008302022     -0.4066727124     -0.4234057717
