42
Properties=species:S:1:pos:R:3:forces:R:3:charge:R:1 energy=-226.44508183959883 homo_lumo=2.3646711854647804 dipole="-7.485852699993815 -0.8872962780333963 0.7287894952203327" free_energy=-226.44508183959883
N       0.0015735440     -0.0095488313      0.0131681835     -0.3367308498     -0.0021516935     -0.0102606955     -0.5275152120
C       0.9273204277     -0.8456310803     -0.8122142196      1.1197991297     -1.6971794735     -1.4311972318     -0.0116509783
C       0.8968622463      0.8427530163      0.8545764912      1.0809556753      1.7073505941      1.4392905823     -0.0187327609
C       2.3358433575     -0.3113695875     -0.6350225959      0.4210374107      0.3348961501     -0.6657158643     -0.1533577273
C       2.3104352081      0.3088807467      0.7329266264      0.3880986086     -0.2886760780      0.6808894531     -0.1491249946
C      -0.8334383584     -0.8826929460      0.9008596895     -1.1934528635     -1.1041275938      0.7692841743     -0.0884339853
C      -0.8340479911      0.8486692105     -0.8882019501     -1.2054424118      1.0836327476     -0.8058602737     -0.0899634118
C      -1.8271088818     -1.7902117036      0.1523557729      0.1124697544      0.2498537570     -0.1604609438     -0.1215453320
C      -1.8499392503      1.7440021472     -0.1553236232      0.1194371896     -0.2498369901      0.1657908897     -0.1209739945
H       0.6630033493     -0.8588303015     -1.8943874220     -0.3285238192      0.1371242641      0.5746231831      0.1431839741
H       0.9426959183     -1.9097766103     -0.4818412097     -0.5023406467      0.5158944052      0.1703507072      0.1535996053
H       0.5960970629      0.8749166541      1.9266651302     -0.3083375724     -0.1447639338     -0.5839686927      0.1433132893
H       0.9218014261      1.9005432036      0.5043082844     -0.4741696736     -0.5226610509     -0.1815260295      0.1564715859
H       2.5408024726      0.4691937932     -1.4008387509      0.1321621638     -0.3096893439      0.1830028099      0.1243985529
H       3.1001398997     -1.1158364604     -0.7035590955     -0.2525592541      0.3673033164     -0.2301651290      0.1304030234
H       2.4874479888     -0.4719171922      1.5055727092      0.1130566051      0.3140912939     -0.1550488775      0.1066459060
H       3.0698370376      1.1144501821      0.8320620759     -0.2185331037     -0.3595422485      0.1943990940      0.1548469162
H      -0.1743296804     -1.5344443311      1.5196876396      0.1780113309      0.4975093545     -0.4186142403      0.1637800669
H      -1.4100563030     -0.2702720583      1.6287664483      0.3922998622      0.1357244288     -0.4155872208      0.1639621607
H      -0.1764537378      1.5083333964     -1.5002743910      0.1816161281     -0.4933393125      0.4219506827      0.1659217618
H      -1.3915301258      0.2256151321     -1.6219391065      0.3856558081     -0.1292581994      0.4158181881      0.1639878146
H      -2.2715323177     -2.5132012059      0.8683893058      0.2025648314      0.2520226573     -0.1764179355      0.0948402973
H      -2.6591954752     -1.1992555117     -0.2814965266      0.2228979799     -0.2236332492      0.0555464047      0.0763331433
H      -1.3306030294     -2.3659613014     -0.6546103550     -0.1811098369      0.1019736233      0.2169124891      0.0777778376
H      -2.3004221665      2.4539818560     -0.8805311287      0.2085113453     -0.2492701448      0.1759807300      0.0958122383
H      -2.6754073539      1.1420009230      0.2758064078      0.2153100497      0.2255072648     -0.0580968758      0.0748916038
H      -1.3698491751      2.3342907781      0.6511463046     -0.1800641701     -0.1093503049     -0.2240771042      0.0790127061
N       7.5789307720      0.2437887725     -0.6670732888     -0.5370670590     -0.1523848948      0.2354806127     -0.8772138040
S       8.8476537758      0.1505967574     -1.6997359965     -3.5200134435      3.3945924695     -5.0562250397      1.5601771148
S       7.2320820887      1.5974185545      0.1887432913      5.5970690495     -1.8677859540      4.3907060860      1.5544864528
C      10.2675600438     -0.4890565059     -0.8350909864      1.4475487932     -0.5161787662      1.2710237796      1.1543369406
C       6.0583483784      2.5839277808     -0.7175135122     -0.3749224185      1.1027948809     -1.2365013781      1.1518002752
O       8.5011844801     -0.7870202896     -2.8214800953      0.7712972179      0.0140152608      2.3932577199     -0.7330480501
O       9.1736221051      1.5074575306     -2.2598711394      0.6502998026     -1.7261924191      1.4017698086     -0.7293685116
O       8.4783475149      2.4029187090      0.4322583624     -2.2256107023     -0.0657034815     -1.0697052338     -0.7200266784
O       6.6218324875      1.2041325192      1.5041656107     -0.8757721285      0.3528681284     -2.2840304338     -0.7461482131
F      11.3312700682     -0.5929528751     -1.7106510705     -0.7846787164     -0.0104457259      0.8772888356     -0.4293055165
F       9.9728551692     -1.7382137458     -0.3229295508      0.5230288398      0.7889445646     -0.2257708382     -0.4345838333
F      10.6090994184      0.3602534126      0.1999288188     -0.0371555635     -0.9959207530     -0.8727709719     -0.4220489957
F       5.6721306607      3.6639887227      0.0526615513     -0.0085147378     -0.7189132271     -0.7758839946     -0.4360876949
F       4.9493582193      1.8192129917     -1.0219959671      0.0636957894      0.6315619488     -0.0475890170     -0.4644189361
F       6.6331744010      3.0394882838     -1.8884201367     -0.9818243936     -0.2706562717      1.0521077911     -0.4164346363
