43
Properties=species:S:1:pos:R:3:forces:R:3:charge:R:1 energy=-238.28744196206375 homo_lumo=3.3066544349216214 dipole="-0.021382986618642633 0.3802970882419983 -1.948687518231606" free_energy=-238.28744196206375
N      -1.7329157291      0.2612276541     -0.1635932511     -0.0945757953      0.2453544653     -0.1568580132     -0.4986587302
C      -1.9655790863     -0.5116029635     -1.4227391627     -0.0658711678     -0.4492644658     -0.1549458401      0.0232050246
C      -2.9483818285     -0.0647810655      0.6579286372     -0.4704359715     -0.3966976057      0.2359703427     -0.0131567737
C      -0.5116749608     -0.2243748389      0.5661537151      0.7678201800      0.0446577829     -0.4417793121     -0.0804685221
C      -2.5614102042     -1.8409943598     -0.9646539701      0.0414018975      0.1185616081     -0.1050512525     -0.1415569304
C      -3.2248503947     -1.5384617322      0.3878241237     -0.0088657736      0.0611461121     -0.0257598073     -0.1322531562
C      -1.6642865141      1.7280630189     -0.4536894154      0.2157022113      0.4494974379      0.3484835896     -0.0462698753
C       0.8067056611     -0.0223819913     -0.1697625774     -0.3193570952     -0.2018603539      0.4176064320     -0.2064747224
C      -1.3756989088      2.5747550455      0.7788311226     -0.1322608000     -0.2135043317     -0.4262474675     -0.0778433600
C       1.9460906018     -0.5090574073      0.7353476609      0.0874940623      0.3131003730     -0.7416933386     -0.1566764327
C       3.3068593228     -0.3390178882      0.0541987996     -0.0892743708     -0.2659200083      0.6119421348     -0.1964696793
C       4.4412349846     -0.8183846260      0.9581312875     -0.2069222812      0.1892927411     -0.3814156824     -0.0449487818
H      -2.6824846366      0.0510396699     -2.0264947125     -0.1562477372      0.2163690876     -0.0634566906      0.1064047165
H      -1.0348920570     -0.6145845774     -1.9796686656      0.2177320128      0.0851747949     -0.1302522119      0.1187502233
H      -2.7287127406      0.1477989691      1.7084901750      0.2140289844      0.1193279784      0.3191835604      0.2238464033
H      -3.7651816009      0.5690504618      0.3036722064     -0.1212993180      0.2159210799     -0.2366874550      0.0763365324
H      -0.5019560358      0.3044928924      1.5221487216     -0.2370480657     -0.0032403289      0.3040980647      0.2555084954
H      -0.6699618429     -1.2807199686      0.7857998414     -0.1276148915     -0.1088601138      0.2122876640      0.1886902014
H      -3.2810167826     -2.2028962315     -1.7014038118     -0.0926593276     -0.1337828865     -0.2439747015      0.0792814103
H      -1.7795760336     -2.5951373017     -0.8544156117      0.1680143776     -0.2107953617     -0.0140680227      0.0774518841
H      -2.7882055731     -2.1442392205      1.1854902816      0.0849028150     -0.0081312221      0.2588718062      0.1274304461
H      -4.3003018780     -1.7215663049      0.3601450338     -0.2734857611     -0.0270954013      0.0188449036      0.0653678276
H      -2.6304936863      2.0068118552     -0.8837710819     -0.2199017483     -0.0733220066     -0.1315400137      0.1091942063
H      -0.8958167809      1.8770412491     -1.2171501328      0.1245461106     -0.0295126159     -0.2062893290      0.1208833041
H       0.9652963681      1.0335407204     -0.4076643134      0.1033251905      0.2882018593     -0.0922143585      0.0906416806
H       0.8283493833     -0.5860958699     -1.1079531496      0.1012724384     -0.1172864442     -0.2730300149      0.0784187257
H      -1.9797990307      2.2606674284      1.6283161585     -0.0878968264     -0.0958163192      0.3207485075      0.1087817351
H      -0.3278763558      2.5114686202      1.0658553919      0.2819441727     -0.0076060503      0.1623949901      0.0523344055
H      -1.6069403337      3.6129293654      0.5416441410     -0.0283612768      0.3418139274     -0.0994368015      0.0383035313
H       1.7871766364     -1.5636478291      0.9816428677     -0.0470713853     -0.2618635209      0.1484530227      0.0961078381
H       1.9301146694      0.0582176091      1.6711481743     -0.0276577374      0.0841382618      0.2815838155      0.1083285347
H       3.3205714583     -0.9085823126     -0.8816574860     -0.0142785233     -0.0883497741     -0.2740654232      0.0745393999
H       3.4605876829      0.7166619082     -0.1950785685      0.0142516693      0.2646717347     -0.1274079932      0.0763169687
H       5.4003135109     -0.6868572144      0.4566777131      0.3669854063     -0.0063115639     -0.0571602610      0.0288160681
H       4.4540085901     -0.2493837379      1.8885162266      0.0404610094      0.1356698608      0.3010247338      0.0329480520
H       4.3165951738     -1.8747430286      1.1994324482     -0.0002541948     -0.3190926107      0.1148828642      0.0312075417
C      -1.2776889606     -0.7310643422      5.1565766688     -0.1668972506      0.1017420550     -0.4862201025     -0.0735649457
C      -1.4924368799     -0.5160910778      3.6419661448      0.1086082091     -0.3912463229      1.1422469264      0.9152967296
O      -1.5802662972      0.6733890682      3.2503448818     -0.0949630521      1.3998836831     -0.3068517662     -0.8592979184
O      -1.5433151559     -1.5361127232      2.9257814910     -0.0640192613     -1.1929837406     -0.5054371826     -0.8411761725
H      -0.2049374885     -0.7797135400      5.3434324368      0.3471488033     -0.0314019427      0.1421362981      0.0245473692
H      -1.6984356253      0.1004527270      5.7185208782     -0.0664208960      0.2746267429      0.2252778077      0.0182334885
H      -1.7327008264     -1.6691023877      5.4690788967     -0.0719990419     -0.3152065944      0.1158055776      0.0216432567
