39
Properties=species:S:1:pos:R:3:forces:R:3:charge:R:1 energy=-210.30097316699317 homo_lumo=2.998543759428654 dipole="-3.0641595497075476 -1.0014964632062557 -5.23875694679429" free_energy=-210.30097316699317
C       2.6978980868      0.3676497117      1.5601220770      0.3304985958      0.3129483878      0.7839086498     -0.1732175583
C       1.6420730140      1.2969987116      0.9779325659      1.7185388755      1.6466185536      0.3927699891     -0.0179125431
H       1.4374338809     -0.8102186491     -0.9040975529     -0.4675717521      0.3986115850      0.3465679340      0.1410269893
H       0.4349817352     -1.6884932137      0.2983634251     -0.0880074430      0.6164950885     -0.1767929095      0.1468879579
H       3.1959448461     -1.4320422526      0.4323924216     -0.4366478249     -0.0232783481      0.2218007037      0.1068445966
H       2.1317390081     -1.6994166643      1.8722057457      0.2546417811      0.1565270258     -0.3087340357      0.1202072297
H       2.6433230355      0.3774968857      2.6696586466      0.2948857156     -0.0313893430     -0.2691326516      0.1900024449
H       3.7186969513      0.6781160019      1.2470331824     -0.4253490112      0.0643351865      0.3006050104      0.1137960750
H       1.3487923688      2.0798717059      1.7153354423     -0.2389846829     -0.3534861633     -0.4352021756      0.1477249790
H       2.1046730536      1.8246129004      0.1103001489     -0.6662756127     -0.2935320066      0.0378160532      0.1416157252
H      -1.1961371773     -0.4971649674      1.4835550490      0.3808028966      0.3330891786     -0.1827264065      0.1196787326
C      -0.4276382900      0.2755872797      1.7000905239     -0.9026493132     -0.2650155026      1.0439308862      0.0039292757
H       0.1217090820     -0.0680498516      2.6045898268      0.1199093023      0.1986700142     -0.4820124970      0.1688468763
H      -0.9460901822      1.2262406544      1.9551639333      0.3631000736     -0.2811514959     -0.2479802918      0.1105587937
C      -0.1937376429      1.1495751542     -0.6013848488     -1.4329450194      0.9869301388     -0.9924275907     -0.0250585477
H      -0.3175513570      2.2307650578     -0.3584751961      0.2865100211     -0.4275530888      0.3114296789      0.1556265122
H       0.4473670763      1.1263969181     -1.5121177543      0.0664107909     -0.2737852247      0.5882307211      0.1396172257
H      -2.3096105501      0.7227812490     -0.1266983538      0.1651588981      0.0364294356     -0.1855140823      0.1144452153
H      -2.9771448552     -2.1121017221     -2.6204997505     -0.1427363825      0.3185239557      0.0663279915      0.0626716941
C      -1.6352324171     -0.7775133293     -1.5633217770     -0.2576297352      0.0737217021      0.0446449416     -0.2496442345
H      -0.8234376446     -0.9014117523     -2.3119681698     -0.0714467179     -0.0159461748      0.2674022270      0.1002273811
H      -1.4995840462     -1.5186430056     -0.7522771502      0.1956727888      0.0560856595     -0.1784932393      0.1199621535
C      -2.9753249331     -1.0714109717     -2.2337478776     -0.0784750717     -0.1622710127     -0.0937932090     -0.0881361477
H      -3.1440300799     -0.3773166254     -3.0842752491     -0.0554101059     -0.2155324566      0.2389663026      0.0494432304
N       0.4903559921      0.4675698835      0.5461645175     -0.4040910340      0.2854064805     -0.1765733799     -0.5558919479
C       1.1145269720     -0.8207954735      0.1620186371      0.7100977496     -2.0245803182     -0.8583529328     -0.0140458400
C       2.3562179055     -1.0111305563      1.0275195346      0.1029594865     -0.7421762921      0.3515879428     -0.1436806436
H      -3.8042975646     -0.9632044521     -1.5020530173      0.1564539128     -0.0288383204     -0.3005292240      0.0524881888
C      -1.6076130459      0.6423173091     -0.9828380234      0.4937340692     -0.2595363716      0.0438128628     -0.1941772130
H      -1.9938943966      1.3412634691     -1.7579143410      0.2172350907     -0.0465246284      0.2113440054      0.1327998820
N       4.1127763351      1.3299287725      5.4313545176     -0.2263706986     -0.3408494463     -0.5020527193     -0.8696217187
S       2.9334931855      0.3537127529      6.0086546121      3.3073279162     -3.3022159594      2.5349307514      1.8376039501
S       4.7958631044      2.4835954429      6.3692655359     -2.5035729968      4.1518404554     -0.6977698075      1.8498986493
F       1.4985993084      1.2134913068      6.0819715978      0.2619389000     -0.2066695067     -0.3472711673     -0.4542090853
F       5.8110008890      1.7549616872      7.4839760419     -0.3900001956      0.1662351309     -0.6906452701     -0.4386472800
O       2.7625890850     -0.8260028261      5.0946324779     -0.7807813087      2.3960173949     -0.1785188055     -0.7538695523
O       3.2892416650     -0.1233080703      7.3890095136     -1.4340766734      1.4014842984     -1.5755898945     -0.7107408451
O       3.7299458774      3.2462852560      7.1053085062      1.6640768812     -1.7364825032     -0.0126313526     -0.7207142635
O       5.5909165202      3.4252568100      5.5103375392     -0.0869321661     -2.5691555079      1.1066669907     -0.7163363376
