37
Properties=species:S:1:pos:R:3:forces:R:3:charge:R:1 energy=-198.00043574387055 homo_lumo=6.054189550673636 dipole="-2.152887456330068 2.146860704640128 -1.6300940488630176" free_energy=-198.00043574387055
N       0.7253166172     -0.2213506009     -0.5546995223      0.0065290319      0.0033954685      0.0008187666     -0.4971383155
C      -0.4994797405      0.6431907344     -0.7622802629     -0.0092574187     -0.0230974267      0.0043124722     -0.0043630245
C       0.2668412225     -1.6461621050     -0.2544877533     -0.0102668195      0.0070143812     -0.0130070386     -0.0566798229
C      -1.4558027902      0.6139270885      0.4184442651      0.0154471857      0.0011827970      0.0078656862     -0.1714951056
C      -0.7007207263     -1.7251078492      0.9126062584      0.0017491718      0.0119016824      0.0058903599     -0.1743776764
C       1.5921057764      0.2879623893      0.5869353473      0.0082910436      0.0110078243      0.0122974675     -0.1338137038
C       1.5017785126     -0.2203724340     -1.8642666830      0.0112866956     -0.0101469839     -0.0118473559     -0.0633459032
C      -1.9097083509     -0.8141385222      0.7208368850     -0.0006686827     -0.0059282060     -0.0157531236     -0.1598193458
C       2.0959809522      1.7065218308      0.4192548664     -0.0017849120     -0.0029913275     -0.0042958836     -0.1081235215
C       2.8270396599     -0.9521338161     -1.8395045552      0.0040806427      0.0070502959      0.0063884450     -0.1149177311
H      -0.9945307103      0.2411913120     -1.6615136882     -0.0035513065      0.0047885813     -0.0065076374      0.1289938653
H      -0.1497349468      1.6585840703     -0.9913888596      0.0093113601      0.0100309232      0.0005666818      0.1349085310
H       1.1621857780     -2.2511457281     -0.0601766576      0.0081669959     -0.0013964308      0.0108000099      0.2541790018
H      -0.2198209639     -1.9871432165     -1.1834797091      0.0112449609     -0.0148161122     -0.0021401699      0.1033989685
H      -2.3135065307      1.2574375981      0.1623403847     -0.0121457820      0.0051062549     -0.0040647794      0.1028227853
H      -0.9827524709      1.0642562251      1.3073041680      0.0026442051      0.0107620427     -0.0007681330      0.1092003813
H      -0.1734137743     -1.5073078739      1.8534884152      0.0135625738      0.0018852238      0.0054254998      0.1366415790
H      -1.0061047701     -2.7809459392      0.9909540286     -0.0027030234     -0.0148076375      0.0024940011      0.1182388615
H       0.9925250744      0.1962776820      1.4978543497     -0.0167960783     -0.0112951753      0.0152890130      0.1722846822
H       2.4190449021     -0.4261603979      0.6906990480      0.0069071775     -0.0159225448     -0.0073103608      0.2700271044
H       0.8169310710     -0.6708133993     -2.5993014632     -0.0099000555      0.0006522259     -0.0049965700      0.1245168162
H       1.6342236211      0.8371636347     -2.1374301342     -0.0082736057      0.0083217947      0.0041320002      0.1312239085
H      -2.5515885950     -0.8298155960      1.6151204943     -0.0060063556     -0.0004111838      0.0040061764      0.0889263532
H      -2.5226564174     -1.1819171014     -0.1229420172     -0.0029054343     -0.0005205906     -0.0044756868      0.0827779884
H       2.7369345459      1.9216437377      1.2878129074      0.0051097272     -0.0011097932      0.0009166384      0.0898466303
H       2.7188671379      1.8388089790     -0.4765916763      0.0073146209     -0.0144458483     -0.0109027140      0.0538469475
H       1.2927168804      2.4581242189      0.4120843405     -0.0027667261      0.0005689032      0.0006159103      0.0378654741
H       3.2188011684     -0.9521091164     -2.8683735147      0.0057538942     -0.0014405979     -0.0022812551      0.0627830912
H       3.5702502500     -0.4660278447     -1.1950526938     -0.0071378073      0.0045160424     -0.0031340590      0.0793550132
H       2.7397904909     -1.9948301660     -1.5068285332     -0.0062541269      0.0046678575     -0.0010380873      0.1131675086
P       3.5081196925     -3.0747212736      1.7789642509     -0.0001216472      0.0018670947      0.0004211384      2.1840776648
F       2.1082319166     -2.2471000264      2.2098956027      0.0087477313     -0.0084630787      0.0046578531     -0.5380174889
F       2.7494691606     -3.4984951575      0.3313859497     -0.0015988998      0.0156034341      0.0073277374     -0.5357977830
F       4.0458861420     -1.6689918062      1.0249514684     -0.0110727733      0.0030979657      0.0113882368     -0.5338844531
F       4.8618557916     -3.8520142876      1.2912885997     -0.0184565917      0.0161450283      0.0028795614     -0.4943818179
F       4.2168295366     -2.5959210098      3.1741723936     -0.0022242350     -0.0087762144     -0.0058618618     -0.4964808005
F       2.9156837509     -4.4307412842      2.4789813752      0.0077452633      0.0060033300     -0.0101089392     -0.4964466624
