37
Properties=species:S:1:pos:R:3:forces:R:3:charge:R:1 energy=-196.5936248858885 homo_lumo=4.396057807977153 dipole="-4.861840700574421 1.5737104455167028 -2.368730522193479" free_energy=-196.5936248858885
N       0.2578365880     -0.1152868421     -0.1953256455     -0.0014609609     -0.1302843305     -0.3520690860     -0.5264700984
C      -0.6119037366      0.6997591203     -1.1035887180     -1.2226391413      1.0161781798     -0.8075970823     -0.0243067606
C      -0.5005166320     -1.3362043295      0.2327795204     -1.0599846840     -1.3005307269      0.8319376640     -0.0348875213
C      -1.9739239863      1.0769805422     -0.4966549467      0.0417162654     -0.0238831364      0.0109573811     -0.1783761405
C      -1.8794412127     -1.0344166620      0.8548886957      0.0162203733      0.1681689042     -0.0378051971     -0.1703298238
C       0.6834210069      0.6631236991      1.0203057984      0.7274753530      1.0691694876      1.2842577314     -0.1060388886
C       1.4406179105     -0.5498680126     -1.0147167956      1.8319669990     -0.8348858024     -0.7435743498     -0.0794001666
C      -2.7324682667     -0.1751808376     -0.0722002509     -0.2905425700      0.0504307161      0.1790033911     -0.1669445892
C       1.5561302088      1.9024158808      0.7482569321     -0.0678912988     -0.1548705268     -0.2830870867     -0.1273381283
C       2.5188225938     -1.3474457917     -0.2599463544     -0.3089361534      0.2561006319      0.1720681508     -0.1640273475
H      -0.8228719210      0.1307134967     -2.0395441481      0.3745083767     -0.1609292235      0.4970467534      0.1488216907
H      -0.0977284806      1.6258251760     -1.4348848129      0.2459483338     -0.4364940114      0.3416967017      0.1573243684
H       0.0737775357     -1.9166715324      0.9872938634      0.2031950600      0.4456315365     -0.4235089243      0.1783935063
H      -0.6675350092     -2.0149990006     -0.6352268593      0.3279545540      0.5315544785      0.0452173715      0.1452706773
H      -2.5742400765      1.6127459699     -1.2633318406      0.3650859961     -0.0194701323      0.1182744822      0.1193143459
H      -1.8555894473      1.7719098600      0.3601533839      0.0114680505     -0.1213499581     -0.1716198883      0.1120470786
H      -1.7689139462     -0.5392086195      1.8423897260      0.0204916263     -0.1385338848     -0.1988345637      0.1133383841
H      -2.4103448312     -1.9941036954      1.0355974968      0.3868374355      0.1421259608      0.0239105334      0.1270810984
H      -0.1919452657      1.0176866944      1.5975732108     -0.1152021195     -0.3681887722     -0.5141489713      0.1740174110
H       1.2322361722      0.0066569988      1.7300699949     -0.1489013493     -0.1840326590     -0.5835819927      0.1935254850
H       1.1062364607     -1.1843735786     -1.8673633711     -0.4742500409      0.3467852161      0.4261901004      0.1426523378
H       1.9346273850      0.3262273013     -1.4891804281     -0.5075065713      0.0292992818      0.3721024204      0.1544185717
H      -3.6693782898      0.1167041786      0.4489670931      0.1624255938     -0.1518673948     -0.2340833909      0.1026778830
H      -3.0080631896     -0.7649605438     -0.9738036107      0.0073155906      0.1318742918      0.1732244041      0.0956341729
H       1.8278227134      2.3686638700      1.7188272540     -0.1287624614     -0.2813200472     -0.2307850974      0.1042328466
H       2.5048501180      1.6430427242      0.2386058239     -0.2434505015      0.1166947695      0.1530746991      0.0957751080
H       1.0074264398      2.6684467692      0.1652262755      0.1959106534     -0.1675852431      0.0848151144      0.0576774619
H       3.3172492466     -1.6387152565     -0.9740722885     -0.2533957760      0.1444777323      0.2062876727      0.1029851301
H       2.9962319710     -0.7356811785      0.5289825572      0.0334045276     -0.3718347893     -0.1115152531      0.1481595897
H       2.1130971627     -2.2812230785      0.1769171735      0.2431109649      0.2714184927     -0.0267668989      0.0734241280
P       5.5101907211     -1.8118059510      2.5257469286      1.1783009143     -0.4169445263      0.7117068995      2.1143005072
F       5.8598810168     -3.3505103736      3.2047472670     -0.6177331953      1.3520322021     -0.7320474181     -0.5033555813
F       3.8287476149     -2.0632264544      2.7731425429      1.0198683480      0.3577176531     -0.3236126388     -0.5278091061
F       5.6176741713     -1.1104503130      4.0901385746     -0.1477553272     -0.5763427326     -1.4744422283     -0.5057533569
F       5.2363716040     -0.2471449820      1.8713038063     -0.1995093453     -1.1850030279      0.3073632811     -0.5242695079
F       7.1960014231     -1.5966853774      2.2751061426     -1.6348914627     -0.0582420096      0.1392108859     -0.5025166370
F       5.3526159089     -2.5099373604      0.9640328774      0.0296079428      0.6529334007      1.1707344294     -0.5192481282
