37
Properties=species:S:1:pos:R:3:forces:R:3:charge:R:1 energy=-196.39384456383237 homo_lumo=4.095545640439444 dipole="-5.961858315517965 0.2637882082144154 1.6811223104506239" free_energy=-196.39384456383237
N       0.2618868341     -0.1121771617     -0.1890744967      0.0082070081     -0.1845626145     -0.2827317978     -0.5267992230
C      -0.6019988410      0.7019762561     -1.1040253455     -1.2205973995      1.0437982476     -0.8174426334     -0.0287702333
C      -0.5003174464     -1.3317956798      0.2368136401     -1.0829350389     -1.2378238461      0.8029309909     -0.0307751614
C      -1.9661578092      1.0819452690     -0.5045434244      0.0373073620     -0.0453714420      0.0356106372     -0.1792472941
C      -1.8821696080     -1.0284444223      0.8501574512      0.0005708985      0.1609800320     -0.0368328910     -0.1691898234
C       0.6825450479      0.6679567394      1.0269872010      0.6595577457      1.1083876436      1.2208357199     -0.0952258557
C       1.4501066240     -0.5496267691     -0.9993985893      1.8669997348     -0.7694214644     -0.7001913104     -0.1069759789
C      -2.7290542839     -0.1685509665     -0.0819451911     -0.3068676653      0.0637245939      0.1724216073     -0.1682115912
C       1.5533114727      1.9092069405      0.7563212787     -0.0352949079     -0.1923954177     -0.2735611661     -0.1344980108
C       2.5223612537     -1.3498094968     -0.2368203427     -0.2914597959      0.1629661822      0.1695906923     -0.1429681729
H      -0.8081232521      0.1314366076     -2.0395847770      0.3852159839     -0.1623976245      0.4876781972      0.1551658319
H      -0.0855048013      1.6268234633     -1.4341506362      0.2582960840     -0.4449555636      0.3261380476      0.1650569535
H       0.0674813455     -1.9104058245      0.9971516670      0.2030277908      0.4325798947     -0.4362169502      0.1639501060
H      -0.6617539993     -2.0121029191     -0.6307620428      0.3322681740      0.5273628187      0.0472159319      0.1491667271
H      -2.5629301147      1.6175261784     -1.2737737860      0.3709913309     -0.0172785199      0.1156726114      0.1233546293
H      -1.8509012984      1.7771722519      0.3526786137      0.0061913399     -0.1154311436     -0.1760949439      0.1107954664
H      -1.7769946507     -0.5329908023      1.8380883222      0.0151080923     -0.1264278684     -0.1940393684      0.1077632426
H      -2.4156503244     -1.9870855290      1.0277118225      0.3772997972      0.1332948674      0.0263214768      0.1257244719
H      -0.1952556027      1.0202913931      1.6019403949     -0.1120281275     -0.3741381746     -0.5018732636      0.1731938858
H       1.2327270977      0.0129142091      1.7372403748     -0.2125715426     -0.1757662584     -0.6067390004      0.1659764654
H       1.1195283333     -1.1840954453     -1.8535429966     -0.4134100966      0.3359151730      0.4332633339      0.1516643650
H       1.9492967408      0.3247731012     -1.4719152389     -0.4146948866     -0.0292139051      0.3446718857      0.1879844441
H      -3.6680452041      0.1256989357      0.4352063837      0.1749622586     -0.1592686728     -0.2417638960      0.1033267947
H      -3.0020413595     -0.7590225125     -0.9841055100      0.0107682433      0.1361214185      0.1817761288      0.0990244241
H       1.8208197882      2.3773335250      1.7268697421     -0.1545308090     -0.2453484797     -0.2229152171      0.0936524590
H       2.5041207716      1.6506348059      0.2502597276     -0.2323734524      0.1452583927      0.0808199642      0.1128760364
H       1.0047255713      2.6731802492      0.1705687111      0.2190865273     -0.1782830159      0.0939804107      0.0678075837
H       3.3077560071     -1.6647852368     -0.9536508029     -0.0812059232      0.2468503843      0.1038746159      0.1655519689
H       3.0171248645     -0.7348620508      0.5412881445     -0.0256338473     -0.2573739426     -0.2475336469      0.0862935701
H       2.1070250875     -2.2720118528      0.2149001511      0.1165953653      0.2231602087     -0.0564121566      0.0509418026
P       6.6292747043     -0.3390593790     -1.9316390649      1.1401514497      0.0039490920     -0.2722874785      2.1055606199
F       5.9046082565     -1.8247704216     -1.4653387613     -0.0065197278      1.2639489597     -0.2564008153     -0.5214402564
F       6.1193433391      0.4186938344     -0.4764084462      0.4086349695     -0.6900074068     -0.9784916960     -0.5212633472
F       8.0687249337     -0.8842681267     -1.1683824062     -1.3560178192      0.4319522168     -0.7392390921     -0.5035668968
F       7.4944208193      1.0648642115     -2.4135464922     -1.1991615257     -1.0727106820      0.4960088404     -0.5040422531
F       7.0367289918     -1.0587854257     -3.4375654310     -0.3276535234      0.5730488105      1.4616479992     -0.5048317473
F       5.1673906074      0.2352074176     -2.6282740093      0.8817159330     -0.5151228937      0.4403082322     -0.5270260029
