44
Properties=species:S:1:pos:R:3:forces:R:3:charge:R:1 energy=-242.49093359890824 homo_lumo=1.742152809072511 dipole="-5.71189737682417 3.1154062252245107 2.384695447378677" free_energy=-242.49093359890824
N       0.2223315691      2.3112861418     -0.2143264884     -0.8219010871     -0.4274234191     -0.8252465289     -0.5030394543
N      -1.8524848028      1.5078830458     -0.2027345792      0.7619706002      0.2146571192     -0.8559601348     -0.5089868074
C       1.6149804146      2.5080686752     -0.6172359856      1.1174469264      0.2803810749     -0.2352964457     -0.0344298733
C       2.5416984636      1.5035074664      0.0859591252     -0.2844277656     -0.2971794926     -0.0243999738     -0.1921405861
C      -3.0398561503      0.7542653009     -0.6047731925     -0.9053658177     -0.4109479348     -0.1051195959     -0.0261423941
C       2.1192383284      0.0534609861     -0.1896696108      0.2746708031      0.2390176298      0.1712825185     -0.2272838815
C      -3.0822883010     -0.6191958066      0.0812353439      0.3551395768     -0.0681039209     -0.1599187859     -0.1990814738
C      -0.7418412867      1.7089994563     -0.9382838304      0.3399231216     -0.5580299599     -1.2204246812      0.5641548061
C      -0.3002920846      2.5094488213      1.0128703306     -0.7999327008      0.0100665441      1.4411460427      0.2387291194
C      -1.5881173168      2.0119850494      1.0196932625      0.5641973181      0.5762738491      1.5243259602      0.2280465942
C       3.0893944579     -0.9519172732      0.4346158643     -0.0104373505     -0.1551730210     -0.1128983421     -0.2161312427
C      -1.9054869074     -1.5086962945     -0.3447232530     -0.0928827461      0.0174297382      0.1621411006     -0.2706203482
C       2.6172738838     -2.3829831784      0.1873298369      0.0278699025     -0.1761978821      0.0090529844     -0.1058692764
C      -1.9797751277     -2.8845534308      0.3082581791      0.1589039257     -0.1942412328     -0.0211479064     -0.1041463366
H       1.9289379633      3.5435630131     -0.3650015344     -0.3784853402     -0.1921866040     -0.0883570367      0.1330804654
H       1.7113682600      2.3858664494     -1.7187884533     -0.3330534307      0.0218777935      0.3749968012      0.1378106756
H       3.5797475832      1.6635241703     -0.2785064758     -0.3015108728      0.0671234187      0.0646940660      0.1435581431
H       2.5291518103      1.6939815413      1.1813647128      0.0991311171      0.0004628555     -0.2201078332      0.0979612227
H      -3.9490468986      1.3317982871     -0.3314978940      0.4072399222      0.0784674511     -0.0945923267      0.1330833217
H      -3.0489269910      0.6170519021     -1.7086773849      0.2348533431      0.2417996199      0.3806174630      0.1292204038
H       2.0632785119     -0.1159472014     -1.2876603514      0.0443009413     -0.0417993670      0.2075840670      0.1157146558
H       1.1157206178     -0.1164915832      0.2489021731     -0.0134017786     -0.0343312709     -0.1151153515      0.1229883129
H      -4.0366382548     -1.1199323135     -0.1914351691      0.1538399234      0.2464940429      0.0942225493      0.1186642259
H      -3.0711937319     -0.4828963559      1.1848039295     -0.0891838592     -0.0682366205     -0.2294595319      0.1125710519
H      -0.6093100377      1.3508440047     -1.9519604259      0.0047779028      0.0572432564     -0.0469235116      0.1116998559
H       0.2326943536      2.9326381818      1.8543586423      0.1865747935      0.1281358421     -0.1108432228      0.0646843159
H      -2.2621217324      1.9764926845      1.8657304111     -0.2172726454     -0.0240954710     -0.1033812965      0.0606185308
H       3.1555561371     -0.7795754569      1.5309595200      0.0460983418      0.1029628803     -0.1967580393      0.0581631344
H       4.1007548261     -0.8206580028     -0.0048555249     -0.2117718644     -0.0222111984      0.0773901831      0.1630091493
H      -1.9026609324     -1.6310338785     -1.4495842178      0.0538799485      0.1356819277      0.1912164448      0.0902306738
H      -0.9514672038     -1.0342948408     -0.0426496078     -0.0842656187     -0.0151958212     -0.1739446708      0.1824497108
H       2.5379312676     -2.5815714055     -0.9026775653      0.1449668066     -0.0242776138      0.3387641542      0.0781013777
H       1.6241118624     -2.5484511402      0.6584074064      0.1838313907     -0.0179350525     -0.0885255119      0.0263407075
H       3.3436851269     -3.0976089631      0.6274338205     -0.2700585747      0.1057462356     -0.2596244450      0.0620424150
H      -1.9762499673     -2.7872449050      1.4148686009     -0.0319814200     -0.1340517810     -0.3033580334      0.0447664868
H      -1.0974602560     -3.4862589613      0.0033664280     -0.3182853127      0.0829690003      0.1694145470      0.0890317940
H      -2.9009690496     -3.4147298188     -0.0130263165      0.2624042123      0.0634108711      0.1819740687      0.0489493654
P       5.7180351865     -2.1436938191     -2.8446665848      0.8482380610     -0.4827438859     -0.4918995649      2.1178591367
F       6.3381062450     -1.4506549216     -1.3998113605     -0.5513989371     -0.1670577255     -1.2061140866     -0.5176283292
F       7.1678264097     -3.0203122553     -3.1315477204     -1.2927841653      0.7317059968      0.7509899244     -0.5047506141
F       5.0912645514     -3.3687152208     -1.8157845422      0.2257010340      0.9053810372     -1.0759094196     -0.5152677098
F       5.0680146493     -2.9510104385     -4.2152201310      0.4631046041      0.9446860646      1.1123354779     -0.5081999892
F       4.2629550126     -1.2323436594     -2.7777134466      0.8461221371     -0.6006021287      0.5073149356     -0.5306555402
F       6.4048569246     -0.8487579545     -3.7413249813     -0.7967853660     -1.1399528454      0.6058629887     -0.5091557956
