44
Properties=species:S:1:pos:R:3:forces:R:3:charge:R:1 energy=-244.49910779251525 homo_lumo=5.067616065500478 dipole="-1.56268926732645 1.720261417648396 1.4611887257261493" free_energy=-244.49910779251525
N       0.9152840925      2.0111986490     -0.1949939337     -0.0095745050     -0.0080643706      0.0019215382     -0.5220724791
N      -0.8537342850      1.3003010330     -1.2313808179      0.0019309689     -0.0041273432     -0.0000681042     -0.5208006761
C       2.3326430720      2.2914805543      0.1055589286      0.0182420956     -0.0099874390      0.0098701238     -0.0253311510
C       2.7209329652      1.7694077801      1.4859609484      0.0124380586      0.0049814213     -0.0022318351     -0.1942554942
C      -1.7030266349      0.6246877301     -2.2286787204     -0.0028007181     -0.0078872712      0.0080235865     -0.0133513037
C       2.6524586550      0.2441064271      1.6156905823      0.0003509119      0.0012697061     -0.0000408571     -0.1861994867
C      -2.3435851568     -0.6357056985     -1.6525795143     -0.0104696452     -0.0027862682      0.0017241735     -0.1935452872
C       0.4739659431      1.4488054761     -1.3272210659     -0.0018689308     -0.0079039599     -0.0073747286      0.5916145171
C      -0.1594375444      2.2278964529      0.6460349062      0.0045828599     -0.0033771020     -0.0014108764      0.2014529877
C      -1.2711134231      1.7784714026     -0.0047258046      0.0029523279     -0.0047868071     -0.0085475575      0.2021981718
C       3.8426061405     -0.4721813269      0.9756922677      0.0067487705      0.0147944549     -0.0040106682     -0.2337353506
C      -1.3230595932     -1.6761861425     -1.1992677977      0.0052813190      0.0178982101     -0.0050712199     -0.2666820985
C       3.7446785628     -1.9890855189      1.1080681376     -0.0089143268      0.0120933173      0.0081308849     -0.0694109099
C      -1.9800073680     -2.9417298244     -0.6594175742     -0.0141990699      0.0094814767     -0.0060985700     -0.0661160884
H       2.4774889324      3.3813149960      0.0315419471      0.0020679174     -0.0074203919     -0.0045889948      0.1052094215
H       2.9122136361      1.7984457692     -0.6883941527     -0.0064966658     -0.0012812432      0.0086995530      0.1751051550
H       3.7527439639      2.1136920036      1.6795741844     -0.0132199704      0.0049292961     -0.0060767251      0.1048865495
H       2.0939595953      2.2604852488      2.2510388091      0.0036721703     -0.0003893261      0.0035441842      0.0872348666
H      -2.4563670602      1.3532075581     -2.5678712828      0.0010158914     -0.0061112084      0.0004743558      0.1036439044
H      -1.0400487713      0.3694234873     -3.0670518685     -0.0056288684      0.0017530135      0.0023274506      0.1619856192
H       1.7176265845     -0.1316769903      1.1609526103      0.0057140801      0.0066188455      0.0110848428      0.1402221710
H       2.6039351652     -0.0181470412      2.6875812199      0.0069411591      0.0072814303      0.0106951834      0.0737504901
H      -2.9875251859     -1.0558167104     -2.4464927606      0.0065167331      0.0064917099      0.0038593730      0.1028480374
H      -3.0200434451     -0.3683985229     -0.8186344151     -0.0042134759      0.0023429991     -0.0070051726      0.0861882447
H       1.0917861098      1.1292690061     -2.1619829483     -0.0145239293      0.0072145323      0.0175849452      0.1871570982
H      -0.0463698243      2.6728358787      1.6257636794     -0.0003147559     -0.0051756124     -0.0056013106      0.0509588271
H      -2.3097164481      1.7516350510      0.3002164856      0.0084244179      0.0041310468     -0.0040992890      0.0449355399
H       4.7721669455     -0.1091670741      1.4542825650     -0.0015259029     -0.0059035519     -0.0025762655      0.0608670608
H       3.9087331012     -0.2179640251     -0.0944803594     -0.0045074477     -0.0054116054      0.0143106571      0.1563715021
H      -0.6567066196     -1.9254582931     -2.0406965010     -0.0101330446     -0.0039430794      0.0133305075      0.1655767517
H      -0.6685978701     -1.2412956977     -0.4250519685     -0.0109115387     -0.0034443861      0.0020812917      0.1436771793
H       2.8392728377     -2.3570593590      0.6031567530      0.0026565884      0.0022749787      0.0058574432      0.0668660670
H       3.7102919880     -2.2946036089      2.1670630476     -0.0031481653      0.0018488457      0.0059894816      0.0167119112
H       4.6043730177     -2.4818976021      0.6313947485      0.0106477448      0.0017637192      0.0034128261      0.0422599151
H      -2.6136715751     -2.7264824458      0.2167274803     -0.0075342802      0.0008657677      0.0014431261      0.0176069959
H      -1.2159502778     -3.6723309875     -0.3562240831      0.0033050351     -0.0046460044      0.0076999694      0.0550673661
H      -2.6122359143     -3.4176859039     -1.4260115606     -0.0074469676     -0.0014050881      0.0033374818      0.0297678342
P       2.4245521101     -1.2054379127     -2.8229478775      0.0029800062      0.0006447886     -0.0092070651      2.2303109659
F       3.0855976363     -1.3005887328     -4.3083807086      0.0053013413      0.0058586202     -0.0189118880     -0.4908553070
F       3.0237443905      0.3624192909     -2.6437108102     -0.0007189689     -0.0080653219     -0.0050993692     -0.5384544744
F       1.0322795309     -0.5225190641     -3.4921325214      0.0016684838     -0.0057493885     -0.0050411744     -0.5416314491
F       1.7225072947     -1.0365568971     -1.3099627968      0.0040372451     -0.0104170825     -0.0036738054     -0.5341502834
F       1.7522898995     -2.6930574326     -2.9564541433      0.0155670856      0.0046068666     -0.0190157677     -0.5043567174
F       3.7757282957     -1.8093540819     -2.1268206515      0.0051079657     -0.0008611952     -0.0196517353     -0.5035265939
