35
Properties=species:S:1:pos:R:3:forces:R:3:charge:R:1 energy=-191.8305473297539 homo_lumo=6.147577870203886 dipole="-1.6509592236117023 -2.145252187073141 0.581371052805862" free_energy=-191.8305473297539
N       0.3512847158      0.4358447282     -0.0479964912      0.1013155686     -0.1212792610     -0.1340315539     -0.5339822186
C      -0.3849748182      1.4318890016     -0.9033237706     -0.6747927967      0.4483601599      0.1112938444     -0.0400624128
C      -0.3779809089     -0.8692943105     -0.0343048719     -0.5208118853     -0.1338290537      0.3528772488      0.0029198728
C       1.7043353996      0.2502599259     -0.6888000395      0.5290171733     -0.3076168463      0.3892346952     -0.0929705297
C      -1.8436715684      1.5988158209     -0.5054131002      0.0988776281     -0.5709708619     -0.1799896708     -0.1605721568
C      -1.8313998644     -0.7266172752      0.4038020222      0.1227173054      0.1606429678     -0.4734665164     -0.1509180863
C      -2.5733722436      0.2566830812     -0.5002237797      0.2244703084      0.1675208258      0.4140873527     -0.1544901596
C       0.5193774183      0.9789624332      1.3277671388     -0.0052624790     -0.0168017384      0.2173826456      0.0525151509
C       2.6649480732     -0.6786662369      0.0473740609     -0.1063967020      0.1920668862     -0.3247655890     -0.2408910363
C       4.0352692001     -0.5737016980     -0.6241191152     -0.2551649675     -0.0602544907      0.2305790069     -0.0540897826
H      -0.3137611517      1.0768054675     -1.9341860457      0.1046184735     -0.1245753473     -0.2133450300      0.1184640242
H       0.1522605881      2.3795187968     -0.8223705072      0.1662712814      0.0104196426     -0.0555153651      0.2416196126
H       0.1581290328     -1.5430821630      0.6373504685      0.1918605363     -0.1192392444      0.0753447304      0.1355878521
H      -0.3323340355     -1.2710108467     -1.0506255898      0.0704577065     -0.0508437379     -0.2506824301      0.1219115233
H       2.1476940360      1.2440363719     -0.7597341266      0.0175856067     -0.0418696535     -0.0658354458      0.3147805764
H       1.5263179336     -0.1230479903     -1.7004038504     -0.1282667702     -0.0259740207     -0.2447587666      0.0973643143
H      -2.3041722884      2.2690883323     -1.2356409137     -0.0514744891      0.2768126897     -0.1238521712      0.1078921758
H      -1.9268753596      2.0739178550      0.4756860940     -0.0446594553      0.2101640282      0.2184303479      0.0921980179
H      -1.8850130152     -0.3962973141      1.4448026434     -0.0382387609      0.0129449003      0.2974535935      0.0955466009
H      -2.2943105895     -1.7152247377      0.3434059189     -0.0857710118     -0.2908683774      0.0876359357      0.0987093588
H      -3.5964180142      0.3888385070     -0.1402129923     -0.3196321844     -0.0116460227      0.0071121469      0.0807569628
H      -2.6183203928     -0.1442881202     -1.5180796521     -0.0474768944     -0.1156487357     -0.2923870137      0.0819328085
H       0.9579289314      0.2166784231      1.9668773684      0.0750091295     -0.2609295811      0.1201437137      0.0593969698
H       1.1684408458      1.8520834721      1.2674319245      0.1419484773      0.2445309521     -0.0850145857      0.1643120217
H      -0.4477568655      1.2710790625      1.7276818892     -0.2324806735      0.0449637302      0.0631466281      0.0918449373
H       2.7655908046     -0.3817249314      1.0940704177      0.0390479330      0.0829786840      0.2502808232      0.1062438186
H       2.3126978712     -1.7150741545      0.0179012105     -0.0697272123     -0.2740426095      0.0462096775      0.0718852455
H       3.9739485021     -0.8743549078     -1.6705786159      0.0407092043     -0.0897348830     -0.3259083168      0.0246340108
H       4.3907981234      0.4556453149     -0.5758067889      0.1057204399      0.2511739074     -0.0404558717      0.0996254771
H       4.7477108124     -1.2213442418     -0.1139076437      0.2434004648     -0.2122851780      0.0872106230      0.0259754837
B       2.5408981730      3.4807196567     -0.8880283034     -0.2167785594     -0.2721248343     -0.0741330211      1.3804511377
F       1.6130021405      3.4498887059      0.2039684276     -0.3716599286      0.2920282034      0.5997436027     -0.5830657818
F       3.5967157330      2.6095862534     -0.5586906866      0.7076224939     -0.2871562841      0.2296739634     -0.5655527318
F       2.9673578199      4.7496937501     -1.1361884380      0.3375537495      0.9906739670     -0.1836787104     -0.5162143383
F       1.8491318570      2.9252927570     -1.9963539576     -0.1496087100      0.0024092169     -0.7300205215     -0.5737587187
