34
Properties=species:S:1:pos:R:3:forces:R:3:charge:R:1 energy=-187.53834548499182 homo_lumo=0.9219996287105733 dipole="0.3544811642842445 -0.7131064073473639 3.3606331780203784" free_energy=-187.53834548499182
N       0.4307183387      0.2397329492      0.0460809874      0.3293593608      0.2925245558      0.1061918826     -0.5533502367
C      -0.5251670636      1.2863376950     -0.4383610959     -1.5284224520      1.2616143199     -0.6310369309     -0.0568482874
C      -0.0804683320     -1.1257222648     -0.2869133728     -0.7589079891     -1.6709501310     -0.2414978640     -0.0375226958
C      -1.9835719166      1.0719546264      0.0085178668      0.0962487296     -0.1024916764      0.0890367613     -0.1722760497
C      -1.5203619476     -1.3774956261      0.1926779393     -0.0405210388      0.1886942229      0.0058253547     -0.1650710101
C       1.7281181110      0.4829714342     -0.6671894329      1.8290790487     -0.0459965892     -0.8970628647     -0.1141909107
C      -2.4666209588     -0.3236323874     -0.3691623893     -0.3828925615     -0.0691128161     -0.0239932576     -0.1730469051
C       0.6399640688      0.3843805454      1.5125708584      0.1421838017     -0.0303751898      1.3038749536      0.0292333362
C       2.8881387893     -0.4548480584     -0.2845976447     -0.2268983726     -0.0219600201      0.2453612258     -0.1260976844
H      -0.5332211632      1.3149490970     -1.5519802404      0.4142031673     -0.2943022515      0.0245458612      0.2376550168
H      -0.2022019135      2.2974808610     -0.1001964644      0.3193212718     -0.5537546815     -0.0073101483      0.1282683885
H       0.5563325485     -1.9119529453      0.1727944737      0.1379601407      0.6036290669     -0.0877080187      0.1396835060
H      -0.0544151845     -1.2889711244     -1.3890861347      0.1227664444      0.5421752303      0.2651370976      0.1891825614
H      -2.6281767752      1.8229574994     -0.4974320966      0.4179771517     -0.0535774444      0.0970621723      0.1291085860
H      -2.0989629879      1.2369181173      1.0997763772      0.0092686207     -0.0166533501     -0.1287686546      0.0799645168
H      -1.5694677251     -1.3828059659      1.3024249280      0.0350198956     -0.0581942111     -0.1800662186      0.0887475122
H      -1.8485612208     -2.3808449182     -0.1549201081      0.3413917745      0.1862691408      0.1093493355      0.1173936861
H       1.5857857480      0.3902994972     -1.7677146067     -0.5229897439      0.2311387905      0.3124114627      0.2477965438
H       2.0754196049      1.5267092480     -0.4869013524     -0.5939061598     -0.2823093234      0.0666108969      0.1442760976
H      -3.4891176419     -0.4865158488      0.0343622514      0.2290269853      0.0237946378     -0.1862144753      0.0871626374
H      -2.5134318464     -0.4164477939     -1.4768112951      0.0514220412      0.0700974647      0.2015396459      0.1440627280
H      -0.3125931547      0.3845444116      2.0767580501      0.1276355347      0.0141022358     -0.5000563067      0.1269453419
H       1.2373871757     -0.4574328465      1.9232736011     -0.1414812469      0.2681015851     -0.4328760303      0.1046327278
H       1.1646273042      1.3365862836      1.7501185496     -0.1975535813     -0.3420660616     -0.3983551428      0.1030309745
H       3.7750433072     -0.1933808448     -0.8996615059     -0.3713191694      0.0183167681      0.1108992741      0.1025976899
H       3.1805202025     -0.3310369708      0.7775484743     -0.0134052228     -0.1630701272     -0.2635609468      0.0486799375
H       2.6475549582     -1.5156961485     -0.4946549160      0.1201474892      0.2520275814      0.1047048005      0.0667295643
C       1.0978605795     -0.2891545680     -5.3013024272      0.4933747076     -0.9383644395     -0.7833479523     -0.1611801705
C       0.2354173122      0.6283490036     -4.4934511452     -0.0384686004     -0.0534444646     -0.0514077256      0.8359175655
O       0.6848322570      1.6893028166     -4.0918527687      3.3118836337      3.3355234316      1.1965832401     -0.8251279602
O      -0.9170859974      0.3215285936     -4.2344893733     -3.9896600819     -2.7341228800      0.5381887364     -0.8194871424
H       1.4388221497      0.2334802217     -6.2199388526      0.1019490827     -0.1924020546      0.2804915753      0.0409580160
H       1.9830353811     -0.5914171128     -4.7028577797     -0.0559978042      0.1061478737     -0.2853014489     -0.0029463855
H       0.5342377100     -1.2005311191     -5.5956519657      0.2322051428      0.2289908066      0.0407497094      0.0151185046
