78
Properties=species:S:1:pos:R:3:forces:R:3:charge:R:1 energy=-419.44972546644397 homo_lumo=5.076793341067923 dipole="-4.7213857145147315 -1.182581709954356 -0.3125199840666615" free_energy=-419.44972546644397
N       0.8313713567     -0.5304994411     -0.2252065564     -0.0027288068     -0.0008739661     -0.0021102816     -0.4817518266
C       1.3467222766     -1.7834504441      0.4771366101      0.0019609770      0.0039173076     -0.0007559433     -0.0407747469
C       0.6229664236      0.5622608730      0.8095956836     -0.0072732068     -0.0009960739     -0.0079677381     -0.0723206214
C      -0.4636154145     -0.8686607838     -0.9406495819     -0.0027336497      0.0012371267      0.0085394913     -0.0373187496
C       1.8382368284     -0.0340723102     -1.2659433883     -0.0050590329     -0.0117594912     -0.0015019754     -0.0930463879
C       2.5386526258     -1.5725019153      1.3950307276     -0.0052424934     -0.0031701155     -0.0017371333     -0.2602720032
C       0.0482190429      1.8686473748      0.2911761598     -0.0002238384     -0.0029167629     -0.0012252790     -0.2215557948
C      -1.6724905340     -1.1385236028     -0.0600930499     -0.0006112115     -0.0005429530      0.0009596040     -0.2169124474
C       2.3283023926     -1.0651223843     -2.2678172118     -0.0039436666     -0.0045392470      0.0001013104     -0.2284262401
C       3.2299340761     -2.9028284254      1.7047066794     -0.0071529146     -0.0139334789     -0.0079161213     -0.2096808421
C      -0.0425069147      2.8746355802      1.4433725201     -0.0044515721     -0.0103658822      0.0109863064     -0.2109700118
C      -2.8699850410     -1.5293897378     -0.9321720534      0.0022741683      0.0047248030     -0.0137246152     -0.2036901448
C       3.0815518523     -0.3515070854     -3.3978144404     -0.0002444983      0.0078077689      0.0061605249     -0.2200695893
C       4.3475111403     -2.7198336440      2.7283953164      0.0059452210      0.0031260507      0.0047575681     -0.0889808985
C      -0.5856151919      4.2231257529      0.9823728887     -0.0065709156      0.0071930702     -0.0071872269     -0.0711352593
C      -4.1187634542     -1.8149101086     -0.1040500559     -0.0065061271     -0.0030516662      0.0121117953     -0.0708454799
C       3.8098557578     -1.3386988649     -4.3030359891      0.0008163680     -0.0109638114     -0.0106720720     -0.0776205520
H       1.5900830257     -2.4930477217     -0.3263091443     -0.0040539671     -0.0074169689     -0.0025279204      0.1445556051
H       0.4949514072     -2.1873016652      1.0409093693     -0.0033090572     -0.0007478010      0.0024976678      0.1478319857
H       1.6109162243      0.7493159881      1.2436262164     -0.0048144447     -0.0020370784      0.0075370951      0.2307679720
H      -0.0178722878      0.1287448836      1.5922116742     -0.0073431736     -0.0034218473      0.0013555043      0.1276592805
H      -0.2431160505     -1.7499992776     -1.5589730490     -0.0030285571     -0.0010548514     -0.0054333025      0.1602068736
H      -0.6685874885     -0.0274901005     -1.6189636702     -0.0045207600      0.0012037157     -0.0040130466      0.1414241300
H       2.6846595522      0.3877368965     -0.7121003917     -0.0027216155      0.0051079843     -0.0028934036      0.2312787078
H       1.3318892423      0.7898209955     -1.7871249613     -0.0017856233     -0.0002415679     -0.0066106357      0.1449709286
H       2.2173475443     -1.1015060392      2.3390994427      0.0076238903     -0.0044411691     -0.0048121886      0.0899951543
H       3.2827188461     -0.9112868088      0.9358101069     -0.0003005513     -0.0063004502     -0.0008543162      0.2238648809
H      -0.9533739734      1.7265581050     -0.1499571323      0.0000865824      0.0008133183     -0.0009090362      0.1031095659
H       0.7012213340      2.2970345702     -0.4855685163     -0.0012653903     -0.0026235850      0.0017154772      0.1362224108
H      -1.9361316758     -0.2453606915      0.5296585557     -0.0032245316     -0.0022651170     -0.0016503380      0.1217804881
H      -1.4726126601     -1.9552519483      0.6529096859     -0.0035962491      0.0017299066     -0.0012050881      0.1120524546
H       1.4963912142     -1.6434701053     -2.7053601718      0.0066905101     -0.0024373416      0.0018622909      0.0917598285
H       3.0191555237     -1.7712587640     -1.7821879107      0.0053726221     -0.0004538579      0.0050327918      0.1449286978
H       3.6494054763     -3.3074323371      0.7660217684      0.0047457847     -0.0089504718      0.0036900968      0.1066225938
H       2.4902271758     -3.6387667287      2.0724427614      0.0097856826     -0.0047661237      0.0008713192      0.0670956522
H       0.9637009845      3.0097923633      1.8758993808     -0.0044610656      0.0058535760      0.0035833706      0.1235819659
H      -0.6831546427      2.4613807777      2.2438414678      0.0000030757      0.0091296773     -0.0038712010      0.0838630340
H      -2.6070759815     -2.4195480295     -1.5310574194     -0.0088637187     -0.0010624965     -0.0017463033      0.0949484092
H      -3.0757111714     -0.7163709943     -1.6516769355     -0.0074893409     -0.0107153469      0.0019288508      0.0967139094
H       3.8123970779      0.3455012233     -2.9584219479      0.0043351211     -0.0068876237     -0.0061198928      0.1585394584
H       2.3655142600      0.2544942930     -3.9829678683      0.0061566256     -0.0040463346      0.0014663739      0.0687975994
H       3.9420556410     -2.3915671175      3.6990417147     -0.0008441741      0.0008499776     -0.0069604881      0.0282901959
H       5.0683757768     -1.9619812876      2.3867223008      0.0012819779     -0.0026379367      0.0004034006      0.1055807450
H       4.8936692673     -3.6609852284      2.8888383944     -0.0036992114      0.0004609747     -0.0014280022      0.0403262485
H      -1.5932123073      4.1195306606      0.5485682331      0.0022820193      0.0004260302     -0.0003339856      0.0310984931
H       0.0717078185      4.6668800683      0.2183429908     -0.0057360435      0.0008272777      0.0005701739      0.0495233271
H      -0.6499657564      4.9315247163      1.8212551950      0.0015750564     -0.0058992154      0.0021023264      0.0510933231
H      -4.4187527865     -0.9299675522      0.4788642309      0.0029279006     -0.0026161261      0.0016337581      0.0421165814
H      -3.9434817000     -2.6419209079      0.6019578864     -0.0011761773      0.0032356844      0.0004291364      0.0417138185
H      -4.9651409499     -2.0964742891     -0.7474711135      0.0034615985      0.0010147639     -0.0015769118      0.0537934448
H       3.1124395288     -2.0653657223     -4.7512074565      0.0012461963      0.0018475361      0.0009511308      0.0191338927
H       4.5695807386     -1.8914408847     -3.7304461140     -0.0006451720     -0.0039238024     -0.0050255870      0.0748012394
H       4.3266038613     -0.8138047806     -5.1201314401     -0.0064733371      0.0042042102      0.0012594067      0.0441449565
P       7.0180382124      0.9824646836      0.2263259333     -0.0076732180     -0.0005730246      0.0003646745      1.7444964066
F       8.2923570700     -0.0682183494      0.4081254189      0.0029879746      0.0088105320     -0.0044719619     -0.5179706098
F       7.7315578056      1.6612975236     -1.1102632565      0.0124620209      0.0115756489     -0.0055515479     -0.5095035005
F       6.2054597967      0.3218749649      1.5392519267      0.0023044835      0.0020726129     -0.0040495074     -0.5276955164
C       6.1880637348     -0.4207050043     -0.9190032641      0.0112356669      0.0161026806      0.0144382368      0.4869100643
C       7.9736501418      2.1606982779      1.4795321505      0.0132376530      0.0054042091     -0.0104685255      0.5248072954
C       5.4971970508      2.3064699262     -0.1146406451      0.0005249877      0.0000723907      0.0187179447      0.5776659716
C       6.7440986248     -1.8779494316     -0.8410878340      0.0007578320      0.0028659154      0.0195236313      1.3916901086
C       9.1774433228      2.9910966796      0.9521375544     -0.0005685931     -0.0021352831     -0.0057623646      1.3598932734
C       4.2923155305      2.5297852425      0.8626041503      0.0013554769     -0.0071536551     -0.0000315977      1.3754555656
F       6.2337517445     -0.1203550887     -2.2595570449     -0.0073764174      0.0095497514     -0.0062302085     -0.4494533568
F       4.8354805325     -0.5744345628     -0.5889293830      0.0004252006      0.0053431038     -0.0145371465     -0.4888248899
F       8.4807923521      1.3870282953      2.4998716105      0.0024515146      0.0158309495      0.0157609539     -0.4387719012
F       7.1276989184      3.0718000458      2.0783723495      0.0086144128      0.0054712783     -0.0113916338     -0.4546172000
F       4.8785153191      1.9643401046     -1.3157087771      0.0004685999      0.0096133840      0.0085745305     -0.4666516349
F       6.0130989605      3.5639683527     -0.3131918940      0.0015770481      0.0007090815      0.0077189758     -0.4391728354
F       5.9080805934     -2.7041225869     -1.5654609363     -0.0003969756      0.0096917956      0.0034664178     -0.4770810711
F       6.7647034345     -2.3585663481      0.4215114610      0.0030742467      0.0132894381     -0.0142293887     -0.4514455080
F       7.9680514535     -1.9865557400     -1.3881066394     -0.0014500071      0.0111982777      0.0090704322     -0.4348272337
F       9.7603519370      3.6468843085      1.9991943679      0.0170237024      0.0047830774      0.0055405385     -0.4541578604
F      10.1177575589      2.2040709703      0.3849049019      0.0046510169     -0.0027298751      0.0004777674     -0.4418435838
F       8.7880717314      3.9269926324      0.0549453087      0.0113550730     -0.0114605701      0.0064446975     -0.4444974557
F       3.2726205117      3.1782439042      0.2018208438     -0.0039219882      0.0073300761      0.0012513222     -0.4748917496
F       4.5914764079      3.2715843464      1.9394069832     -0.0092568283     -0.0197487850      0.0056761513     -0.4353237109
F       3.7616917263      1.3524790392      1.3061596136     -0.0003401656     -0.0125632081     -0.0100391298     -0.4830053247
