40
Properties=species:S:1:pos:R:3:forces:R:3:charge:R:1 energy=-223.75311412945993 homo_lumo=2.016805703565943 dipole="2.23992255459218 1.1505677209697969 -2.0323437040427437" free_energy=-223.75311412945993
N      -1.9376346545     -0.7381860874     -0.0961426882      0.0064513308      0.0029373329      0.0022520256     -0.5365411262
C      -2.7119700965      0.3477905859      0.1071383729      0.0019835329     -0.0006800154      0.0013162937      0.3146841956
C      -0.6878083699     -0.8068475494      0.4151968524      0.0036654064      0.0005332686     -0.0016360018      0.2893641843
C      -2.4758372530     -1.9171982618     -0.7996832393      0.0001982606     -0.0049155818      0.0054371287      0.0524633797
C      -2.2318376694      1.4240048723      0.8293633306     -0.0020878307      0.0013765187     -0.0002077539     -0.0109256754
C      -0.1701754237      0.2395122462      1.1477495902      0.0090999061     -0.0057682596     -0.0013583944     -0.0143691829
C      -0.9508779956      1.3731975908      1.3612187725      0.0069430898      0.0120786122      0.0109475383      0.0525540247
H      -3.7213190771      0.3068177004     -0.2923343133     -0.0050944436     -0.0043660480      0.0066278679      0.1216683692
H      -0.1486600666     -1.7351047485      0.2373616173      0.0046954085     -0.0096515257      0.0018373035      0.1047965814
H      -2.5960580506     -2.7247175071     -0.0672084636      0.0016088243      0.0006728100      0.0134289160      0.1451389216
H      -3.4563414205     -1.6692429889     -1.2150665204      0.0000067867     -0.0019886571      0.0053853240      0.0908980811
H      -1.7776419680     -2.1977749252     -1.5982277789     -0.0037758403     -0.0004733329     -0.0015893411      0.0743632438
H      -2.8880121695      2.2753998375      1.0016220234     -0.0003835740      0.0010997425      0.0019925644      0.0758459341
H       0.8311225567      0.1482383298      1.5673265394      0.0075448816      0.0019547833     -0.0054915163      0.0679273215
H      -0.5681417817      2.2039183447      1.9554866896     -0.0000173609     -0.0039522115      0.0097221149      0.0702096163
P      -4.8417926472     -1.7600777268      2.9335283776     -0.0081218682      0.0019079014     -0.0048199573      1.7210070228
F      -6.2585144677     -0.9241373952      2.7164146753     -0.0080469947      0.0029320236     -0.0013865930     -0.5094294376
F      -4.3797855180     -1.3676335822      1.3384389407      0.0017926585     -0.0015459443     -0.0084566503     -0.5486239754
F      -5.1972451201     -2.1891266038      4.4933052869     -0.0152687632      0.0016971401      0.0161426963     -0.5130162737
C      -4.1662873784      0.0127501381      3.5757969794     -0.0122951076      0.0031067468      0.0005868966      0.5011629874
C      -5.8682034825     -3.3591560262      2.3428743146      0.0000839309      0.0032541777     -0.0179329645      0.5343511296
C      -3.0727727372     -2.7275295881      3.0058103355     -0.0018781160     -0.0018710543     -0.0115915104      0.5499120555
C      -4.7430340179      0.5548586219      4.9264684723     -0.0018678205      0.0179364415     -0.0193363853      1.3768365277
C      -6.1275286027     -3.5789570566      0.8234393146      0.0093499676     -0.0094081095      0.0194512282      1.3626329420
C      -2.5931561646     -3.3348712004      4.3510241211     -0.0009632767     -0.0214740569      0.0019472548      1.4007810421
F      -4.5038237367      0.9702755447      2.6260832308      0.0071470891     -0.0008195555     -0.0064599063     -0.4600728427
F      -2.7972762145      0.1283483552      3.7439727117      0.0011825880      0.0041664678      0.0031661360     -0.4617568903
F      -7.1234178155     -3.2749998521      2.9001412140     -0.0182470873     -0.0070858632     -0.0095968251     -0.4342851183
F      -5.3318586571     -4.5367538273      2.8142608274      0.0037266108     -0.0025214983     -0.0099794626     -0.4465386309
F      -2.0330092311     -1.8981570537      2.5949157629      0.0042826331     -0.0018042624      0.0080092467     -0.4711887966
F      -3.0472935878     -3.7604351900      2.0842636229      0.0017887077     -0.0014936837      0.0163924322     -0.4621601539
F      -4.3559021914      1.8628149597      5.0669795398      0.0038986069     -0.0021713424     -0.0123028876     -0.4588822424
F      -4.2362455120     -0.1264689840      5.9780899626      0.0004245154      0.0026431251      0.0007310288     -0.4415599185
F      -6.0864875036      0.5210872545      4.9825584967     -0.0036906413      0.0022162966      0.0044474595     -0.4364093735
F      -6.9230655699     -4.6666852736      0.6450266029     -0.0002958824      0.0019465401     -0.0076508043     -0.4459174829
F      -6.7461919850     -2.5131078547      0.2625205669     -0.0034941438      0.0085197883     -0.0008974923     -0.4464216912
F      -4.9769093958     -3.8092174469      0.1268240301      0.0043805268     -0.0097879147      0.0042541250     -0.4700826691
F      -1.3609845284     -3.9085691000      4.1801894179     -0.0083387522      0.0083176666     -0.0018628681     -0.4583387088
F      -3.4285200257     -4.2888955617      4.8019239514      0.0076031305      0.0078804949     -0.0109500737     -0.4357550541
F      -2.4702364051     -2.3705284145      5.2909639652      0.0060091107      0.0046010385     -0.0005681925     -0.4443223162
