37
Properties=species:S:1:pos:R:3:forces:R:3:charge:R:1 energy=-209.82067270174923 homo_lumo=4.113951970134442 dipole="-2.3042009318477503 -1.5662331074436397 -1.0052560834815478" free_energy=-209.82067270174923
N       1.4729771347     -1.4141386997     -0.1968377262     -0.0048225517      0.0006862512      0.0079169633     -0.5182528784
N       0.0595060276     -0.5053763568      1.1746615533      0.0174586727     -0.0061030230     -0.0131023911     -0.5211830208
C       2.7513837961     -1.7708308171     -0.8391537867     -0.0028976441     -0.0077139582     -0.0089021024     -0.0267673776
C       2.8480215817     -1.1650700240     -2.2348296292     -0.0008085153     -0.0015435837     -0.0116213108     -0.2037101224
C       2.6771456360      0.3521063150     -2.2551205597      0.0042546804     -0.0054607593      0.0031399157     -0.2518677491
C       1.3603512389     -0.7447657953      0.9571142440      0.0121875223     -0.0003180537      0.0009438343      0.5914103458
C       0.2153651645     -1.5991868469     -0.7356916440      0.0021194758     -0.0043178492     -0.0016641806      0.2016389810
C      -0.6730374325     -1.0242179367      0.1246869570      0.0030881189     -0.0036179726     -0.0083598624      0.2053444910
C      -0.4816305031      0.3261318528      2.2624638130      0.0049237213      0.0113971403     -0.0087768880     -0.0659215152
C       2.8353889094      0.9224795505     -3.6608154658      0.0009163016      0.0174269421     -0.0016411208     -0.0660826524
C      -0.8517291557      1.7085421231      1.7489474283     -0.0062007854      0.0012407785      0.0021546148     -0.1037560654
H       3.5396401505     -1.3799383323     -0.1800930244      0.0039599041     -0.0043150645     -0.0013560949      0.1926494318
H       2.8183969434     -2.8697767480     -0.8641966422      0.0037099689     -0.0040528326      0.0047633862      0.1019973651
H       2.1115491873     -1.6427423317     -2.9086309445      0.0099929405      0.0000576633     -0.0019644086      0.0867613825
H       3.8431187404     -1.4380895846     -2.6286012552      0.0047446323      0.0007636964     -0.0029096057      0.1122936223
H       1.6828925698      0.6218807367     -1.8573934972      0.0035577892      0.0017815202     -0.0052151539      0.1227150142
H       3.4102552176      0.8096617524     -1.5719815252     -0.0030063751     -0.0003694593     -0.0082097806      0.1676894792
H       2.1986066025     -0.4286403342      1.5727825717     -0.0077242342     -0.0237829378      0.0009277873      0.1929892064
H       0.0609717472     -2.1103507486     -1.6772195510      0.0033411315     -0.0092011202      0.0012639506      0.0498775878
H      -1.3431790268     -0.2137036576      2.6841933997      0.0009978435     -0.0004615227      0.0056220083      0.1072781018
H       0.3026894306      0.3907746322      3.0280800982      0.0106068134     -0.0017336139     -0.0059733960      0.1517115089
H      -1.7518117908     -0.9417061792      0.0793899769     -0.0015596018      0.0008636774      0.0092034336      0.0443007638
H       2.0823030802      0.5051294156     -4.3493334875      0.0008661618     -0.0012680307     -0.0090611402      0.0225355257
H       3.8312632995      0.6905557579     -4.0705949601      0.0040526650      0.0087158444     -0.0030378974      0.0367538275
H       2.7203905113      2.0165812158     -3.6543836360     -0.0000647234     -0.0048427637     -0.0106041940      0.0480043964
H       0.0276946273      2.1818684342      1.2903740450     -0.0108905327      0.0097319307     -0.0058212516      0.1255290695
H      -1.1881604229      2.3331064237      2.5887265224     -0.0037175281     -0.0086192120      0.0003711898      0.0595603738
H      -1.6623197607      1.6577681513      1.0061195546     -0.0014369402      0.0026600357      0.0035017212      0.0401645821
N       4.5988356140      2.1819034256      2.0349004052     -0.0133759476      0.0016857119      0.0172410742     -0.8457509236
S       5.2036614294      0.7578450188      1.6141637977     -0.0036486220      0.0011331028     -0.0074447022      1.9337284850
S       3.0359897018      2.4603086381      1.8773981819     -0.0226207961     -0.0044339159      0.0268386360      1.9366006108
F       5.3099361242      0.8734949439     -0.0460491588     -0.0025172406      0.0168468930      0.0075851257     -0.4754295174
F       2.3703197784      1.5416443473      3.1308899601     -0.0125177706      0.0028481955     -0.0043881561     -0.4915313089
O       6.5742633756      0.6725776087      2.0532401750      0.0073123985      0.0123658848      0.0070019272     -0.6950237923
O       4.3024792678     -0.3845400900      1.7874426924      0.0058300306     -0.0167455746     -0.0065496607     -0.7890267552
O       2.3895724532      1.8741580719      0.7036688700     -0.0092539324      0.0182902505      0.0037758811     -0.7736648971
O       2.7431113111      3.8231009396      2.2533426914      0.0031429690      0.0004057291      0.0243518491     -0.7035655766
