67
Properties=species:S:1:pos:R:3:forces:R:3:charge:R:1 energy=-361.81744819203135 homo_lumo=5.085494498644236 dipole="-1.4552202608042897 -3.662610899978305 -0.40529086702720335" free_energy=-361.81744819203135
N      -1.5038434027      0.5818737062      0.0693154588      0.1529372209     -0.1159878837     -0.1776848056     -0.5001398824
C      -2.4140755359      1.1652832103     -0.9727595282     -0.7354417691      0.0473317990      0.0423794998     -0.0304648142
C      -1.4529108019     -0.9080469929     -0.1028548648     -0.4454236934     -0.4427370873      0.1564514434     -0.0033363570
C      -0.1264450592      1.1420880612     -0.2115697962      0.4389908383      0.0743651215      0.4808367702     -0.0712951471
C      -1.9672191689      0.9079752499      1.4662879279     -0.2456778120      0.4742631604      0.3030081193     -0.0722129877
C      -3.8114974584      0.5629326063     -0.9444948534      0.4057578035     -0.3228177011     -0.1791757469     -0.1661452227
C      -2.8275076543     -1.5689172476     -0.0849567589      0.1057982790      0.2783837716     -0.3684833404     -0.1545273826
C      -3.7493348605     -0.9512671478     -1.1353076302      0.0554663984      0.1889048885      0.4447437773     -0.1537356729
C       0.9269475735      0.8781607353      0.8590462839     -0.1137935489      0.1645339329     -0.5756046593     -0.2147754852
C      -2.1084364177      2.3895041275      1.7672292361      0.1275427578     -0.5554068993     -0.2736806819     -0.1452652112
C       2.2907665222      1.3507455625      0.3345935213     -0.1868768936     -0.1804986079      0.5998410185     -0.1717142023
C       3.3391453460      1.3490901784      1.4501773982      0.0996698663      0.2475663519     -0.7488410593     -0.1687498661
C       4.6533249300      1.9670433154      0.9627350647     -0.0921480790     -0.2171939434      0.6532798779     -0.2131901652
C       5.6949028690      2.0048634706      2.0789226492     -0.1698316204      0.0239229949     -0.4141879350     -0.0441133623
H      -1.9447698514      0.9721785937     -1.9412143429      0.1949425703     -0.0250925972     -0.1897025864      0.1294785508
H      -2.4498032046      2.2431149972     -0.8144222107      0.1114190152      0.1475883098      0.0029298207      0.2085774703
H      -0.8264392016     -1.3113238387      0.6951222830      0.2061536957     -0.0171528629      0.1303678085      0.1422879563
H      -0.9670197386     -1.1001285667     -1.0634479637      0.1414423799      0.0312182473     -0.2099510617      0.1262542114
H      -0.2467862997      2.2154794644     -0.3464738837      0.0030308708      0.1908117183      0.0003703861      0.2587124138
H       0.1885101093      0.7120297057     -1.1660577571     -0.0159342184     -0.1484876019     -0.2405048350      0.1080276193
H      -2.9286667958      0.4121184611      1.6102935063     -0.1010162683     -0.1932603394     -0.0264356356      0.1534370699
H      -1.2467939351      0.4494402135      2.1466867111      0.1786810905     -0.1813337192      0.0508366636      0.1387930245
H      -4.3804450128      1.0174947062     -1.7594212098     -0.1769379189      0.2193865539     -0.1442116169      0.1086028182
H      -4.3202638604      0.8072103383     -0.0085045778     -0.1787009807      0.1312074658      0.2170364039      0.1043606849
H      -3.2813416675     -1.4929160625      0.9065180641     -0.1014449353     -0.0578570794      0.2638550208      0.0956347892
H      -2.6791491884     -2.6308002159     -0.2985846529      0.0613142985     -0.3045669067      0.0513823135      0.1070304650
H      -4.7499277712     -1.3796058909     -1.0437970676     -0.2623959666     -0.1646988780     -0.0746038965      0.0878731033
H      -3.3702736555     -1.1798632965     -2.1365054789      0.0731926579     -0.0744648168     -0.2963832340      0.0861305692
H       0.6876942087      1.4418194280      1.7637885939     -0.0376089519      0.1667797644      0.2126951925      0.1296752180
H       0.9758352432     -0.1845015756      1.1145733890      0.0771419942     -0.3038905819      0.1051869310      0.0824351688
H      -1.1889229052      2.9347935346      1.5832873976      0.1938098443      0.1939130008     -0.0302912794      0.1969534908
H      -2.9086702777      2.8476593772      1.1894504592     -0.2307359470      0.2076140332     -0.1231107963      0.0428648164
H      -2.3520150479      2.4882274373      2.8247152445     -0.0859061285      0.0653803631      0.3135342116      0.0518480916
H       2.1901712999      2.3665734635     -0.0561711108     -0.0352499673      0.1922126693     -0.0698720446      0.1717343008
H       2.6127276519      0.7033529228     -0.4880407672      0.1188981733     -0.1791358030     -0.2417572533      0.0547686456
H       3.5113533785      0.3239296360      1.7971795745      0.0716405327     -0.2795347967      0.1419585850      0.0584469990
H       2.9616965184      1.9313334445      2.2970115048     -0.0871638154      0.1229031305      0.2047363993      0.1175321877
H       5.0403165017      1.3872633784      0.1175852443      0.0724194344     -0.1159553917     -0.2679707807      0.0672394803
H       4.4605630108      2.9857265587      0.6123486304     -0.0606213530      0.1973777247     -0.1325451173      0.1227133992
H       5.9134599545      0.9970641421      2.4363588197      0.1001180786     -0.2857767380      0.1448874366      0.0156685932
H       6.6189595526      2.4514173344      1.7112950676      0.3512795165      0.1285457975      0.0049975408      0.0266348928
H       5.3314192511      2.5999365964      2.9175725164     -0.0782128663      0.1821222407      0.2771385255      0.0356614425
P       0.2220628504      5.5236738665      0.6251090911     -0.3076600407      0.1838750938     -0.4203981764      1.7010576164
F      -1.3657927541      5.2494645651      1.1219575284     -0.0704859227      0.1437279885      0.0270591942     -0.5377505099
F       0.5711059942      3.8399122091      0.6532989075      0.0100874975      0.2710348152      0.0000616663     -0.5496260945
F      -0.0651087854      7.1645064942      0.5988234858      0.1284487687     -0.2128386983      0.0598434268     -0.5161802655
C      -0.5552788871      5.2126446396     -1.1640039082      0.0864073180      0.7578239929      0.9382732135      0.5256468847
C       0.5963647589      5.4988701800      2.5832035582      0.6053785618     -0.1687357273     -0.8766154413      0.5431422671
C       2.0914928414      5.8966092020     -0.0045385549     -1.0919012049      0.0149768229     -0.0729781719      0.5575223741
C      -1.6170541920      6.1776782062     -1.7566344312      0.4933156629     -0.2543820300      0.6232963056      1.3936240064
C       1.9870744588      5.2159745362      3.2339280682     -0.5282701890      0.0340712102     -0.5019777997      1.3927836941
C       2.4192420868      6.7521787331     -1.2709692109     -0.6138629883     -0.2618049892      0.4140929292      1.4102024472
F      -1.2039224808      4.0091779819     -1.1285940565     -0.6890101161     -0.9994462732     -0.1811757728     -0.4858585235
F       0.4211107422      5.0660927903     -2.0769092500      0.7850504802     -0.1879929250     -1.0222324774     -0.4580730766
F      -0.1768523354      4.4878577722      3.0521666173     -0.5955850818     -0.9714860307      0.6443416148     -0.4598985181
F       0.1350112568      6.6297753882      3.1318643493     -0.3751106102      1.1637688483      0.5834064933     -0.4367169517
F       2.7957980759      4.7534423267     -0.1348183042      0.6937164076     -0.9477429826     -0.3184835090     -0.4667254012
F       2.6247903546      6.5755906963      1.0325919655      0.5646798551      0.8495161487      0.7014435475     -0.4565684743
F      -1.9429323529      5.7698305575     -2.9908980219     -0.2307433162     -0.4722783745     -1.2256616073     -0.4600777834
F      -1.2017537378      7.4311363297     -1.8402512982      0.3655435839      1.0340729091     -0.1143320690     -0.4409438433
F      -2.7281500048      6.1483455849     -1.0232466331     -0.9844610928     -0.0322907115      0.6565948060     -0.4486071308
F       1.8097834535      4.5976844478      4.4076519002     -0.1637546093     -0.5205036195      1.1967717059     -0.4590183004
F       2.7299682733      4.4023465363      2.4797650394      0.5903075266     -0.7306127183     -0.5179132088     -0.4716450482
F       2.6713743584      6.3244363221      3.4746875231      0.5767388278      1.0591421117      0.3183953006     -0.4442850302
F       2.7937156558      5.9766659988     -2.2853367323      0.4709056260     -0.7247713152     -0.9410972645     -0.4507520847
F       3.4180964313      7.5959689359     -1.0192897864      1.0218563622      0.7327026942      0.2928216736     -0.4488843321
F       1.3717637559      7.4735377714     -1.6641914944     -0.6421158894      0.7296909556     -0.2809917585     -0.4520796352
