49
Properties=species:S:1:pos:R:3:forces:R:3:charge:R:1 energy=-271.4043477143781 homo_lumo=3.2794467359342474 dipole="-1.922321105959927 -1.255813092811869 -0.4348185661431361" free_energy=-271.4043477143781
N      -1.1870186916      0.4083357850     -0.1831012677     -0.0068399607     -0.1679136068     -0.2120340935     -0.4961829247
C      -2.2654258653      0.4033333312     -1.2205406716     -0.6360100965      0.1932946918      0.1023383821      0.0080138237
C      -1.4099075900     -0.7424384377      0.7495906487     -0.4314137725     -0.0785962940      0.4497689106     -0.0051287792
C       0.1314273099      0.2208696398     -0.9130823190      0.4700771920     -0.2663717318      0.1496418814     -0.0295197466
C      -1.1492426393      1.6984844257      0.6046430000     -0.1512295166      0.5557510321     -0.0615354601     -0.1199775057
C      -3.6619912796      0.4729218576     -0.6159427963      0.2568209886     -0.4307983464      0.0013578665     -0.1610387046
C      -2.8066869220     -0.7773684308      1.3637180577      0.0016262050     -0.0492302600     -0.4994370007     -0.1449989011
C      -3.8953928561     -0.7312308330      0.2938735792      0.2195532189      0.3889649914      0.1668825524     -0.1470558070
C       1.2728081435     -0.3263871520     -0.0610533169     -0.1289585194      0.2045888712     -0.5170268832     -0.2164669271
C      -1.3130125174      2.9619351762     -0.2245175506     -0.1735231273     -0.5413919516      0.0326503897     -0.0902355890
C       2.5856641213     -0.1891356449     -0.8429382748     -0.1162640344     -0.1952338603      0.6020967972     -0.1540844637
C       3.7776322555     -0.5561360100      0.0439733770      0.0649843871      0.2356795395     -0.8004218655     -0.1654649657
C       5.1006193951     -0.3635600480     -0.7027302559     -0.0175910015     -0.2522693448      0.6740383433     -0.1993223715
C       6.2959127821     -0.7114785654      0.1831965045     -0.2187614813      0.1323890181     -0.3868261232     -0.0427203420
H      -2.1630093376     -0.5273963281     -1.7861672119      0.0928531784     -0.2087715250     -0.1102893896      0.1176233814
H      -2.0813883632      1.2408283212     -1.8946150952      0.1600510306      0.1572102275     -0.1560741569      0.1443504673
H      -0.6634642873     -0.6684308454      1.5416062135      0.2641192280      0.0185532972      0.0675653614      0.1595173310
H      -1.2361583178     -1.6569478914      0.1755157958      0.0967808230     -0.1783811542     -0.1739207177      0.1218814156
H       0.4138488418      1.2067888283     -1.2899842212      0.1382707906      0.2887988440      0.0768234460      0.2014315255
H      -0.0580499092     -0.4512097746     -1.7547829129     -0.1882266262     -0.2082184473     -0.1787411573      0.0820233279
H      -1.9349349696      1.6516484151      1.3598564237     -0.1971482035     -0.1312159676      0.1246665210      0.1139088643
H      -0.1691561902      1.7289718688      1.1087996111      0.3940547325     -0.0052493632      0.1406716560      0.2485785635
H      -4.3830611085      0.4681267036     -1.4374362785     -0.1895671362      0.0975210856     -0.2422850448      0.0905805727
H      -3.7975199450      1.4005082466     -0.0551460119     -0.0422295893      0.2844788855      0.1074860039      0.1150067333
H      -2.9396373586      0.0513206179      2.0636564008     -0.0161128776      0.1604973592      0.2211768018      0.0965420789
H      -2.8852036394     -1.7060803419      1.9352061127      0.0407013371     -0.2020772925      0.2429595439      0.0993602805
H      -4.8765286230     -0.6566677683      0.7686227673     -0.2995830604     -0.0767511021      0.0887958024      0.0793671325
H      -3.8722018755     -1.6508555906     -0.3000709743     -0.0256719062     -0.2590442383     -0.1640109868      0.0771708390
H       1.3578056864      0.2489944004      0.8645238955      0.0608348053      0.3034144575      0.2016575308      0.1732435751
H       1.1040211394     -1.3787404170      0.1888606609     -0.0111948139     -0.3046977704      0.0369420722      0.0606302875
H      -0.5907177561      3.0015854399     -1.0367337222      0.3274499640      0.1178158162     -0.1268062463      0.0694208456
H      -2.3228966146      3.0801772178     -0.6180728278     -0.3799107157      0.0898510621     -0.0799527917      0.0198809196
H      -1.1015055103      3.8002657061      0.4387950733      0.1268317339      0.2573508635      0.1562250660      0.0746427905
H       2.6897367248      0.8464876066     -1.1795607676     -0.0173321258      0.2627943168     -0.0287835337      0.1389522769
H       2.5619013774     -0.8353158974     -1.7284142141      0.0430124012     -0.2001094644     -0.2643510365      0.0460326914
H       3.6882956274     -1.5986087838      0.3717065672      0.0062304611     -0.2884786252      0.1394719900      0.0586420014
H       3.7677298345      0.0772498736      0.9368375385     -0.0414092709      0.1663749478      0.2473702983      0.1177940298
H       5.1129938834     -0.9970778221     -1.5968227437     -0.0224692883     -0.1052806845     -0.2748419581      0.0663084852
H       5.1833224737      0.6780995397     -1.0299712478     -0.0358596318      0.2562339646     -0.1362863280      0.0942791812
H       6.2467550390     -1.7542091803      0.5014631420      0.0236318271     -0.3143557781      0.1296186283      0.0177869842
H       7.2264963695     -0.5592672934     -0.3645854004      0.3752047040      0.0088295098     -0.0726802238      0.0216275512
H       6.3083451275     -0.0785812361      1.0715881118      0.0377812902      0.1667755516      0.2905044318      0.0315424110
C       3.2372313288      3.7583822976      1.0060704086     -0.4795937049     -0.3188510261      0.0074987491     -0.0793263329
C       2.0288518642      2.8313287684      0.7319017013      0.8398018637      0.8228074477     -0.0098209541      0.9227356847
O       1.6214280433      2.7838073961     -0.4496523636     -0.2325638053      0.0577555000     -1.2127745593     -0.8509156388
O       1.5726460559      2.1960415863      1.7079645141     -0.4612553166     -0.6917528769      1.2613867835     -0.8382306151
H       4.1391429387      3.2521876343      0.6614250393      0.3382613555     -0.1002395104     -0.1198586374      0.0345673494
H       3.1237446089      4.6863790118      0.4486630413      0.0426667391      0.2859651378     -0.2263733304      0.0217923168
H       3.3251162105      3.9635628366      2.0710044255      0.0991193260      0.0615838036      0.3355366690      0.0154338961
