35
Properties=species:S:1:pos:R:3:forces:R:3:charge:R:1 energy=-199.91360984662285 homo_lumo=0.015910993424405735 dipole="-2.683485174738053 3.981570495488892 1.0557870621560264" free_energy=-199.91360984662285
N       1.0199799748      0.3336037136      0.4626444460      0.0321959313     -0.4777665569      0.3356773140     -0.5148371116
N      -1.0007254411      0.3533379454     -0.4650947874     -0.1824006621     -0.5460107105     -0.3914846491     -0.5186518203
C       2.2652799247     -0.1523089472      1.0542961989      0.7002454110     -0.0460680592      0.2123853467     -0.0263990462
C      -2.2528619217     -0.1075880038     -1.0621834225     -0.5747628786      0.0277757704     -0.1641545847     -0.0177063212
C       0.0043508138     -0.4170098775     -0.0058601703      0.0416624415     -2.5943190557      0.0403826141      0.4939182815
C       3.4447772620      0.0424234253      0.0953239965      0.0934732152     -0.1250398507     -0.2326500843     -0.2337894738
C      -3.4299266722      0.0960739154     -0.1019257722     -0.0962432021     -0.1305152443      0.1658192775     -0.2297109188
C       0.6460958953      1.6183796705      0.2939986802     -0.7991015381      1.6372194173     -0.3563468717      0.2190313599
C      -0.6090590383      1.6306034186     -0.2809165806      0.8233145094      1.7500603736      0.3756325167      0.2115384495
C       3.2762923135     -0.7676516904     -1.1895408472      0.0088896297      0.0119046769     -0.0864035252     -0.1257482715
C      -3.2781537587     -0.7344592380      1.1718627477     -0.0276883433      0.0658572499      0.1475240859     -0.1066836612
H       2.1714085695     -1.2308128892      1.3108762002     -0.2313719048      0.3651748772     -0.1736627405      0.1351408554
H       2.4616858797      0.3980840868      1.9997939884     -0.3010552572     -0.0800846990     -0.2072531191      0.1131575111
H      -2.1751353895     -1.1847220998     -1.3295077524      0.2663038132      0.3783370830      0.1456601979      0.1235210550
H      -2.4401217298      0.4549861392     -2.0023220365      0.2802602355     -0.1011334847      0.2021350183      0.1195907626
H      -0.0031117216     -1.4999152077     -0.0123854052      0.0367417157     -0.0003157223     -0.0291213121      0.0938171665
H       3.5538769714      1.1193259119     -0.1571418692      0.0378371242     -0.1846451036      0.1916757915      0.0974289700
H       4.3758946648     -0.2865266563      0.6053876400     -0.2795071931      0.1664026293      0.0500872386      0.1188727854
H      -3.5196246210      1.1711787402      0.1650872302     -0.0383330477     -0.2094502723     -0.1726959065      0.1083816470
H      -4.3664009741     -0.2086729053     -0.6172259991      0.2663260813      0.1855635403     -0.0392509675      0.1100465037
H       1.2378530867      2.4812430784      0.5710266223      0.1799361920     -0.0941824183      0.0749145264      0.0458961962
H      -1.1890048669      2.5047993091     -0.5472728329     -0.1684995532     -0.0869083659     -0.0867140563      0.0438108351
H       2.4234989567     -0.3771966710     -1.7842796251      0.2225811072     -0.2037616108      0.0830408736      0.0557880502
H       3.0974632850     -1.8383169666     -0.9536665047      0.0850282477      0.2243015881     -0.2128524697      0.1048730147
H       4.1978966678     -0.6878635363     -1.8033068127     -0.3485026755     -0.1130819329      0.0985931352      0.0705540641
H      -2.4132045973     -0.3747698509      1.7684660149     -0.2327734888     -0.2118935247     -0.1014324355      0.0706136272
H      -3.1292948169     -1.8064195269      0.9207715499     -0.0419610148      0.2672591507      0.1614068933      0.0528210779
H      -4.1951267444     -0.6384469015      1.7902746504      0.3324711135     -0.0976364664     -0.0913648020      0.0683639165
C       4.2513510021     -4.8592009118      0.4228038436      0.2296042380      0.4558939687      1.1476741125     -0.2225453402
C       4.1606855839     -5.5802202749     -0.8845967778      0.1732179093      0.3637094909      0.7730230361      0.8885755367
O       3.2551515991     -5.3224078490     -1.6611074701     -3.4092555009      1.7208876885     -1.7918429882     -0.7409214192
O       4.9893454900     -6.4264728693     -1.1800632515      3.0700192281     -2.4477950544      0.0396486477     -0.7066001738
H       4.3894923424     -3.7729145472      0.2405584724     -0.0948513077     -0.1920500821      0.1088701974      0.0431920068
H       3.3169557282     -5.0171706028      1.0015160028      0.1958636336      0.1541994673     -0.1061824711      0.0217368642
H       5.1106447993     -5.2348927572      1.0187701632     -0.2496642097      0.1681112424     -0.1107378398      0.0329230205
