46
Properties=species:S:1:pos:R:3:forces:R:3:charge:R:1 energy=-256.27749872776104 homo_lumo=3.9832514272239306 dipole="-1.3602411661698461 0.3153161302912587 -2.3791755034491104" free_energy=-256.27749872776104
N       1.2016881055     -0.6312463863     -0.9430238032      0.0024778613     -0.0009840897      0.0025788621     -0.4820879396
C       1.5617619126     -0.1530556522     -2.3295072446      0.0048751727     -0.0009281828      0.0040317754      0.0112185662
C       2.1944663680     -1.7665641921     -0.7196714628      0.0050227239     -0.0037207883      0.0013715176     -0.0307754033
C       1.4538622728      0.4404406206      0.1065917856     -0.0022119140     -0.0050447139     -0.0008813111     -0.0894598996
C      -0.2210148602     -1.1291157729     -0.9023527393      0.0007744459      0.0043715862      0.0021213818     -0.0032892196
C       3.0879301659     -0.1762115777     -2.3676156581      0.0073379626     -0.0013300268      0.0006556920     -0.1557438673
C       3.4974316373     -1.2645845084     -1.3386348353      0.0090961107      0.0075595161     -0.0022332722     -0.1530370897
C       0.5836343655      1.6761499971     -0.0123076594      0.0036178524     -0.0104384356      0.0042059091     -0.2193992703
C      -0.6728705234     -1.5914900319      0.4725790364      0.0040201222      0.0018678983     -0.0034986932     -0.2298021655
C       0.8908181612      2.6265739660      1.1505848981     -0.0012268013     -0.0066137121     -0.0054685416     -0.2056149009
C      -1.9501336070     -2.4277068367      0.3778785762      0.0065108868      0.0060202082      0.0039037943     -0.2036261771
C       0.0574776521      3.9034093677      1.0915320341      0.0034995329     -0.0042117594      0.0014433599     -0.0677509764
C      -2.4183320774     -2.8902278745      1.7555087866     -0.0038415921      0.0003796479     -0.0025941206     -0.0687732245
H       1.0993518888      0.8244243346     -2.5153452783     -0.0006015867     -0.0068134688     -0.0058367828      0.1211139607
H       1.1332879016     -0.8927366485     -3.0240014950     -0.0076764991      0.0088853318      0.0001897159      0.1174346328
H       1.7799200451     -2.6340629307     -1.2563068053     -0.0009008699     -0.0044077643      0.0054221765      0.0915221514
H       2.2623307991     -1.9513860278      0.3694531133     -0.0030748399     -0.0035848503      0.0058069745      0.2120115167
H       1.3285729801     -0.0750466419      1.0720734210      0.0125856871      0.0072083242      0.0045572165      0.2488290279
H       2.5229831044      0.6864931143      0.0491692715     -0.0016729776     -0.0084058995      0.0155311974      0.1962459132
H      -0.8574568350     -0.3182840095     -1.2897854970     -0.0094321650     -0.0077636873     -0.0033805835      0.1220656270
H      -0.2588672265     -1.9613811175     -1.6245414936     -0.0073479195      0.0019780118      0.0016111690      0.1173253051
H       3.4347906082     -0.4018894456     -3.3863829414      0.0037656339      0.0108200561     -0.0018745145      0.0905306760
H       3.5029241787      0.8043165327     -2.0906112195      0.0022361199     -0.0028875224      0.0021810784      0.0878646060
H       4.1291833821     -0.8540315894     -0.5357745577      0.0108361489     -0.0058742497      0.0002535526      0.1396901548
H       4.0367748517     -2.0979845533     -1.8113438086      0.0013678234      0.0086166507      0.0051980480      0.0813405218
H       0.7604572145      2.2099977342     -0.9637977903     -0.0147451335     -0.0037707425      0.0074938718      0.0887319308
H      -0.4882537851      1.4121464836      0.0216945047      0.0030806297      0.0130729318     -0.0041921437      0.1009293779
H       0.1233227448     -2.1746596267      0.9630951632     -0.0034892614      0.0038011333      0.0130349537      0.1770355285
H      -0.8539770159     -0.7209446236      1.1249161827      0.0021733344     -0.0094819283      0.0047238340      0.1239339529
H       1.9667935295      2.8745385862      1.1390287776     -0.0066953752      0.0030812065      0.0074626589      0.1027381070
H       0.7093974986      2.0968820499      2.1020042569      0.0065663146      0.0070528975      0.0011250567      0.1150121482
H      -2.7478742222     -1.8414363018     -0.1149941668     -0.0017320291     -0.0120183653     -0.0027211185      0.0782733993
H      -1.7606449862     -3.3071472096     -0.2650402479     -0.0111677088      0.0076551793      0.0018543937      0.0823740273
H      -1.0201592900      3.6757545898      1.1289816112      0.0008329571     -0.0038090277     -0.0083641336      0.0323177979
H       0.2525210103      4.4630714220      0.1621467470     -0.0054456306     -0.0054063220     -0.0032824725      0.0304255594
H       0.2877320376      4.5682389382      1.9373901375      0.0099237831     -0.0116561664     -0.0001879174      0.0496023622
H      -2.6379591515     -2.0280885884      2.4042901879     -0.0048969263      0.0025511518      0.0030112281      0.0422222424
H      -1.6362039551     -3.4856765938      2.2512140144      0.0002772176      0.0017129605      0.0015043027      0.0543379335
H      -3.3275471229     -3.5057264716      1.6875428305     -0.0007686150      0.0051801630     -0.0167605032      0.0387693652
C       3.1915960794     -1.0410745782      2.5721281141     -0.0087118371      0.0000443188     -0.0133266487      0.8855027017
O       2.0799623513     -1.6086674980      2.3691499079      0.0061262080     -0.0048562120     -0.0038590806     -0.8374007444
O       3.9943500592     -0.5167405458      1.7684497370     -0.0117612460      0.0006721891     -0.0011025161     -0.8032101215
C       3.5711800730     -0.9406679653      4.0895693705     -0.0027398832      0.0070187003     -0.0068210479      1.2945968657
F       2.8271452744      0.0523968292      4.6927443826      0.0019088019      0.0111058468     -0.0036478435     -0.4679569326
F       4.8809183082     -0.6354271756      4.3069964647      0.0036296186     -0.0006650872     -0.0056856804     -0.4569430261
F       3.3152426934     -2.0969045666      4.7741181207     -0.0024021379      0.0040170923     -0.0055547949     -0.4591250011
