52
Properties=species:S:1:pos:R:3:forces:R:3:charge:R:1 energy=-280.8201075576236 homo_lumo=3.3588924487486422 dipole="0.4637845899317414 0.804418317781724 2.1025854628833827" free_energy=-280.8201075576236
N      -0.1739317450      2.0409399600      0.1452677123     -0.0040687078     -0.0088283586      0.0008741695     -0.4788555431
C      -0.8715887642      2.9428830409     -0.8642827472      0.0020370118      0.0008221462      0.0003017122     -0.0275633521
C       0.4062007841      3.0219428628      1.1365725037     -0.0074022664      0.0012096044     -0.0031296113      0.0145839675
C      -1.1553263797      1.1185417393      0.8275227368     -0.0052531571      0.0027842113      0.0110273699     -0.0085980151
C       0.9327413096      1.2731309183     -0.5662410485      0.0142417170      0.0102349817      0.0009268290     -0.0712824656
C       0.0702724809      4.1325869254     -1.0217540950     -0.0035644616     -0.0044160333      0.0077279397     -0.1418061738
C       0.8890353504      4.2074403841      0.2962471845      0.0020364159     -0.0061162199      0.0001136958     -0.1571072945
C      -1.8339748216      0.1284133782     -0.0975825831      0.0051100834     -0.0051412448     -0.0041989646     -0.2108154870
C       1.6175773563      0.2168636494      0.2786853619     -0.0006048783     -0.0018611423      0.0025186300     -0.2167258133
C      -2.8427444793     -0.7219452619      0.6726143376      0.0012296478      0.0020624503      0.0056485596     -0.1586560756
C       2.7754173127     -0.3972087862     -0.5127875430     -0.0035467019      0.0001577569     -0.0033201767     -0.1579494756
C      -3.5520177428     -1.7251756855     -0.2357007045      0.0000480075     -0.0006660091     -0.0021374120     -0.1653916176
C       3.4924642485     -1.5028747047      0.2571162203     -0.0017943775     -0.0034649894      0.0008857598     -0.1635495161
C      -4.5637931157     -2.5945045124      0.5066282258     -0.0010805885      0.0014511243      0.0075371414     -0.2023142248
C       4.6464046848     -2.1251186107     -0.5263178489     -0.0014928553      0.0022876026     -0.0065627112     -0.2036215697
C      -5.2641807042     -3.5958826214     -0.4091946236      0.0018597927      0.0021574993     -0.0046538133     -0.0649551281
C       5.3578048709     -3.2322673272      0.2474487538     -0.0048791835      0.0014895122      0.0035514840     -0.0653331963
H      -1.0374486860      2.3501758661     -1.7990958107      0.0017512498      0.0091976113      0.0016836656      0.1887302395
H      -1.8263124834      3.2328342095     -0.3981495777      0.0052523731      0.0091863855      0.0119519325      0.0954217837
H      -0.4188460859      3.3105910426      1.8056581753      0.0024655726      0.0156646970     -0.0096887411      0.1141278544
H       1.1856944708      2.5231927992      1.7268329992     -0.0009234110      0.0112191134      0.0008209293      0.1254744355
H      -0.6030878339      0.6096815156      1.6336385476      0.0084161973     -0.0016486453     -0.0070485877      0.1250950579
H      -1.8983637744      1.7822877686      1.3009718413     -0.0038678040     -0.0033205167     -0.0101406001      0.1103062264
H       0.4618384539      0.8552322238     -1.4912794716      0.0074742834     -0.0026514090      0.0055293437      0.2104699379
H       1.6571136573      2.0338710972     -0.8941126524      0.0039604764      0.0012357584      0.0193089921      0.1533103992
H       0.7267195508      3.9820036109     -1.8921884144      0.0032810982     -0.0148875729      0.0089104454      0.0970061508
H      -0.5045558112      5.0513161188     -1.2062664537     -0.0024388539     -0.0036416086      0.0040747996      0.0942370982
H       0.7205776084      5.1463468776      0.8438715704     -0.0082493539      0.0013997916     -0.0085629373      0.0936060957
H       1.9690491907      4.1402662097      0.0983984857     -0.0051194916     -0.0119324703     -0.0065602317      0.0829786334
H      -2.3238272095      0.6519754235     -0.9351517502     -0.0058449693     -0.0041585402      0.0101448020      0.1498730952
H      -1.0937409821     -0.5186366996     -0.5938524161      0.0018161914     -0.0076113551      0.0195720585      0.1456235851
H       2.0095431910      0.6258142564      1.2291431767      0.0016855714      0.0046170982      0.0014483620      0.0766730865
H       0.9097277590     -0.5878542343      0.5402466989      0.0001547906      0.0005808115     -0.0137933344      0.1149436903
H      -2.3339565456     -1.2667652741      1.4915737002      0.0089308815     -0.0053756392     -0.0051433425      0.0713871402
H      -3.5966204496     -0.0711268827      1.1559378517     -0.0021733686      0.0081547570     -0.0111040241      0.0701039796
H       3.5001184542      0.3943665138     -0.7782794412      0.0030386486      0.0052884734      0.0000080962      0.0819428961
H       2.3831852404     -0.7931305371     -1.4664038836      0.0010436808     -0.0049514041     -0.0040045751      0.1170752005
H      -4.0564451477     -1.1790415252     -1.0535260573     -0.0046958916      0.0003483269      0.0025507849      0.1029077997
H      -2.7974996464     -2.3675926321     -0.7253392646     -0.0004593666     -0.0047832423      0.0036708780      0.0983547563
H       3.8766666822     -1.0996162740      1.2140101274     -0.0006059020      0.0036726211     -0.0036599449      0.0759871952
H       2.7659343886     -2.2935701888      0.5233940789     -0.0048950147     -0.0060151239     -0.0059221149      0.0857896816
H      -5.3156853486     -1.9445585157      0.9916544134     -0.0028153285     -0.0007316397     -0.0061512507      0.0778961157
H      -4.0496097571     -3.1344637967      1.3237649469      0.0002106440     -0.0044189273     -0.0058604505      0.0771543539
H       4.2585636860     -2.5249789105     -1.4806931900      0.0000936752     -0.0054973745      0.0018668041      0.0925542465
H       5.3696644982     -1.3334297359     -0.7952324905      0.0010548132     -0.0031781333      0.0052604895      0.0835881500
H      -5.8061078808     -3.0771296580     -1.2163226680     -0.0022448600      0.0035327750      0.0034234469      0.0379038852
H      -5.9887106803     -4.2129211324      0.1436649050     -0.0043429415     -0.0019488259      0.0026726670      0.0321275152
H      -4.5339913932     -4.2714398801     -0.8829536225      0.0000363040      0.0002708414      0.0035604796      0.0363564241
H       4.6597424787     -4.0465754895      0.5007249976     -0.0023496244      0.0014918281     -0.0040877523      0.0340884348
H       6.1829779646     -3.6664578616     -0.3370512662      0.0027446784     -0.0011072943     -0.0022955263      0.0382487593
H       5.7779551707     -2.8476915036      1.1912745621     -0.0008340664      0.0028103316     -0.0030061190      0.0300426690
Cl     -0.8016839780      0.7199949389     -3.2839894989      0.0055736192      0.0150256093     -0.0165400461     -0.7414455919
