36
Properties=species:S:1:pos:R:3:forces:R:3:charge:R:1 energy=-204.55346506178614 homo_lumo=2.8855894748489743 dipole="-1.2323287743574847 2.117791718203452 -0.6297918036369387" free_energy=-204.55346506178614
N       1.4450407276      0.0238164808      0.6554371520     -0.0002195538     -0.0045070277     -0.0014520769     -0.5043869229
N      -0.2589393993     -1.1923106952      0.0765668075      0.0133549916      0.0019524517     -0.0053018982     -0.5115974196
C       2.5158961433      0.5135466236      1.5493027736      0.0028935674      0.0058240893      0.0106762446     -0.0039020388
C       3.6804651430      1.1348912590      0.8040329767      0.0133371901      0.0027642394     -0.0118667043     -0.2215325992
C       3.3870575791      2.4852011969      0.1493573087      0.0034025999      0.0040323701     -0.0036178783     -0.2279933309
C       0.3969255826     -0.6681119602      1.1165994193      0.0106031475     -0.0031260929      0.0027274536      0.6275326369
C       1.4762262759     -0.0917372706     -0.7194346789      0.0032941200      0.0005141753     -0.0038826188      0.2179332629
C       0.4002801931     -0.8446589943     -1.0835524239     -0.0015899673      0.0034757516     -0.0042658514      0.2254124859
C      -1.4293917069     -2.0649675482      0.1972239510     -0.0058256312      0.0044456954     -0.0064405620     -0.0665462839
C       4.5863810642      3.0114863477     -0.6342610628      0.0006651203      0.0032636846     -0.0053412471     -0.0677382855
C      -2.7268134638     -1.2722610284      0.1851806204      0.0026902578     -0.0006755041      0.0012507741     -0.0683875118
H       2.0588457766      1.2397890735      2.2409672866      0.0005525275     -0.0051938501     -0.0029221615      0.1024638704
H       2.8563716128     -0.3750066392      2.1009016460      0.0166158326      0.0047479367      0.0001133524      0.1615550051
H       4.0695179620      0.4003455295      0.0763200223      0.0014391123      0.0069821187     -0.0037903490      0.1294653294
H       4.4879449462      1.2624802391      1.5456699245      0.0143689765      0.0051248974     -0.0026637153      0.1233993454
H       2.5111197883      2.4141126740     -0.5191579276      0.0000948731      0.0106204167      0.0074131022      0.1033958613
H       3.1064865210      3.2091826272      0.9357819998      0.0003220019      0.0090872707      0.0106639196      0.0897887708
H       0.1650007050     -0.8388327504      2.1583619690      0.0165787755     -0.0096490436      0.0002865638      0.0994985881
H       2.2726992884      0.3236762675     -1.3174966935      0.0016462037      0.0047769094     -0.0094024242      0.0648007766
H      -1.3755963076     -2.7801913771     -0.6346078960      0.0070934733      0.0010020597     -0.0113436367      0.1295789985
H      -1.2835125968     -2.6415162664      1.1231706091     -0.0006263370     -0.0102780795     -0.0070593831      0.1470564411
H       0.0746258860     -1.1957378147     -2.0539407829     -0.0014388781      0.0150785531     -0.0069880535      0.0351661981
H       4.8662178356      2.3143155762     -1.4404352564      0.0039855585      0.0083649063     -0.0013131477      0.0410326769
H       5.4633661059      3.1275846497      0.0220981694      0.0088929659      0.0033944121     -0.0001249890      0.0423710700
H       4.3723902785      3.9890743460     -1.0906968317      0.0007780845      0.0093631698      0.0018837116      0.0400110117
H      -2.7688573094     -0.5693569926      1.0305036302      0.0058871982     -0.0011992552      0.0058770022      0.0534258029
H      -3.5817783027     -1.9589321814      0.2661475143     -0.0022268992     -0.0017823641      0.0025937471      0.0597900649
H      -2.8309435003     -0.6987405471     -0.7478975912      0.0038892089      0.0049034877     -0.0015394369      0.0535061374
S       2.4057084440     -3.4350465010      1.3858928902     -0.0180562656     -0.0164620547      0.0102628143      1.7447190598
O       1.1441014070     -3.0460999638      2.0708698025     -0.0237335235     -0.0203655639      0.0057158641     -0.8190608070
O       3.3438098686     -4.2220411265      2.1834054782     -0.0273741445     -0.0206953098      0.0149948579     -0.7505421865
O       2.9876059403     -2.3578628468      0.5573396539     -0.0072739059     -0.0157759537      0.0207714992     -0.8083815089
C       1.8000602605     -4.6544976843      0.0893936269     -0.0113223461      0.0030223095      0.0027967840      1.1181010408
F       0.8862383202     -4.0676632576     -0.7609502092     -0.0105669601     -0.0027323670     -0.0077326549     -0.4754366991
F       1.1835759735     -5.7230148895      0.6580018287     -0.0142220409     -0.0028702155     -0.0073945540     -0.4435492969
F       2.8174321210     -5.1154353960     -0.6802409437     -0.0079093339      0.0025717764      0.0064156518     -0.4409495440
