38
Properties=species:S:1:pos:R:3:forces:R:3:charge:R:1 energy=-204.7985944189345 homo_lumo=1.1986259454516306 dipole="-5.813112961815937 -0.041501380745300805 -0.7199677099280154" free_energy=-204.7985944189345
N       0.2545364518     -0.1123450640     -0.1941592663     -0.0154479638     -0.1613674232     -0.3316955875     -0.5270386221
C      -0.6060704049      0.7065977657     -1.1079257862     -1.2241522372      1.0395478745     -0.8125040345     -0.0257961862
C      -0.5103888228     -1.3314835304      0.2270493273     -1.0817562479     -1.2517009534      0.7923165509     -0.0299350992
C      -1.9709502181      1.0873761347     -0.5097975265      0.0460698773     -0.0437003876      0.0263871801     -0.1787139276
C      -1.8920314141     -1.0274083207      0.8404597857      0.0076682959      0.1634029408     -0.0458700516     -0.1689345796
C       0.6749105564      0.6636139811      1.0247488780      0.6856760641      1.1417598580      1.2655228196     -0.1002196057
C       1.4420848913     -0.5503558008     -1.0041671351      1.8373981311     -0.8594908004     -0.6967004416     -0.0980355323
C      -2.7367721488     -0.1629818213     -0.0902090509     -0.3095031321      0.0595655321      0.1739983668     -0.1678620404
C       1.5505966386      1.9027708438      0.7602403409     -0.0445098694     -0.2015510874     -0.2878928578     -0.1344714862
C       2.5030316485     -1.3682279964     -0.2456373313     -0.3548672308      0.1913255356      0.1840916542     -0.1287640726
H      -0.8131206542      0.1405385191     -2.0465013038      0.3791790348     -0.1728138213      0.5052702017      0.1501801124
H      -0.0874818586      1.6317408332     -1.4353720448      0.2498580440     -0.4470782034      0.3537882919      0.1620628897
H       0.0557583920     -1.9144243085      0.9852773444      0.2072140429      0.4442344081     -0.4290516710      0.1673636749
H      -0.6733084260     -2.0091558353     -0.6428296429      0.3307826312      0.5327594716      0.0560488817      0.1458233426
H      -2.5631927618      1.6264937167     -1.2803229462      0.3541992706     -0.0258812487      0.1296807183      0.1208119155
H      -1.8555184433      1.7807448061      0.3484364403      0.0084031800     -0.1126901902     -0.1670251200      0.1128028775
H      -1.7866402627     -0.5350635343      1.8295320496      0.0189133503     -0.1206005903     -0.1877138822      0.1100493379
H      -2.4245537343     -1.9870706653      1.0162690394      0.3632191818      0.1461069500      0.0217452816      0.1246280985
H      -0.2026936591      1.0169346986      1.5995457621     -0.1248706582     -0.3745169142     -0.5146980319      0.1721860248
H       1.2209817677      0.0061129083      1.7353799332     -0.1852142591     -0.1751147871     -0.6068988361      0.1728301237
H       1.1114599210     -1.1737814338     -1.8666949643     -0.4675666240      0.3454958689      0.4350133252      0.1437889186
H       1.9507254592      0.3247426104     -1.4655149121     -0.4625792346      0.0043525199      0.3992128442      0.1697490505
H      -3.6747430207      0.1324434107      0.4276914381      0.1677294598     -0.1531046631     -0.2344761620      0.1029562883
H      -3.0128175443     -0.7507398364     -0.9934543923      0.0181797283      0.1382206985      0.1857054569      0.0964801080
H       1.8110274529      2.3685163196      1.7341159152     -0.1143617555     -0.2566039357     -0.2428233233      0.1017529306
H       2.5048711710      1.6418115362      0.2619474303     -0.1897395877      0.1446289658      0.1549801614      0.1187906063
H       1.0090353795      2.6689091211      0.1711781563      0.1851481544     -0.1707264467      0.0995320314      0.0592617900
H       3.3032000681     -1.6586664344     -0.9582545619     -0.1087129167      0.2787113890      0.2872526101      0.1240028944
H       2.9779960336     -0.7749496072      0.5604101315      0.1387835900     -0.2819542996     -0.3053376005      0.1210123091
H       2.0839129222     -2.3050722678      0.1706597208      0.0902659117      0.2133846380     -0.0642434647      0.0456906874
S       6.8661960061      0.0616076364      0.1553806019     -3.7813319762     -1.0356092816      9.8124520003      1.5658118075
O       5.6671626386     -0.8949439933      0.2008034645      1.1058379108      0.4508137453     -2.7825811786     -0.8039693914
O       7.7922308525     -0.4930182657      1.2478305930      0.7136592882      0.5950178586     -3.3231887001     -0.7504293462
O       6.3113663510      1.3482375072      0.7846877617      1.2315012978     -0.1158784994     -2.9941747428     -0.7757880542
C       7.6285877083      0.2603099801     -1.4788529715      0.5098771639      0.0261487468     -0.4845797690      1.1077801214
F       6.7127812567      0.8190085092     -2.3500870385      0.7936565741     -0.3497565073      0.1524356360     -0.4429804966
F       8.0232899436     -0.9752317526     -1.9557350176     -0.1593916109      1.0627506083     -0.0282416739     -0.4331371068
F       8.7304675759      1.0877165341     -1.3752366616     -0.8192148784     -0.6680875692     -0.4957368833     -0.4297403628
