23
Properties=species:S:1:pos:R:3:forces:R:3:charge:R:1 energy=-136.2257519652448 homo_lumo=3.4070845996814487 dipole="0.4866963258799205 1.0702126190039996 -1.054286774085702" free_energy=-136.2257519652448
N       0.9620103028      0.2535764366     -0.1759137240      0.4528425114      0.0311791944     -0.0621661664     -0.5362004656
N      -1.1594333392      0.3907771082     -0.0726679431     -0.4965177107      0.0152621894      0.0200687163     -0.5488036847
C      -0.1103118973     -0.2539348581      0.4473353841      0.1261408535     -0.3124563479      0.2983605067      0.3943158068
C       0.5957303991      1.2150263366     -1.0845640896      0.0896025310      0.2125069455     -0.2137676878      0.2026832081
C      -0.7565246056      1.3012741732     -1.0174818734     -0.0137616951      0.2235854694     -0.2206618812      0.2078928693
C       2.3241973715     -0.1730497969      0.0875424258     -0.0231559809      0.0436654428     -0.0216078803      0.1269134072
C      -2.5403135851      0.1559938907      0.3121404302     -0.0990953561      0.0377505373     -0.0209397213      0.0986029022
H       0.0077829057     -1.1785659382      1.3301436794     -0.1589683499      0.0897360987     -0.0635693708      0.2781064621
H       1.3090604407      1.7465931011     -1.6902724221      0.1680342749      0.1334525697     -0.1547481323      0.0178494153
H      -1.4501460240      1.9243971375     -1.5551795584     -0.1725231264      0.1474074939     -0.1244634714      0.0194909100
H       2.2989199990     -0.9425733777      0.8581750710     -0.0219389375     -0.1691374571      0.1698364711      0.0932703878
H       2.7657833941     -0.5776167387     -0.8245507362      0.0930022182     -0.1237820494     -0.1953528760      0.0442953036
H       2.9160223716      0.6764886056      0.4317612002      0.1233614938      0.1768171461      0.1095671660      0.0443997603
H      -2.9576275319      1.0656658245      0.7461047212     -0.0790356609      0.2332911746      0.1050248297      0.0263604080
H      -3.1197559266     -0.1281070658     -0.5670680961     -0.1097157426     -0.0715015253     -0.2243539037      0.0262261645
H      -2.5528975179     -0.6505249172      1.0471314934      0.0894106908     -0.2938959429      0.2573670791      0.1444358771
C      -0.6761562647     -3.6488536734      3.7017304302     -0.1602198144      0.3139632517     -0.3771281683     -0.1060460287
C      -0.8197711971     -2.5401950477      2.6556608543      0.3995526818     -0.9471270610      0.7799491950      0.9387943281
O      -1.9327540427     -2.1372535232      2.3376304063     -1.5767872253      0.4753984225     -0.3326085603     -0.7970533170
O       0.2892896699     -2.1056483557      2.1834081981      1.2006946157      0.0816354286     -0.1047862450     -0.7899848812
H      -0.2804294073     -3.2137970182      4.6186484145      0.1691337030      0.0790793606      0.3228441905      0.0426394077
H      -1.6471396247     -4.0973118261      3.8996557526     -0.2710965594     -0.1301426036      0.1006230530      0.0366361671
H       0.0225103445     -4.4030115884      3.3446637720      0.2710405853     -0.2466877380     -0.0474871427      0.0351755918
