36
Properties=species:S:1:pos:R:3:forces:R:3:charge:R:1 energy=-195.97761657533076 homo_lumo=5.505030222934802 dipole="-3.007479505500997 0.8576432437378655 -0.5606327227006818" free_energy=-195.97761657533076
N       0.9242433319      0.2723168831     -0.2099154083     -0.2377765230     -0.1323972454      0.0800974023     -0.5071420711
C       1.7176632694      0.2803035479     -1.5027346275      0.4190867066      0.1779365171     -0.4276467182      0.0006102420
C       1.5087288040      1.3716251770      0.6510684003      0.3008309681      0.5656421969     -0.0051198751     -0.0132880535
C       2.8223719933      1.3147130754     -1.3328428984     -0.2077305708     -0.0465443586      0.1776445313     -0.1604763894
C       2.2656171889      2.2851257432     -0.2982534606     -0.1365520308     -0.2008963729     -0.0450123253     -0.1541676479
C       1.0812435289     -1.0434331921      0.5046226006     -0.1892024677     -0.6031773965     -0.1941707375     -0.1189085358
C      -0.5109861318      0.5755384580     -0.5292634161     -0.4675405579     -0.0442413741      0.4107227408     -0.0651246849
C       0.4767741704     -2.2318801292     -0.2244911667      0.0409689749      0.5043505917      0.1741677463     -0.0784414061
C      -1.4629464517      0.4871275822      0.6557726251      0.3628658653     -0.0368689073     -0.3409226837     -0.0772748251
H       1.0439350963      0.5473775518     -2.3191405394     -0.2528540826      0.0726663048     -0.0901014613      0.0972912130
H       2.1167774784     -0.7155785253     -1.6840206851      0.0207969151     -0.1482345678     -0.0248429376      0.1833341900
H       2.1895533895      0.9122787406      1.3674414655      0.1307992182     -0.1873814737      0.1207108848      0.2017699257
H       0.7105519994      1.8780191908      1.1909653297     -0.2267915541      0.0343627745      0.1431965592      0.1129808290
H       3.0496188963      1.8015510077     -2.2815138409      0.1451484817      0.0789676830     -0.2574410587      0.0612492281
H       3.7291031179      0.8370527947     -0.9529488861      0.2080702459     -0.0438361194     -0.0170940678      0.1997429653
H       3.0593282311      2.8117759417      0.2322658458      0.1605334064      0.1605244727      0.1444640550      0.1209510506
H       1.5936079398      3.0127482822     -0.7618894816     -0.1928494570      0.2267064016     -0.1255206319      0.0662086676
H       2.1539496350     -1.1993241771      0.6259931345      0.0934032286      0.1087343708      0.1208782302      0.2625472805
H       0.6333156202     -0.9282695784      1.4934654789     -0.0327688839      0.1198391028      0.2507441657      0.1322055730
H      -0.5270337122      1.5856542118     -0.9467589474      0.0904595788      0.2038423423     -0.1658753129      0.1436522514
H      -0.8261056910     -0.1255605282     -1.3053314999      0.0110322531     -0.1164170428     -0.2298289637      0.1446863990
H       0.7367868963     -3.1246683049      0.3437144537      0.0815255055     -0.2841231392      0.1228666007      0.0774634554
H      -0.6085928723     -2.1717503265     -0.2907775835     -0.3567710985     -0.0566527042     -0.0373752900      0.0371881927
H       0.8890963942     -2.3392808217     -1.2260387163      0.1325331374     -0.1271003468     -0.2914080545      0.0568104750
H      -2.4396126945      0.8366851285      0.3215685767     -0.3116786663      0.1009548199     -0.0602286795      0.0685905997
H      -1.5711368526     -0.5361695985      1.0095592185     -0.0723354206     -0.2905258837      0.1310507171      0.0627843635
H      -1.1432908979      1.1137371833      1.4862550988      0.0284317458      0.1907480045      0.2698657182      0.0545681641
N       5.4153526415     -0.3110349224      0.1038910353      0.0062745855      0.0617127128      0.0811384244     -0.8828413197
S       5.2380653497     -1.8457757990     -0.2718716578      0.1824082419      0.3196097313     -0.4842642828      1.9220288140
S       4.8335896614      0.1561043058      1.5044144930      0.3818037916      0.3874502573     -0.0440876557      1.9727147986
F       3.6490659050     -1.8562533125     -0.7964492887     -0.5434964364     -0.1418602225     -0.1965910250     -0.5105578230
F       6.0086579163     -0.1737459148      2.5481933212      0.5778737470     -0.2598839820      0.4467196040     -0.4514765898
O       5.9629300413     -2.0985042075     -1.4676411214      0.8410062323     -0.1941226706     -1.5114170772     -0.7157527725
O       5.2333898870     -2.8004903965      0.7828225774     -0.0878633762     -0.9802537937      1.4246384942     -0.7098683741
O       3.6913337979     -0.5567210423      2.0140220925     -0.9421200309     -0.8540523247      0.4569133471     -0.7726531771
O       4.7538834005      1.5858635856      1.4860659872      0.0424783272      1.4345216420     -0.0068703826     -0.7614050084
