52
Properties=species:S:1:pos:R:3:forces:R:3:charge:R:1 energy=-276.15009327011194 homo_lumo=2.808409175610084 dipole="-7.740419144166786 -4.301206778697991 -3.0551119746128115" free_energy=-276.15009327011194
N       0.0066259081     -0.0125267409     -0.0136740643     -0.2860815926     -0.0295897060     -0.0054712842     -0.5269291039
C       0.9134773430     -0.8673503809     -0.8393593006      1.0510578119     -1.7301605134     -1.4236919634     -0.0155884720
C       0.9207953594      0.8441129883      0.8029952175      1.1052351642      1.7354899293      1.4115610624     -0.0221481422
C       2.3199021196     -0.3135365621     -0.7242808284      0.3490688306      0.3172607366     -0.6604439046     -0.1430321339
C       2.3353670617      0.3220869456      0.6368304452      0.4542537044     -0.2769233765      0.6436022531     -0.1563573940
C      -0.8238671693     -0.8657076679      0.8964137529     -1.1943016311     -1.1087402828      0.8114501831     -0.0908832818
C      -0.8334973581      0.8388513957     -0.9168939566     -1.2131126805      1.1093915060     -0.8136269210     -0.0914795938
C      -1.8199651717     -1.7898945597      0.1725644420      0.1143022126      0.2486241051     -0.1639293756     -0.1216225329
C      -1.8330727244      1.7536902662     -0.1857998715      0.1198021732     -0.2541798424      0.1699222269     -0.1235649503
H       0.6138864871     -0.9217052197     -1.9109161048     -0.3147812786      0.1432663230      0.5829819825      0.1432422296
H       0.9517058563     -1.9183073611     -0.4700273112     -0.4919100188      0.5192389562      0.1603721467      0.1546776293
H       0.6521156062      0.8700543263      1.8838884657     -0.2983462026     -0.1339087605     -0.5807063035      0.1530756150
H       0.9269194439      1.9034376426      0.4568365821     -0.4768452903     -0.5232795834     -0.1411727253      0.1627219646
H       2.4864019525      0.4613765390     -1.5051854202      0.1008852017     -0.2968833726      0.1571197542      0.1111902251
H       3.0908966542     -1.1092964206     -0.8139655162     -0.3046501017      0.3197369524     -0.2055988248      0.1153764762
H       2.5486753417     -0.4471154555      1.4120500278      0.0911776611      0.3201002085     -0.1590013098      0.1097072161
H       3.0893409303      1.1354847342      0.6961223008     -0.2462135924     -0.2932966270      0.3009800859      0.1590446771
H      -0.1611084751     -1.5036843437      1.5256474399      0.1712766751      0.4888010402     -0.4177797771      0.1631891087
H      -1.3966630806     -0.2369092560      1.6130396931      0.3946341402      0.1237276250     -0.4114878475      0.1695625467
H      -0.1775492327      1.4830095894     -1.5469455937      0.1757104353     -0.4782030854      0.4247599708      0.1649257385
H      -1.4063064290      0.2092187258     -1.6328234096      0.3925479499     -0.1295168740      0.4067425322      0.1641708279
H      -2.2618144566     -2.4949527873      0.9077215225      0.1931781584      0.2501333337     -0.1814665395      0.0978553347
H      -2.6525453045     -1.2084676975     -0.2726048522      0.2141888324     -0.2267580037      0.0607319519      0.0780859273
H      -1.3267056239     -2.3864198469     -0.6212185602     -0.1837074974      0.1109578787      0.2152352504      0.0756088977
H      -2.2778821437      2.4625363197     -0.9155342284      0.2009868460     -0.2489076263      0.1824342962      0.0988042408
H      -2.6634732598      1.1652250332      0.2543123757      0.2154224206      0.2241993159     -0.0604178114      0.0771219461
H      -1.3430369923      2.3457420271      0.6132199686     -0.1789461755     -0.1068227591     -0.2223535190      0.0834407195
P       8.1117772644      4.4442062790      3.2804787020      2.3836357856      1.0190532113     -1.5316685654      1.6417177461
F       9.7459143266      4.7795215717      2.8518156828      0.7000182971      1.4903265423      0.2944063442     -0.5241655454
F       7.5001964110      5.5916835245      4.4119696573      0.2133661679     -0.8684652493      0.4063276552     -0.5159606044
F       8.3803020085      3.4066347231      1.9340055856     -0.4425230793     -0.5417118186      0.2735998120     -0.5220873227
C       7.8756319882      6.0361680434      2.1982011000     -0.2839168435     -0.2898128189     -0.3098522573      0.5365998070
C       9.2158522740      3.7611670195      4.7197853426     -0.4111065037     -0.7823436331      0.3979021819      0.5462879145
C       6.5624565471      3.2929636556      3.3629456303     -0.1308426301      0.4689011845      0.7497176447      0.5404673018
C       8.3307835771      5.9643756851      0.7169658446      0.7013839381     -0.0006342467     -0.4124862754      1.3314966805
C       8.4913769006      3.1883706309      5.9573439442      0.1830440541     -0.0444114473      0.8219213431      1.3252293683
C       5.4656755549      3.4989929430      2.3020424180     -0.0309029934      0.3281908975     -0.5034820158      1.3600863681
F       8.5856213360      7.0822593762      2.7749087935     -0.2925955442     -0.3591297612     -0.4778932628     -0.4365875913
F       6.5460057374      6.4096961249      2.1994082220      0.0451004575      0.4487085304     -0.4580198037     -0.4589037387
F      10.0304661270      4.7814776409      5.2023905280     -0.6321105183     -0.6313656171      0.0086239158     -0.4332604223
F      10.0302787841      2.7514871397      4.2254442948     -0.2454630449      0.1471239680      0.5093080648     -0.4395422156
F       5.9386895238      3.4787400370      4.5833700376     -0.5471639306     -0.3142810363     -0.2522843624     -0.4497448016
F       6.9632625036      1.9656507579      3.2981416460     -0.4692738263      0.4091753004     -0.1086488339     -0.4422353355
F       8.0117775206      7.1599633933      0.0973390073      0.1682551728     -0.5218081334      0.0318862245     -0.4585440807
F       7.6949056249      4.9542968723      0.0276546690      0.5636979883      1.0456103943      0.1566553791     -0.4506046238
F       9.6986991745      5.7901438816      0.6096964855     -1.4009590376      0.2790950097     -0.3925236566     -0.4346361147
F       9.4331534337      2.9081676609      6.9321834354     -0.5941979133     -0.0146430677     -0.2021890196     -0.4546746285
F       7.5962672818      4.0985803819      6.4875734760      0.8077346019     -1.1169026157     -0.1211200519     -0.4390920147
F       7.8417718448      2.0054548971      5.6659898063      0.4587167754      0.8665593919      0.5704998575     -0.4513931863
F       4.8067871601      4.6967342726      2.4968507138      0.2751556229     -1.2919359970     -0.3464790879     -0.4391824265
F       4.5306731629      2.4880198280      2.4351963243     -0.1096817364      0.1833182130     -0.2669468349     -0.4818988944
F       5.9669770262      3.4403831397      1.0205290536     -1.0642034162      0.0176253015      1.0820000152     -0.4395673550
