41
Properties=species:S:1:pos:R:3:forces:R:3:charge:R:1 energy=-224.87497185000004 homo_lumo=5.875235948955071 dipole="-2.832745361002418 -0.19914053403363638 -1.0908588955108238" free_energy=-224.87497185000004
N       2.3852185609      0.2559211542     -0.1798554854      0.0002933605      0.0098144365      0.0102706952     -0.5232183065
C       2.7271003191     -1.0065659065      0.5983707254      0.0130685143      0.0059105982     -0.0072525949     -0.0289484040
C       3.4327979112      0.2548211929     -1.2858580726     -0.0115041115     -0.0019150190     -0.0058510854     -0.0177862080
C       1.0087813566      0.1640885488     -0.8003053050      0.0012781197     -0.0032658946      0.0140368290     -0.0082569852
C       3.1419553930     -2.0323909511     -0.4553092188     -0.0059136619      0.0172797224      0.0062233212     -0.1566076276
C       3.5919958136     -1.2088767246     -1.6911441015     -0.0071808339      0.0145754977      0.0152294928     -0.1530473134
C       2.5183288838      1.4764488317      0.6770044144      0.0086860896     -0.0136506500     -0.0202976237      0.0288163656
C      -0.1518631048      0.2217055803      0.1794743703      0.0031207625     -0.0072733505     -0.0244345931     -0.2057289049
C      -1.4800416085     -0.0063931559     -0.5444701996     -0.0013963254      0.0019110010      0.0155424844     -0.1588946707
C      -2.6763340550      0.0639273134      0.4027360782     -0.0016992669     -0.0017888645     -0.0230093838     -0.1657392881
C      -4.0097856510     -0.1640333681     -0.3055275078     -0.0042878735      0.0006666275      0.0101999607     -0.2057665716
C      -5.2006936102     -0.0991630146      0.6475993530      0.0019120054      0.0004312052     -0.0021034971     -0.0676981522
H       1.8593670150     -1.2917914036      1.2057428545      0.0085635805      0.0034993255      0.0077062620      0.1035996929
H       3.5703912958     -0.7371836578      1.2519497408     -0.0000554416     -0.0003403120     -0.0038534913      0.2346911315
H       4.3553030903      0.6431539690     -0.8300392402      0.0071923510      0.0013082909     -0.0004087834      0.2351192983
H       3.0906893265      0.9280916052     -2.0851692344      0.0117972063     -0.0064706977      0.0085865431      0.0806079327
H       0.9881317024     -0.7759668160     -1.3721206934      0.0051339955      0.0099777337      0.0077132513      0.1610101121
H       0.9424742841      0.9991289284     -1.5163117013      0.0024249301     -0.0078740213      0.0006030088      0.1188147207
H       2.3165712125     -2.7138647359     -0.7129478903     -0.0029666036      0.0028735229      0.0050953176      0.0669301902
H       3.9719501713     -2.6303853950     -0.0550707875     -0.0075702152      0.0021786504     -0.0057591775      0.1279670920
H       4.6484580636     -1.3953895005     -1.9280473825     -0.0098569862     -0.0049520093      0.0006640522      0.1250767555
H       2.9882431418     -1.4588819530     -2.5768193350     -0.0003712612      0.0023280064     -0.0001582378      0.0680787113
H       1.8715004400      1.3667291429      1.5548316527     -0.0011690720      0.0104541922     -0.0075188068      0.0783136899
H       3.5678584088      1.5586198810      0.9902489547     -0.0119561042      0.0132334551      0.0007328664      0.1929411356
H       2.2201183438      2.3506707996      0.0825815585     -0.0051143719     -0.0037501337      0.0068805216      0.0615653755
H      -0.0380835018     -0.5425685545      0.9658508862     -0.0006019559     -0.0023559222     -0.0013518103      0.1165512368
H      -0.1819363667      1.2029422101      0.6807003400     -0.0012558981     -0.0063283980      0.0025535250      0.1082017530
H      -1.4647260166     -0.9930310617     -1.0431837096     -0.0022272855     -0.0021071088     -0.0023483322      0.0892806013
H      -1.6014120570      0.7478919150     -1.3436852765     -0.0011159741     -0.0020740764     -0.0022155954      0.0901554772
H      -2.6903072628      1.0505356917      0.9027152297     -0.0047747325      0.0015971361     -0.0011468449      0.0905639907
H      -2.5527817569     -0.6884473207      1.2038259300     -0.0048576080     -0.0027982541      0.0015692083      0.0900466833
H      -4.1282286304      0.5909630483     -1.1038565157     -0.0099753007     -0.0012779093     -0.0007562923      0.0866883754
H      -3.9873257949     -1.1478129181     -0.8090941126     -0.0102959612      0.0005964300     -0.0006982168      0.0865512907
H      -5.2556329662      0.8841258431      1.1420149306     -0.0032130684     -0.0022275809     -0.0004906105      0.0371406583
H      -6.1511806372     -0.2640297359      0.1182229818      0.0004984279      0.0000881424     -0.0042961616      0.0419564308
H      -5.1157724603     -0.8649053668      1.4353164512     -0.0039668613      0.0015640285     -0.0016630189      0.0370986619
B       6.0012701037      0.3454255096      1.2672469873     -0.0179931681     -0.0070689168     -0.0121890133      1.3894193253
F       7.2853278222      0.3977653687      1.7929808385      0.0191447086     -0.0013457350      0.0044179777     -0.5236361295
F       5.0065123671      0.2879480704      2.3077337938      0.0225229017     -0.0060676692     -0.0118402106     -0.5760397739
F       5.8204994308     -0.8058177891      0.4277671006      0.0157278071      0.0062568772      0.0116692280     -0.5789506586
F       5.7123237936      1.5140640148      0.4698214431      0.0099551819     -0.0216123567      0.0099488364     -0.5768676943
