47
Properties=species:S:1:pos:R:3:forces:R:3:charge:R:1 energy=-257.7545986986795 homo_lumo=5.876650995171842 dipole="-2.665855635426049 -1.0777782265250238 -0.8711102281553745" free_energy=-257.7545986986795
N      -0.4841543086      0.5122320662     -0.0236643255     -0.0373204928     -0.1612863744     -0.2318691763     -0.4960258837
C      -1.5902610826      0.8964428277     -0.9565685061     -0.5631772336      0.3421142430      0.1667603992      0.0062679247
C      -0.9323856889     -0.6541248631      0.8046810386     -0.3774319548     -0.0418796281      0.4656867203     -0.0087238593
C       0.6970817614      0.0969395080     -0.8824540372      0.4410635678     -0.3920681647      0.1242578088     -0.0299551248
C      -0.0844301059      1.6549115574      0.8848536684      0.0292312015      0.5948486371     -0.0482890102     -0.1254654427
C      -2.8852407585      1.2301565942     -0.2270513299      0.1520995248     -0.4758087709     -0.0718261137     -0.1636119707
C      -2.2514984917     -0.4187343622      1.5346228019     -0.0496098135      0.0218461613     -0.5066798003     -0.1487048763
C      -3.3569734520      0.0202510567      0.5767368170      0.3196550236      0.3082888369      0.2003876167     -0.1482020557
C       1.7240970642     -0.7976555334     -0.1930358156     -0.0918368945      0.3123702287     -0.4748323172     -0.2263867183
C       0.0873300757      2.9949972564      0.1901373150     -0.4031794436     -0.3769950148      0.0383145825     -0.1058989986
C       2.9875154469     -0.8727167020     -1.0600876233     -0.1430093219     -0.2702653614      0.5731650271     -0.1535702708
C       4.0791435873     -1.6751523469     -0.3468698509      0.0720552261      0.3255997268     -0.7674345141     -0.1652903388
C       5.3513855678     -1.7501010883     -1.1961977822     -0.0507686812     -0.3285814601      0.6248863167     -0.1970828821
C       6.4491621446     -2.5399930871     -0.4846020949     -0.2077402103      0.2251402683     -0.3495138163     -0.0434823136
H      -1.7593275984      0.0447739748     -1.6219705824      0.0369767887     -0.2125922416     -0.1256827090      0.1203443324
H      -1.2422013980      1.7402349196     -1.5539453734      0.1756732868      0.1278016800     -0.1480693799      0.1465353268
H      -0.1434078109     -0.8605179019      1.5292978398      0.2484602898     -0.0606910900      0.0433769551      0.1614372230
H      -1.0307228995     -1.5067728790      0.1269238814      0.0344904911     -0.1737910917     -0.1929160134      0.1236115407
H       1.1803111473      1.0192948222     -1.2070995928      0.0527521361      0.1581363194     -0.0105849940      0.1971091820
H       0.2908415379     -0.4178528026     -1.7576435623     -0.2189902491     -0.0967814271     -0.1785547570      0.0943439810
H      -0.8508707911      1.7437797231      1.6559965711     -0.1596333948     -0.0857819933      0.1308164445      0.1273488729
H       0.8510340408      1.3562467051      1.3618211836      0.0978549232     -0.1474542072      0.1037245405      0.2499768063
H      -3.6328234035      1.4952641453     -0.9791075012     -0.1658637527      0.1677081450     -0.2081047025      0.0953843638
H      -2.7506632910      2.0922186821      0.4302229399      0.0265203454      0.2796212294      0.1303473153      0.1151026961
H      -2.1261242437      0.3263235067      2.3241683889      0.0401349055      0.1245252023      0.2419096494      0.0998487494
H      -2.5276522747     -1.3616728090      2.0140082671      0.0047958765     -0.2266424715      0.2125660461      0.1044174978
H      -4.2556447796      0.2753112823      1.1429807716     -0.2963405960     -0.0108440114      0.1032086689      0.0835604588
H      -3.6041991204     -0.7998005053     -0.1054335680     -0.1070732523     -0.2300066861     -0.1912748500      0.0792713314
H       1.9964268684     -0.3851655976      0.7793790269      0.1244753383      0.1243117925      0.1906862942      0.1878297173
H       1.3215799805     -1.8051896351     -0.0481997365     -0.0831389148     -0.2777570849      0.0131933909      0.0681022396
H       0.7505678661      2.9258482263     -0.6687606694      0.2596755275      0.0754995819     -0.1610965121      0.0558987948
H      -0.8660046368      3.4269647346     -0.1143617453     -0.3472096449      0.1474692918     -0.1002071571      0.0249441360
H       0.5611054402      3.6597483255      0.9126120559      0.1976177137      0.1352097559      0.1095815554      0.1119956938
H       3.3508822483      0.1418125260     -1.2453643652      0.0680236898      0.2117358203     -0.0085618861      0.1296709797
H       2.7493035187     -1.3339273002     -2.0257007231     -0.0207647480     -0.1600898321     -0.2899749136      0.0518342778
H       3.7161920814     -2.6882376783     -0.1375976434     -0.0686155884     -0.2931541323      0.0925003365      0.0595409155
H       4.3071404354     -1.1949455700      0.6097844588      0.0364894211      0.1419821240      0.2635878500      0.1208067509
H       5.1237034267     -2.2267136204     -2.1564578915     -0.0746178639     -0.0656317781     -0.2784047041      0.0667538492
H       5.7094542840     -0.7362884900     -1.4019790461      0.0355479029      0.2767022694     -0.0923070355      0.0918913911
H       6.1163634940     -3.5593603696     -0.2810826278     -0.0569510286     -0.3189343418      0.0893106944      0.0183374624
H       7.3423221499     -2.5857184026     -1.1082611787      0.3516769958     -0.0778353992     -0.1011793181      0.0243207571
H       6.7079699702     -2.0641065976      0.4618420795      0.1090250915      0.1161867973      0.2987063300      0.0350848749
B       3.1438932993      2.1294748965      1.3684854395     -0.3480628734     -0.0709732575     -0.2686043346      1.4193357567
F       2.7401998153      1.9331893335      0.0072064286      0.1865632964      0.1133407699     -0.5389459671     -0.5906183862
F       2.6560778949      1.0016310133      2.0918675598     -0.0950084052     -0.5871898348      0.5897606450     -0.5785606852
F       2.4904933662      3.2661219899      1.8468322438     -0.1824990626      0.7431226889      0.4416156986     -0.5611376841
F       4.5049938011      2.2143919830      1.4554592057      1.0479848571      0.0694740849      0.0965630959     -0.5281903931
