47
Properties=species:S:1:pos:R:3:forces:R:3:charge:R:1 energy=-258.0894726416094 homo_lumo=5.919935104813368 dipole="-1.8281803963554353 1.701566336818415 1.359987681171047" free_energy=-258.0894726416094
N      -0.3768470056     -0.2021613750      0.3158529517      0.0045545408      0.0091219010      0.0043594035     -0.4928152085
C      -1.3743843175     -0.8551557600     -0.6304954634      0.0038695284     -0.0008037265     -0.0017333190     -0.0363093424
C       0.2041124960     -1.2713631576      1.2344158270      0.0046567432      0.0036685123      0.0045858722     -0.0717027187
C       0.7281185043      0.3600836880     -0.5662026671     -0.0034329516      0.0063400147      0.0015963704     -0.0777757325
C      -1.0123071030      0.8750474873      1.1671454352      0.0065128744     -0.0125241315     -0.0002521199     -0.0698115716
C      -2.4634028779     -1.6294346225      0.0906498403     -0.0026401324      0.0117820125      0.0058691115     -0.1738558007
C      -0.8618225231     -2.0779565436      1.9600920903      0.0093537431     -0.0032813240      0.0044558223     -0.1630499521
C      -1.8455989908     -2.7104107570      0.9777313065     -0.0085245095     -0.0164728613     -0.0013854868     -0.1674212015
C       1.9086629530      0.9842989488      0.1506546692      0.0016098532      0.0045585796      0.0034943138     -0.2442648857
C      -1.5641578146      2.0701743984      0.4165410438     -0.0089236049      0.0119856010      0.0063644181     -0.1024651485
C       2.9015602238      1.4788807460     -0.9104755301     -0.0047651479      0.0111842087     -0.0010506146     -0.1685526050
C       4.1932453062      2.0736857394     -0.3261302052     -0.0004256663      0.0076820415      0.0041660974     -0.1457277374
C       5.3536107214      1.0813109573     -0.1938321105      0.0094669224     -0.0001039029     -0.0092654217     -0.2040481979
C       5.0981581523     -0.0985494147      0.7422810453      0.0020615040     -0.0032723318      0.0106482477     -0.1119046665
H      -0.7656112378     -1.5414377775     -1.2423034007     -0.0070566637     -0.0065299494      0.0070741809      0.2178449443
H      -1.7724580347     -0.0578819548     -1.2738972715      0.0046766902     -0.0035777431      0.0118104081      0.1173323936
H       0.8647293121     -0.7486522751      1.9393456727     -0.0086479410     -0.0081084283     -0.0024348066      0.1201222533
H       0.8218518862     -1.9165482656      0.5922406418     -0.0010264231     -0.0041055202     -0.0022209314      0.2603250095
H       0.2418206876      1.0848094122     -1.2371387311     -0.0110548374      0.0042788193      0.0103534717      0.1138536512
H       1.0785573512     -0.4783725051     -1.1842700881      0.0067110818      0.0003621494     -0.0062214296      0.2640103714
H      -1.8062998111      0.3864387696      1.7447219246      0.0055134596      0.0083038402      0.0036724680      0.1634781690
H      -0.2324267824      1.1894120124      1.8755787603      0.0019253559      0.0040880382      0.0032568894      0.1399826920
H      -3.1047824005     -2.0801542864     -0.6850818683      0.0128831239     -0.0040595559     -0.0002440644      0.1072942156
H      -3.1147212176     -0.9585038442      0.6801534597      0.0031252491     -0.0115604856     -0.0011295898      0.0801319065
H      -1.3961648100     -1.4645646630      2.7076206174     -0.0009514602     -0.0048752189     -0.0089149674      0.0728217844
H      -0.3254115446     -2.8570998485      2.5278194555     -0.0093410377      0.0033931835     -0.0113525755      0.1133055524
H      -2.6294747419     -3.2664555701      1.5168581165      0.0114098159      0.0069112747     -0.0050170637      0.0757182722
H      -1.2995153693     -3.4254457002      0.3374346264     -0.0081766505     -0.0005063416      0.0046452674      0.1332432505
H       1.6080354309      1.8341851446      0.7902923783     -0.0009754397     -0.0029397943     -0.0051374767      0.0657193626
H       2.4049982294      0.2339860689      0.7816292636     -0.0008896881      0.0061283954     -0.0009683827      0.1804306265
H      -0.7816863422      2.6397337478     -0.1031063070     -0.0002920568     -0.0080309967     -0.0030550683      0.0631133723
H      -2.3465284800      1.7951977325     -0.3047224286      0.0053482745     -0.0085866527      0.0010609902      0.0561203018
H      -2.0256028552      2.7424019859      1.1565385052      0.0031306810      0.0018578289     -0.0188718101      0.0730332828
H       2.3924563799      2.2375887498     -1.5323538138     -0.0000043166      0.0059637827      0.0033370874      0.0681835294
H       3.1433294444      0.6354603295     -1.5809471767      0.0089895214      0.0038939799     -0.0076058461      0.1460868213
H       3.9796105292      2.5266889239      0.6614357978      0.0028623504      0.0008883551     -0.0009721263      0.0614348231
H       4.5272318546      2.9018610940     -0.9752771091      0.0031881127     -0.0003994062      0.0041462073      0.0764802680
H       5.5983076147      0.6950529980     -1.2004691335     -0.0012436773      0.0063599694      0.0094806126      0.0866959470
H       6.2433393940      1.6391255617      0.1497479253      0.0012497951     -0.0052421314      0.0019509624      0.0757074734
H       4.3114901526     -0.7664274288      0.3606540707      0.0006020648      0.0009499629     -0.0101258385      0.1112466455
H       6.0091778872     -0.7085935249      0.8496925969     -0.0079605111     -0.0026436934      0.0026991849      0.0454443027
H       4.8118647770      0.2504633521      1.7497567318     -0.0087532311      0.0017770691     -0.0064419047      0.0044874484
B       2.1477451251     -2.7366990575     -1.6056466076     -0.0073998906      0.0127139286      0.0024007643      1.4012993809
F       0.7337936812     -3.0166438112     -1.4480014740     -0.0021384343     -0.0073784494      0.0037718241     -0.5863066630
F       2.6442319117     -2.3605736298     -0.3075667748      0.0052141140     -0.0113489089     -0.0032213558     -0.5839437364
F       2.2717215363     -1.6078087211     -2.4714583520     -0.0034494718     -0.0019535405      0.0002957334     -0.5688579657
F       2.8212016254     -3.8476883672     -2.0998244153     -0.0108416560     -0.0058883541     -0.0078735096     -0.5261349176
