34
Properties=species:S:1:pos:R:3:forces:R:3:charge:R:1 energy=-180.44769819884922 homo_lumo=1.2344979743893807 dipole="1.2517022000869875 3.30587210089653 2.3106723116316337" free_energy=-180.44769819884922
N      -0.5062546256      0.0254355994      0.0181415766      0.1832993797      0.1928345618      0.0491374731     -0.5204223101
C      -1.4444172403     -0.5355174106     -1.0022878720     -1.1439677361     -1.2257832068     -1.7885788152     -0.0279808519
C      -1.3887485822      0.6301692338      1.0633188501     -0.9170624800      1.2175710371      1.7977414432     -0.0042386386
C      -2.8387036454     -0.0237863350     -0.6969464488     -0.3671470234      0.4957503493     -0.5501356268     -0.1305845490
C      -2.8156840627      0.1937045891      0.7896846955     -0.4116801008     -0.4310108532      0.5445375459     -0.1427614005
C       0.3434674380      1.0833293107     -0.6194447689      1.1551060807      1.0477279373     -0.2013375996     -0.0410686528
C       0.3083709884     -1.0734443196      0.6318837109      1.1829600442     -1.2243439062      0.2483904380     -0.0462001561
C       1.3744548455      1.7405214142      0.3284460977     -0.1691963178     -0.2424592593      0.0317730968     -0.2502506183
C       1.2748847729     -1.7813552999     -0.3468641509     -0.2283606342      0.2544491389     -0.1659632348     -0.2525595277
C       2.0930990175      2.8954914664     -0.3652162912      0.0113166092      0.0831861534     -0.1342139468     -0.0901183584
C       1.9440134019     -2.9806005177      0.3202165671     -0.0045501870     -0.0737492909      0.2195654860     -0.0858697267
H      -1.1650269155     -0.2749121300     -2.0495576052      0.2912117208     -0.1979327862      0.6164300553      0.1435655347
H      -1.4953357715     -1.6471572808     -0.9583458632      0.4062765654      0.0572108731     -0.0721911084      0.1834534308
H      -1.0990584366      0.3472042852      2.1016710237      0.3186389316      0.0318548667     -0.5950335757      0.1292828428
H      -1.3806589743      1.7441352823      1.0288133150      0.4634531620     -0.4569249973     -0.3047680140      0.1383370812
H      -3.0082649312      0.9447219584     -1.2176219923     -0.1251694402     -0.2716538329      0.0743468191      0.0831782707
H      -3.6248954745     -0.7526291076     -0.9931965554      0.4117143188      0.2555284794     -0.1833866863      0.1177421960
H      -3.0263043984     -0.7645982389      1.3147597113     -0.0553834214      0.3047083003     -0.0957654141      0.1082694327
H      -3.5549086570      0.9632681117      1.1027700873      0.3024730092     -0.3542142646      0.1283285170      0.0903050189
H       0.8893248058      0.6690723514     -1.4957494383     -0.3427455684     -0.2190858790      0.3926703051      0.1682564882
H      -0.3129726689      1.8843811402     -1.0320583752     -0.1005182432     -0.4878378889      0.2780486518      0.1513705229
H       0.9006009234     -0.6868811971      1.4903162425     -0.3047416606      0.2501402573     -0.3345970231      0.1414737044
H      -0.3739093814     -1.8405524607      1.0669326195     -0.1006610254      0.4596616460     -0.3699913852      0.1624825334
H       0.8818658249      2.1323176368      1.2421052755      0.0452737903     -0.2066006007     -0.1322810626      0.1136021290
H       2.1431104299      1.0036796115      0.6381441721     -0.2768729550      0.0402179418      0.0168719553      0.1294536599
H       2.0751190241     -1.0862564483     -0.6728812074     -0.2227234141      0.0066810540      0.0217468075      0.1071847722
H       0.7373901143     -2.1378104975     -1.2495905336     -0.0669486333      0.0724704191      0.1265849256      0.1550943706
H       2.6413455551      2.5264708729     -1.2582480459     -0.1374070119      0.2368279774      0.2158764068      0.0573608682
H       1.3651678147      3.6741208197     -0.6774856140      0.2917686379     -0.1472555668      0.0140916136      0.0491437026
H       2.8231934762      3.3547045746      0.3340877424     -0.2083992000     -0.1011109269     -0.2909495074      0.0664265383
H       2.5293675118     -2.6514655493      1.2052007494     -0.1115246940     -0.2079788522     -0.1841577745      0.0309421654
H       1.1811600202     -3.7220250079      0.6396715832      0.2774502599      0.1392767319     -0.1145485457      0.0662652200
H       2.6334859522     -3.4707727715     -0.3989535312     -0.2507537435      0.1163937098      0.2759699951      0.0728032097
Cl     -1.9770417075     -3.9930240143     -2.8312694918      0.2048709806      0.5854506770      0.4657877846     -0.8739389022
