16
Properties=species:S:1:pos:R:3:forces:R:3:charge:R:1 energy=-92.8629597939023 homo_lumo=3.188510725479261 dipole="-0.32191806148978486 -0.39000283159019716 -0.4440654870845142" free_energy=-92.8629597939023
N      -0.5137328564      0.0754586192      0.0559826338     -0.3056657737     -0.1206385139     -0.1095148333     -0.5383406242
C       0.1906515947      1.2954178518      0.0588416982      0.3072192738     -0.4651258671     -0.5472019834     -0.0080046185
C       0.1443039398     -1.1051209604      0.2739182651     -0.1480242189      0.0883403246     -0.1640473818      0.2650463209
C      -1.9474238868      0.1607322962      0.3073527577      0.2967221223     -0.0265110601     -0.0107563753      0.1337062588
C       1.5918401944      1.1549494040     -0.3595918565     -0.2980040673      0.2855378074     -0.0674808850     -0.0035626607
C       1.4828728926     -1.2023749079      0.1045201048      0.4479657262      0.1404068058      0.0244708355     -0.0765289018
C       2.2155272399     -0.0354945790     -0.2833336466     -0.2059059211     -0.4731189304      0.0404136670      0.0238494792
H      -0.3620835237      2.0697755830     -0.4742298346     -0.1417975259      0.1342181955     -0.0358871298      0.1708475235
H      -0.4800598970     -1.9616886769      0.5017834674     -0.1246358132     -0.1065152228      0.0678431077      0.0543734015
H      -2.3923585398     -0.8282316400      0.2093538765     -0.1093306633     -0.2249311590     -0.0776522901      0.0428669879
H      -2.1237448524      0.5480561642      1.3148244602     -0.0649273900      0.0933019376      0.2218227210      0.0563507637
H      -2.4008682035      0.8355440036     -0.4205201927     -0.1258906945      0.1471918185     -0.1880938006      0.0500274849
H       2.1104061457      2.0644481895     -0.6354141428      0.1343496967      0.2017357188     -0.0932606848      0.0439579516
H       1.9863594801     -2.1513389015      0.2258290096      0.0532590291     -0.2528147576      0.0530621259      0.0152358275
H       3.2628015345     -0.1341730574     -0.5447867376      0.2601824458      0.0322825836     -0.0410329412      0.0242179664
Cl      0.1736101090      2.0031054411      1.8446169320      0.0244837740      0.5466403190      0.9273158481     -0.2540431606
