30
Properties=species:S:1:pos:R:3:forces:R:3:charge:R:1 energy=-163.14664723365578 homo_lumo=5.182362730439398 dipole="-0.17586354245046254 -2.9916507262973795 -0.9949138811042555" free_energy=-163.14664723365578
N       0.3424111523      0.3495424054     -0.0338485698     -0.0049181641     -0.0040622551      0.0004595289     -0.5479333433
C      -0.9990130981      1.0690200113     -0.0443160237      0.0034065561     -0.0041476700      0.0024569994     -0.0279041766
C      -0.0764332361     -1.0996583609      0.0924986183      0.0066436798      0.0057738027      0.0016161948      0.0186806371
C      -1.8356985249      0.3320319808      1.0014964050      0.0037188672     -0.0097709786     -0.0003821611     -0.1706579458
C      -1.2050901949     -1.0838165152      1.1217228240      0.0017166294      0.0058572373     -0.0014144359     -0.1557231632
C       1.1633668996      0.7624393011      1.1557673150      0.0018260866      0.0057747051      0.0035986671      0.0308410470
C       1.1193097888      0.6111350768     -1.2804261376     -0.0040740638      0.0022087408      0.0030588514      0.0648037167
H      -1.3948101144      0.9404932557     -1.0628737703      0.0008180339     -0.0002123877     -0.0002657328      0.1092824294
H      -0.8444655558      2.1373268222      0.1751575845      0.0059589615     -0.0034958127      0.0063070571      0.2435355075
H       0.7968159876     -1.7109935585      0.3585857483      0.0126288221      0.0095282312      0.0023667218      0.1092327535
H      -0.4416031197     -1.3991877448     -0.9016405624      0.0067453027     -0.0035694254     -0.0001742287      0.1281844229
H      -2.8860054205      0.2924406015      0.6810919056      0.0020586152     -0.0037666069     -0.0025760958      0.0976399241
H      -1.8017687444      0.8700734599      1.9592843886      0.0004413178      0.0009535602     -0.0036538702      0.1510032253
H      -0.8157768986     -1.2555514361      2.1356463570      0.0061391854     -0.0055464362      0.0002072274      0.0975126932
H      -1.9232151682     -1.8877812796      0.9077877082      0.0041293094     -0.0063538659     -0.0010889577      0.1022012049
H       1.5090296457      1.7909588872      1.0036666030     -0.0041694300      0.0011763277     -0.0019361042      0.1665493441
H       0.5479363373      0.7147551820      2.0601697249      0.0041721862      0.0031593600      0.0016987649      0.1332289837
H       2.0206091217      0.0803932184      1.2324690262      0.0009697360      0.0088912793      0.0012558895      0.0652243038
H       0.5214377605      0.2902313788     -2.1423222499      0.0031791547      0.0027685283      0.0010290308      0.0691409141
H       1.3303411207      1.6873551702     -1.3349097526     -0.0032497850      0.0048486899      0.0031387804      0.1491553512
H       2.0570510026      0.0423068235     -1.2361920273      0.0052968853      0.0053374809      0.0017358217      0.0831822936
N      -0.3960837907      3.9366574913      1.1865543290     -0.0010528068      0.0026514648     -0.0099035110     -0.9155880997
S       0.4838444689      4.8328468569      0.1789405638      0.0030414235     -0.0057250786      0.0062392693      1.9020644398
S       0.0860628166      3.6605957699      2.6991473053     -0.0181337927     -0.0068703079     -0.0042602113      1.9464019456
F       1.7358347347      3.7401029349     -0.2158814882     -0.0044766437     -0.0005538438      0.0079724363     -0.5010499337
F      -0.3067531350      5.0346166755      3.4930359369     -0.0119909651      0.0111606469     -0.0159903482     -0.4501198070
O      -0.2472616047      4.9200745419     -1.0691965163     -0.0023393144     -0.0099671195      0.0016282485     -0.7204697080
O       1.1864639092      5.9622299829      0.7453976772     -0.0167066370     -0.0182297532     -0.0027796990     -0.6913381189
O       1.5189800868      3.5131926922      2.8884370742     -0.0010875866      0.0113295816     -0.0003742844     -0.7238984273
O      -0.8134199449      2.6498851057      3.2380280857     -0.0006915633      0.0008519049      0.0000301508     -0.7631824138
