30
Properties=species:S:1:pos:R:3:forces:R:3:charge:R:1 energy=-162.81855500048727 homo_lumo=5.068163814342281 dipole="1.4154636614361884 1.1096928471518628 -2.38122110515637" free_energy=-162.81855500048727
N       0.4023499422     -0.1763616300      1.0522398516      0.4867866738     -0.0209606116      0.0037447292     -0.5635740807
C      -0.3654762532      1.0875447399      1.2995054776     -0.4467822675      0.3432186143     -0.1086155216      0.0120840922
C      -0.6545807094     -1.2362688624      0.9881038712     -0.4970835347     -0.1447180449     -0.0826647423     -0.0244191397
C      -1.6499095508      0.9399411829      0.4912622066      0.1319493064      0.0843019058     -0.0167494320     -0.1450936062
C      -1.8642679307     -0.5732986522      0.3335769271      0.0976291371     -0.0846886745     -0.0053321758     -0.1468323214
C       1.3757361242     -0.4483753700      2.1418838891      0.1089398742      0.0620804648      0.1078469784      0.0634372108
C       1.1254358445     -0.0959490279     -0.2419071918     -0.0390330722      0.0408681090     -0.1061201277      0.0940581476
H       0.2444016055      1.9439304384      1.0103045486      0.2375256909      0.1821740492     -0.0450543491      0.0876196923
H      -0.5826134588      1.1350261747      2.3668943379      0.0044221340     -0.0680108461      0.1520121047      0.1979629241
H      -0.8885961036     -1.5325445976      2.0133059793      0.0087501013      0.0016257689      0.0653179945      0.2552224263
H      -0.2712969741     -2.0969099268      0.4393967618      0.1828561360     -0.2223220731     -0.0601654694      0.0862235102
H      -1.5599085734      1.4261555631     -0.4828449537      0.0061342835      0.1521639166     -0.2425449313      0.0701669363
H      -2.4779328816      1.3982978921      1.0335298810     -0.1410186998      0.1408683621      0.1046537688      0.1277713812
H      -2.7732292340     -0.8923637067      0.8465705161     -0.1616536720     -0.1339123377      0.1180156504      0.1374783671
H      -1.9454881302     -0.8487815862     -0.7199048205     -0.0627316412     -0.0740604134     -0.2624458697      0.0706860483
H       2.1261568529      0.3400407416      2.1476061594      0.2349407249      0.2591629844     -0.0751115726      0.0623234364
H       0.8484136789     -0.4734027995      3.0926750848     -0.0864954202     -0.0910363496      0.1173823211      0.1706129688
H       1.8423078180     -1.4147657200      1.9614383414      0.1161893998     -0.2650435097     -0.0442181223      0.0835935840
H       0.4125497114      0.0855067828     -1.0431203725     -0.2073127095      0.0490834474     -0.2205275741      0.1044083087
H       1.8462233543      0.7186571768     -0.1956622091      0.1886504191      0.2272074455      0.0160241605      0.0782846288
H       1.6436477235     -1.0376414997     -0.4142755081      0.1259743881     -0.2546988112     -0.0349518199      0.0842091149
N      -2.1730985918     -1.9356059932      3.6726051081      0.1258477182      0.0091326897      0.1103693931     -0.8942647659
S      -1.0634830908     -2.8717733036      4.3368578888     -0.1450028210     -0.2783230519     -0.1702838984      1.9538523717
S      -2.3400020903     -0.4571744234      4.2017794392     -0.5708047704     -0.1729551780     -0.4777979182      1.9412560747
F      -1.3404006590     -2.8434318054      5.9140235437     -0.2163568741      0.1115649765      0.8196403524     -0.4479544347
F      -0.8083213833      0.1865262750      4.2017478680      0.6042855223      0.2769454390      0.1992827253     -0.4975552886
O      -1.3163996461     -4.2070298866      3.9156925926     -0.4348767489     -1.5278857356     -0.4266758747     -0.7212339723
O       0.2722428938     -2.3619987305      4.1904660258      1.2078308038      0.5752789078      0.0514235939     -0.7653543186
O      -2.7669085503     -0.2947068453      5.5474632715     -0.2809369535      0.0534877416      1.6241920343     -0.6990909698
O      -2.9895606943      0.2914830982      3.1656558131     -0.5786231284      0.7694508147     -1.1106464075     -0.7758783264
