55
Properties=species:S:1:pos:R:3:forces:R:3:charge:R:1 energy=-306.67837059057007 homo_lumo=1.6275187217437426 dipole="-4.684019705021942 2.075864298828241 1.9003765685534428" free_energy=-306.67837059057007
N       3.0780986693      0.9185685706      0.0056791101     -0.1648443355     -0.7429432054      0.8379676295     -0.5032567800
N       2.9255260548     -1.2932416188      0.1895426530      0.0161609847      0.8465110497      0.2205905032     -0.5045447054
C       1.4780300761      2.7814772460     -0.2536465864     -0.1330571379     -0.2720319454      0.2296277235     -0.1954390126
C       2.8432403150      2.3329673395      0.2908083454      0.0361081001      0.9158831129     -0.0120006216     -0.0230201451
C       1.0160821842     -2.6216992233      1.0278432480      0.0076153229      0.1807338725     -0.3759239439     -0.1997127691
C       2.5177025513     -2.6013637629      0.7000707874     -0.1765413851     -0.8325649826      0.7989591504     -0.0279379495
C       0.3143837526      2.1043536495      0.4876274654      0.1011395128      0.2522285698     -0.3715515102     -0.2197789201
C       0.1504770977     -2.3093218498     -0.2038094393     -0.0294363541     -0.0705935456      0.4570962208     -0.2057569656
C      -1.0417141929      2.5461445910     -0.0728090021      0.0375885653     -0.3102689438      0.3692940055     -0.1732867173
C      -1.3408011818     -2.2992960426      0.1521964060      0.1834859450      0.1271685528     -0.4625000700     -0.1778863768
C       2.8408263032     -0.1145445079      0.8374668187     -0.5527286509      0.0540047022      1.4623808108      0.5457646646
C       3.3368731676      0.3747487930     -1.2010580114      0.1662661904     -0.8624654984     -1.5085306661      0.2291041170
C       3.2480939246     -0.9968238628     -1.0854321359      0.1732808933      0.5892685827     -1.5514211578      0.2652307621
C      -2.1888618284      1.8731745326      0.6919679354     -0.0967041957      0.1584429439     -0.2115824497     -0.2495054955
C      -2.1831699941     -1.8115405163     -1.0341492231     -0.1795491435     -0.0772839357      0.2474904160     -0.2297169550
C      -3.5400613348      2.1850827236      0.0575400989     -0.2319744570     -0.1325876770      0.1303650678     -0.1048291016
C      -3.6647436516     -1.7469619421     -0.6753258111     -0.1801091431      0.0878845868     -0.2054699166     -0.1025383879
H       1.3946867046      3.8837524761     -0.1344963355      0.1391890968     -0.2674748931     -0.0711306324      0.1146391118
H       1.4201465785      2.5502785484     -1.3398644899      0.0152538607      0.1365356503      0.2321578690      0.1196392123
H       0.8073174771     -1.8802688071      1.8297795073     -0.0305718646     -0.2238757077     -0.1099931438      0.1024546476
H       0.7510589365     -3.6281060063      1.4186877668      0.1841512553      0.2630331600     -0.0127572547      0.1185709878
H       3.6461698326      2.9387856904     -0.1817362154     -0.0620800637     -0.4203214198      0.1564401180      0.1414118024
H       2.8890373630      2.5144335154      1.3872601871      0.0921918300     -0.3114706382     -0.3612499540      0.1239949219
H       3.0992908674     -2.8309872288      1.6185654195      0.0573128737      0.1361199308     -0.4021208042      0.1480251964
H       2.7423644284     -3.3914467605     -0.0499133119      0.2166617057      0.5845330855      0.1221367608      0.1518870663
H       0.3688381680      2.3581977487      1.5691752724      0.0045029347     -0.1314259369     -0.1755483924      0.0805048382
H       0.3942753745      1.0019598181      0.3800099227     -0.0231741785      0.1788607749      0.1037637069      0.1585170466
H       0.3379096444     -3.0705620334     -0.9927937372      0.0181777487      0.2518844422      0.0997467243      0.0982025125
H       0.4267201590     -1.3118748442     -0.6082014503     -0.0363015253     -0.2139138151     -0.0242064797      0.1356065181
H      -1.1399745771      3.6507309527      0.0151654143      0.0088847461     -0.2411263009     -0.1510601230      0.0921087752
H      -1.0986449643      2.2686183423     -1.1488621773     -0.0186315247      0.1628325400      0.2097101465      0.0950657639
H      -1.5079477449     -1.6249072103      1.0206448000     -0.0075742256     -0.1953665873     -0.1109505600      0.0980244077
H      -1.6572447270     -3.3267187711      0.4382770710      0.0093312039      0.2785005437      0.0473034945      0.0924446460
H       2.5216365307     -0.0063576876      1.8667641955      0.1471186897      0.0151337055      0.0257242801      0.0967707603
H       3.5082709058      0.9347858578     -2.1110585446      0.1774432333      0.1959876925      0.0761709476      0.0666891498
H       3.3278610344     -1.7172712878     -1.8882721669      0.2665075235     -0.2626458660      0.1031082159      0.0899213027
H      -2.0452786794      0.7722567533      0.6956802841      0.0887534833      0.2032737058      0.0782330018      0.1551644978
H      -2.1935226596      2.2271600734      1.7459530000      0.1014826178     -0.1780802480     -0.1698903850      0.0757174810
H      -2.0501388326     -2.4996842618     -1.8973018248      0.0988512299      0.2374992104      0.1312290907      0.0914072202
H      -1.8488201189     -0.7957819625     -1.3402345730      0.0693931607     -0.2605300168     -0.0073247568      0.1080857111
H      -3.7268523900      3.2800219020      0.0653702398     -0.0448335772     -0.3126486036     -0.0928895299      0.0501161274
H      -3.5697578361      1.8116943479     -0.9885118489     -0.0833033259      0.1732704552      0.2695216428      0.0511401688
H      -4.3440261723      1.6815534827      0.6351352552      0.0854064304      0.2199790012     -0.2736985176      0.0515703902
H      -4.2386859590     -1.3631146333     -1.5451707681     -0.0114777611     -0.1290799535      0.3322694488      0.0464222661
H      -3.8263294179     -1.0619433466      0.1841285854     -0.0501923719     -0.2284090678     -0.2169085635      0.0623599027
H      -4.0438826562     -2.7582710547     -0.4159177910      0.0037644760      0.3317012226     -0.0140368147      0.0450145283
N       7.5550492609     -1.6629533429     -1.9173985494     -0.1148832999      0.1323587220      0.0380340552     -0.8452338379
S       7.5790353593     -2.6688162227     -0.6271357925     -3.5460161359      1.1196766412      2.1039902479      1.8481779620
S       7.0873918921     -2.1870713714     -3.3954577061      5.2034215676     -1.3253969987     -2.1389223395      1.8275758640
F       8.7732853232     -3.8222365701     -0.8440078299     -0.5153183010      0.6588064491      0.1025481828     -0.4353676832
F       5.4266514673     -2.3901937512     -3.4122867485     -0.0915424087      0.2261898738      0.1138050963     -0.4733501513
O       7.8666179531     -1.8814815231      0.6192471830      0.9107231543     -1.1080246202     -2.2570749712     -0.7232069750
O       6.2518512453     -3.3612830976     -0.4947702799      1.7974787333     -0.2322953270     -0.5681723299     -0.7597299866
O       7.7404347713     -3.5046793281     -3.7053704771     -2.1015124147      1.2100297909      0.7163114701     -0.7122527085
O       7.4732369594     -1.1725377992     -4.4336349552     -1.9352892885     -0.5855068359      2.0409398607     -0.7109787071
