32
Properties=species:S:1:pos:R:3:forces:R:3:charge:R:1 energy=-184.45130200224335 homo_lumo=0.13485113822785189 dipole="0.5798427178494567 1.2121194087486178 -2.3666643142415906" free_energy=-184.45130200224335
N      -0.6833168785     -0.8708433242      0.3985322709      0.7059620346      0.5793706642      0.6323755757     -0.5001089086
N       1.5130006778     -0.5395021775      0.2985020811     -0.6198608809      0.2078067071      0.8031289153     -0.5134475666
C      -2.0830260776     -0.7515781212      0.8037109044     -0.9046965281     -0.0219964171      0.2077704095     -0.0280643067
C      -2.9047546626     -0.0082131100     -0.2564633872      0.1489933902      0.1538136069     -0.1236191494     -0.2201071115
C       0.3719375425     -0.2376888781      0.9470253775     -0.3843119615      0.9840226370      1.4427712138      0.5989447744
C      -0.1926514988     -1.6012475064     -0.6232860767      0.8824385542     -0.7262115984     -1.2282629163      0.2392092229
C       2.8407466938      0.0060384244      0.5658658684      0.5082100975      0.4156768446      0.1349234037     -0.0614228932
C       1.1701264782     -1.3919291078     -0.6881480677     -0.7481169706     -1.2199326636     -1.3712724469      0.2213124346
C      -2.4150616106      1.4252190074     -0.4589330660     -0.0511474642      0.0954364692     -0.1566021388     -0.1033248521
C       3.1615838463      1.1200915717     -0.4234114555      0.0195259034      0.1688800632     -0.1971914414     -0.1115370225
H      -2.1565459561     -0.2087321237      1.7714992734      0.4795548460     -0.4236873957     -0.1762403162      0.1529064708
H      -2.5074408873     -1.7672264460      0.9560722952      0.4844371035      0.2027873492      0.1125804223      0.1402992224
H      -2.8600978595     -0.5546927986     -1.2231158836     -0.1271367590      0.0661715218      0.2011670368      0.0980853664
H      -3.9665156134      0.0203530348      0.0704753619      0.2830277962     -0.2160853345     -0.0218297651      0.1110734684
H       0.3063837145      0.4528714076      1.7784030934     -0.0715992124     -0.2474254187      0.2393064871      0.0950493063
H      -0.7826197723     -2.2261420673     -1.2810753819     -0.1729274384     -0.0234264965      0.1434909054      0.0449433872
H       2.8808814753      0.4164184893      1.5985011475     -0.2518933562     -0.4096559747     -0.2643238843      0.1381748833
H       3.6009859067     -0.8007933763      0.4860092569     -0.4565431415      0.0566482332      0.1221000431      0.1283937933
H       1.8562547283     -1.8180419270     -1.4085693614      0.1898029203      0.0190081012      0.1252584974      0.0408953906
H      -1.3894146620      1.4289109652     -0.8851435572     -0.2484361196      0.1123239146      0.1325383491      0.0607349618
H      -2.4123404379      1.9740612918      0.5068229301      0.0347614940     -0.0864817473     -0.2944711818      0.0502370644
H      -3.0903180933      1.9523315026     -1.1651285972      0.2885600642     -0.0376207420      0.1962136394      0.0580914216
H       3.1512293066      0.7271986570     -1.4620614866      0.0259513994      0.2188044468      0.2579733837      0.0655656525
H       4.1678494972      1.5357266831     -0.2062228398     -0.3027122239     -0.1122194932     -0.1051189020      0.0689722488
H       2.4104511558      1.9337595872     -0.3334139387      0.2621980159     -0.2078927952     -0.0988715552      0.0724558574
C      -0.2620163844     -2.8247203556      5.5029404932      0.0896515142     -0.6165875222      1.0634400412     -0.1576825204
C      -0.3599976508     -2.2376409292      4.1306860944      0.2216973165     -0.8347434059     -0.1849220634      0.8762004843
O      -0.6748438791     -1.0672442730      3.9921177662     -1.3015260027      5.0374252065      0.8838377526     -0.8328854651
O      -0.1263513248     -2.9232026980      3.1481090533      1.0850230510     -3.4174622706     -2.5361429275     -0.8139579968
H       0.5106663042     -2.2809424445      6.0859678911     -0.3025373896     -0.1094239063     -0.0036146836      0.0261116152
H      -1.2404952495     -2.7304141997      6.0190364170      0.3215202554      0.0498977871      0.0247844525      0.0294122902
H       0.0152255121     -3.8993535216      5.4525492057     -0.0878703079      0.3427796295      0.0388228433      0.0254693267
