24
Properties=species:S:1:pos:R:3:forces:R:3:charge:R:1 energy=-131.25182999224657 homo_lumo=3.4563278194008427 dipole="0.5008688860536441 -1.0121243728855702 -2.7655002934266513" free_energy=-131.25182999224657
N       0.1705746200      0.2850719550      0.5752028025      0.0458963380     -0.0431573103     -0.1616021415     -0.6145905830
C      -0.8153844238     -0.7513125465      0.9871738856     -0.1848066701     -0.1630096577      0.1078053098      0.0904434254
C       1.3523612826      0.2226517649      1.4794644549      0.2448724677     -0.1061582415      0.1732688674      0.0759378809
C      -0.4628946526      1.6290475086      0.6735785296     -0.1693983178      0.2420078235     -0.0127764449      0.0636912658
C       0.6034260658      0.0411688368     -0.8235870384      0.0064912725     -0.0165151812     -0.0383828918      0.1071655006
H      -0.3497388007     -1.7321586326      0.9114250984      0.1713839430     -0.2729811393     -0.0716923446      0.0610315536
H      -1.1087653326     -0.5504507563      2.0177170836     -0.0280551527      0.1420574974      0.3462305406      0.1480441496
H      -1.6812894096     -0.6954564544      0.3301395418     -0.2164197931      0.0288074986     -0.2358421671      0.0613224192
H       2.0477698856      1.0135183297      1.2073913372      0.1669693962      0.1968713448     -0.1273208324      0.0662390836
H       1.0013063496      0.3726291256      2.5004606324     -0.2471926556      0.0711200359      0.2594015282      0.1841974900
H       1.8250310310     -0.7522409917      1.3765241736      0.1008803669     -0.3213601959     -0.1359328580      0.0561936953
H       0.2816175945      2.3901613780      0.4508591037      0.2170640046      0.1637272535     -0.0731865526      0.0656787744
H      -1.2866719399      1.6843820883     -0.0354522772     -0.2175324333     -0.0650364519     -0.2784066795      0.0506843684
H      -0.8292388614      1.7545273443      1.6924097049     -0.0309694485     -0.1213195084      0.3260655492      0.1979012114
H       1.3211204786      0.8082126833     -1.1088316902      0.1907761685      0.2062873010     -0.0676520058      0.0840955839
H       1.0663765794     -0.9420181955     -0.8871205556      0.1308270170     -0.2776503286     -0.0028738833      0.0789618776
H      -0.2654384759      0.0847762645     -1.4779498068     -0.2471697979      0.0128528073     -0.1606097769      0.0790725811
C      -0.5454751450      1.6213613256      4.4568183579      0.9408416504      1.7824195492     -0.7871821522      0.9234427760
O      -0.7300017429      0.7921582244      3.5498449186     -0.3652094478     -1.2815409179     -1.2611957114     -0.8596482872
O      -0.7532173903      1.6265583816      5.6441650974     -0.3755233646     -0.0268747958      1.9138639930     -0.7141640075
C       0.1391507674      2.9826357372      3.8418325847     -0.5188787989     -1.3028657609      0.4336492186      1.2172224821
F      -0.7186137972      3.6258340384      3.0089144299     -0.7892960159      0.6269218891     -0.5369679293     -0.4782951474
F       1.2068921352      2.6528129118      3.0487662538      0.9335486885     -0.0420602248     -0.4033023187     -0.4935889960
F       0.5809177127      3.8797791911      4.7206002115      0.2409005829      0.5674567139      0.7946416834     -0.4510390979
