55
Properties=species:S:1:pos:R:3:forces:R:3:charge:R:1 energy=-296.0560489257564 homo_lumo=5.078652607507409 dipole="-2.7812418870214852 -1.9853575403600727 -2.126187244528365" free_energy=-296.0560489257564
N       0.9829180821      0.5905305646      0.0868110345     -0.0038936885      0.0003218000     -0.0008293368     -0.4860919282
C      -0.1674086014     -0.3878354460      0.1899887509     -0.0016762444     -0.0032468974     -0.0014598036      0.0033949574
C       0.3618222406      1.8746360868      0.6143051587      0.0007940350      0.0024041234      0.0013675253     -0.0383212336
C      -0.8435948748     -0.0664881270      1.5180001700     -0.0007918593     -0.0008566029      0.0020729574     -0.1561787859
C      -0.5684533340      1.4411829159      1.7511426289      0.0021421838      0.0016425985      0.0053428948     -0.1619067908
C       2.1337791324      0.1802922154      0.9992978765      0.0012676614     -0.0016415935     -0.0041399645     -0.1030046401
C       1.4224059242      0.7260815575     -1.3552139880      0.0005331834      0.0014677569      0.0028106649     -0.0538615587
C       2.8908740172     -1.0588090792      0.5540510580      0.0020183447     -0.0048457254     -0.0027238209     -0.2647791040
C       2.5399473877      1.7217904423     -1.5752386701      0.0059678292      0.0029940304      0.0054757513     -0.1259048321
C       3.9381758699     -1.4376837202      1.6047166062     -0.0021028875      0.0011064977      0.0023427818     -0.0894697433
H       0.2119207562     -1.4118743035      0.0914954096      0.0042064209     -0.0018550988     -0.0014966963      0.1330511908
H      -0.8310697112     -0.1677274991     -0.6601895081      0.0015021285     -0.0027622136     -0.0037714447      0.1248313942
H      -0.1948116689      2.3118772170     -0.2282370944     -0.0025052380     -0.0004400462     -0.0001910617      0.1114189130
H       1.1537588834      2.5600344426      0.9287288820      0.0050650005      0.0013935528     -0.0044122500      0.2238531205
H      -0.4233220565     -0.6743653253      2.3320877936     -0.0013925553     -0.0069558720      0.0018044258      0.0941940537
H      -1.9166825070     -0.2976875461      1.4614074189     -0.0021053059     -0.0013348874      0.0052332511      0.1024193722
H      -1.4908099102      2.0372989004      1.7221900339      0.0012723834      0.0038656571      0.0072674213      0.1014684165
H      -0.0947303094      1.6169429310      2.7257498925      0.0019900704      0.0063457127      0.0049654464      0.1376272264
H       1.6946360676      0.0362112621      1.9960346414      0.0056531071     -0.0018299768     -0.0042945945      0.1900979401
H       2.8005886382      1.0467860549      1.0776575362      0.0023396190     -0.0040111117     -0.0065175579      0.2694621115
H       1.7051376042     -0.2843439780     -1.6857458814      0.0019795612      0.0025919874      0.0003318136      0.1434359153
H       0.5162233700      1.0193371855     -1.9079945182      0.0018626679      0.0022931855      0.0010430979      0.1208433925
H       2.2039866169     -1.9093410755      0.3991778734      0.0047152398     -0.0028603277     -0.0013074673      0.0904905069
H       3.4003511572     -0.8695318416     -0.4052182397      0.0045782684     -0.0124490260      0.0005994603      0.1088548005
H       2.2650419348      2.7353783902     -1.2557220636      0.0092857476      0.0014958560      0.0012934904      0.0897207295
H       3.4659168399      1.4426979436     -1.0564744964      0.0033842605     -0.0024856491      0.0030489017      0.0973420554
H       2.7583677417      1.7574533845     -2.6532454793      0.0047022866     -0.0037038861      0.0016547783      0.0699104023
H       4.6643235951     -0.6269272236      1.7483806039     -0.0035830046      0.0010841311      0.0071555546      0.1293577206
H       3.4679821055     -1.6406320853      2.5790304125     -0.0042012776     -0.0046933315      0.0004559005      0.0348610982
H       4.4791966170     -2.3410756745      1.2903019660      0.0060156324     -0.0010843503      0.0012990787      0.0398898440
P       4.7987261390      3.1137878049      3.1621061521      0.0053308869     -0.0046632559     -0.0015183406      1.7307619541
F       4.9972366613      2.1935483660      4.5275639435      0.0074686765      0.0087816656      0.0117932184     -0.5075346848
F       5.1397786390      4.5461712941      3.9121673889      0.0055627355      0.0099414354     -0.0057555394     -0.5032983549
F       4.4322516890      1.7010770589      2.3024211299     -0.0063843222     -0.0103014952      0.0124636826     -0.5382352927
C       6.7309132134      2.8251462576      2.9131904176     -0.0027894957     -0.0046883066     -0.0045407652      0.5218906052
C       2.8749291825      3.3031131088      3.8470054899     -0.0106200609      0.0015295670      0.0022652075      0.4998742928
C       4.3511570757      4.0795688740      1.4314427467      0.0027787665     -0.0012491783     -0.0028693457      0.5183107870
C       7.2493213011      1.3919825155      2.5741770246     -0.0039628493     -0.0034920621     -0.0022318470      1.3619585949
C       1.8779154756      4.4960933098      3.6294597796     -0.0032361240      0.0028580631      0.0037993086      1.3692487447
C       5.1732202786      4.1238623338      0.1043467851     -0.0019363609      0.0150579838     -0.0069259982      1.4036883330
F       7.3680447832      3.1601133812      4.0848529483     -0.0012239243     -0.0073292040      0.0005700617     -0.4347007310
F       7.2624658599      3.6450246761      1.9390952368     -0.0026804491      0.0001608991      0.0063267372     -0.4560554457
F       2.9656585419      3.2945303014      5.2198754030     -0.0087145182     -0.0243234039      0.0014629539     -0.4291493445
F       2.1390887550      2.1661491479      3.4943195203     -0.0068991197     -0.0002079040     -0.0165599185     -0.4756464433
F       4.0416513120      5.3910835379      1.6868880492     -0.0062505440     -0.0008305604      0.0061660909     -0.4405011248
F       3.1632195129      3.4630542758      0.9999526413     -0.0013076391     -0.0006414994     -0.0046172343     -0.4815579575
F       8.6114391387      1.3898702945      2.6009244433      0.0042961498      0.0059774619     -0.0034517909     -0.4482265681
F       6.8743739699      0.9930039111      1.3287433190     -0.0031841386      0.0109326540     -0.0070157416     -0.4622856064
F       6.8190187805      0.4660610387      3.4599200122     -0.0027371094     -0.0042075036     -0.0034051142     -0.4475019518
F       0.7723595694      4.2782758284      4.4090932418     -0.0022204910      0.0074635261      0.0169012869     -0.4566526415
F       2.4263217348      5.6661489003      4.0046467283      0.0013565924      0.0017865613     -0.0126199349     -0.4339011067
F       1.4070278344      4.6242932493      2.3598417830     -0.0114693142     -0.0202263755     -0.0011200324     -0.4672070288
F       6.1824589917      5.0102324531      0.1410643001     -0.0042010760      0.0234097253     -0.0040747011     -0.4363675279
F       4.3459043622      4.5195224520     -0.9186383125     -0.0083681543      0.0069511704      0.0003263626     -0.4648692004
F       5.6460789307      2.8974685593     -0.2280275877      0.0123683129      0.0153597430     -0.0097898042     -0.4590488456
