55
Properties=species:S:1:pos:R:3:forces:R:3:charge:R:1 energy=-295.7543926895297 homo_lumo=5.317356807853399 dipole="-1.634285881307871 2.899970026924305 1.0783990638560688" free_energy=-295.7543926895297
N       0.2859748414     -1.5993045278      0.0102000198      0.0178683793      0.1976797227     -0.0709010473     -0.4916813502
C       0.5354412116     -2.8832033418      0.7722070669     -0.2548733581     -0.5414393404      0.2722952897     -0.0726123093
C      -1.0192439427     -1.0431133566      0.5382345135     -0.4021340364      0.0159059795      0.4085759064      0.0187621686
C      -0.7963595703     -3.2555108558      1.3974511877      0.1253338612      0.3762193746     -0.0394694951     -0.1334946966
C      -1.3907384469     -1.8955788199      1.7453140254      0.1092726355     -0.0632620251     -0.2339577676     -0.1358828037
C       1.3905745078     -0.6162805719      0.2733445466      0.6310874815     -0.0749152845     -0.3408449527     -0.0221983077
C       0.1594179439     -1.9193898718     -1.4542577574      0.0365827590      0.4452137477     -0.5443804367     -0.1346209283
C       2.7620139511     -1.0646347978     -0.2319694798     -0.2335707591      0.3607846650      0.4069901458     -0.2854392397
C      -0.0904595445     -0.7096324448     -2.3393508430      0.0525868235     -0.2819514903      0.4234123126     -0.0773707337
C       3.8326698196     -0.0983139219      0.2698717131     -0.3248094332     -0.2174834027     -0.1840802034     -0.0477186873
H       1.2811275098     -2.6853694480      1.5432782819      0.1321178376      0.1228776899      0.1087409965      0.1298490636
H       0.9143501884     -3.6423469854      0.0948207698      0.2200591826     -0.0767885244     -0.0481749369      0.2912623246
H      -1.7739082509     -1.1443510155     -0.2429405988     -0.0916895321     -0.0350722350     -0.2048311874      0.1368769375
H      -0.8964536053      0.0127181798      0.7787238398      0.0356240900      0.2589375057     -0.0329271583      0.1127236194
H      -0.6534706005     -3.8872978932      2.2741109005      0.0175533021     -0.2646207115      0.1561477430      0.0920401011
H      -1.4275449556     -3.7827960355      0.6782555894     -0.1555382495     -0.2007929894     -0.1738133070      0.0952795878
H      -2.4720565114     -1.9281924815      1.8812563575     -0.2896008011      0.0625838901      0.1239195482      0.0812482898
H      -0.9306183808     -1.4976302692      2.6535278199      0.0947214218      0.1037787230      0.2660987788      0.0875123626
H       1.4184047791     -0.4666096261      1.3564547150     -0.0714261618      0.0180790116      0.2732631395      0.1268516129
H       1.1061933385      0.3289795331     -0.1959302304     -0.1186770204      0.2094277794     -0.0689629074      0.1354140828
H       1.0795804131     -2.4165092988     -1.7589350570      0.0731237129     -0.1862432081      0.0815501872      0.2527773128
H      -0.6611182708     -2.6342064660     -1.5428996939     -0.0883360594     -0.1918231229      0.0591931115      0.1526718941
H       2.9856550260     -2.0707486450      0.1220548239      0.0441268366     -0.1934597872     -0.0511481980      0.2187896368
H       2.7758616231     -1.0815229669     -1.3238589131     -0.0076615912     -0.1100628984     -0.2640479662      0.1150865830
H      -0.9623784454     -0.1387973015     -2.0226581840     -0.2933887274      0.2249352613      0.0122447298      0.0336186813
H       0.7739400482     -0.0481765829     -2.3691197560      0.2497877643      0.2183002918     -0.0654418617      0.0462345193
H      -0.2693866409     -1.0774268281     -3.3494648213     -0.0459144908     -0.0783777722     -0.3018131729      0.0783091169
H       3.6348988755      0.9142337551     -0.0847491569      0.0240810705      0.3548438563     -0.0656239406      0.0245448722
H       3.8638359543     -0.0880492452      1.3599063279      0.0712891548      0.0315825146      0.3406750515      0.0281330779
H       4.8064783140     -0.4133305698     -0.1025690874      0.3186019617     -0.0404178847     -0.0664195479      0.0594142552
P       2.6668805323     -5.5476792279     -1.4259926203      0.1359384009      0.1022297133      0.5130808220      1.7144475943
F       2.5662756065     -3.8347829692     -1.2952564375      0.0289912613     -0.0282721878     -0.0424215516     -0.5609357092
F       3.5533044362     -5.4376707221     -2.8297208987     -0.0281002325     -0.0435881061      0.1425863752     -0.5131113202
F       1.7653509353     -5.6369203327      0.0171264751      0.1063014660     -0.0858201438     -0.2382558660     -0.5341015007
C       4.3168564287     -5.2799263301     -0.3933040363     -1.1743327366     -0.1598440000      0.1015248344      0.5454682042
C       0.9869210411     -5.2646617741     -2.4852126237      0.5371123121     -0.7806733635      0.0700416764      0.5117993844
C       2.5763854840     -7.5352173853     -1.5501504506      0.5154839667      0.7731664920      0.3734388680      0.5364772661
C       4.1906646195     -4.9725117350      1.1230701089     -0.3876858469     -0.1375807260     -0.7982377088      1.3919134656
C       0.2850789940     -6.2245182157     -3.4895886862      0.4765156172      0.2697851334      0.4642772311      1.4046766416
C       3.5599528581     -8.5757757474     -0.9472940390     -0.3102779238      0.8510854512     -0.1131173642      1.4125690111
F       4.9870696067     -4.2397655103     -0.9226886674      0.7647735822      1.0792239976     -0.4468893220     -0.4474570946
F       5.1205713174     -6.3516308441     -0.5008272046      0.9357656927     -0.8076030353      0.0070069047     -0.4558078553
F       1.2191644737     -4.1682977182     -3.2460093424      0.2191923546      0.9031544385     -1.0697207933     -0.4601785488
F       0.0108713786     -4.8984935411     -1.6107691405     -1.0492250215      0.0109353027      0.7694247361     -0.4755736040
F       2.5185115746     -7.8132072548     -2.8682447527      0.2355115357     -0.5330242198     -1.1639367310     -0.4520830606
F       1.3719780582     -7.8529118949     -1.0292964803     -0.9590698059     -0.5067528776      0.7219103502     -0.4499759976
F       5.3764155611     -4.6509179489      1.6380000229      1.2436148360      0.2660778317      0.3814239291     -0.4523769337
F       3.7123423008     -6.0050217774      1.8031748914     -0.3214534844     -0.9623943429      0.5874868263     -0.4440079095
F       3.3726320377     -3.9255978671      1.3397876051     -0.4434383105      0.8499342658      0.2462262237     -0.4850705812
F      -0.7908660862     -5.5815395098     -3.9713945533     -1.0672059147      0.6523320811     -0.4702119177     -0.4618921038
F       1.0717504393     -6.5077387344     -4.5191311127      0.7127477875     -0.1303345504     -0.9592250666     -0.4426949577
F      -0.1461572051     -7.3529057899     -2.9473106652     -0.4943165581     -0.9010144209      0.4816782349     -0.4459966581
F       4.7228727009     -8.5820900638     -1.5862823890      1.0132331561     -0.0706692005     -0.7042861084     -0.4466673687
F       3.0312046278     -9.7954334000     -1.0555548525     -0.5916498694     -1.1513352828     -0.1877152668     -0.4510090237
F       3.7751458457     -8.3440631137      0.3463481031      0.0253756810      0.0965424139      1.1576418309     -0.4547923833
