56
Properties=species:S:1:pos:R:3:forces:R:3:charge:R:1 energy=-302.74768478881896 homo_lumo=5.274751727019246 dipole="-0.27429136487543576 -3.3722565304503314 -1.1465502656120243" free_energy=-302.74768478881896
N       0.6195132597      0.3972254869      0.3242306291     -0.0194015455     -0.1503621872     -0.0066917618     -0.4883842163
C       0.2668748295      1.0941440386      1.6138257736     -0.6115318500     -0.0766121220      0.2663684932     -0.1096042304
C      -0.5478870637      0.3934904404     -0.6282596871     -0.3012455994      0.5127757879     -0.1440096473     -0.0282985058
C       0.9971230387     -1.0240898730      0.6395061092      0.2460627579     -0.3414682195     -0.4840546061     -0.0335206887
C       1.7624688093      1.1351181302     -0.3259928209      0.4983827000      0.1042704806      0.1792392664     -0.0692259190
C      -0.9746374952      0.5717543756      2.3322693585      0.3663256673      0.1794575061      0.0052638166     -0.2510833869
C      -1.1755484503      1.7606431219     -0.9029576539     -0.0373606627     -0.4810609746     -0.1774486538     -0.2881206428
C       1.5963630667     -1.8228470874     -0.5175920736     -0.1342750205     -0.0649658240      0.4498344473     -0.2463874760
C       3.0285926255      1.2516650154      0.5174735487     -0.2044760426      0.1321580105     -0.3760927219     -0.2758025130
C      -1.0670662558      1.2513034417      3.6995866035     -0.1030539371     -0.1728937616     -0.3117602179     -0.0529046131
C      -2.2997224102      1.6022504802     -1.9252998054      0.3199466128      0.0187383952      0.3120463402     -0.0437603021
C       1.7854362568     -3.2754766233     -0.0793208396     -0.0466433552      0.4091836911     -0.1742349535     -0.0461734786
C       4.1155684618      1.9284589092     -0.3174704470     -0.2863314370     -0.2201820788      0.2029408435     -0.0553552565
H       0.1447358379      2.1511503630      1.3783473650      0.1756598756      0.1331157918     -0.0408701554      0.2833103528
H       1.1304821714      0.9936037168      2.2721160005      0.1990780594      0.0314077962      0.0334759074      0.1667592631
H      -1.2999210048     -0.2810444467     -0.2105844168     -0.1283313116     -0.1837849584      0.1232967494      0.1285414409
H      -0.1886007827     -0.0345200468     -1.5674887374      0.1045524516     -0.1122065135     -0.1503782242      0.1471647824
H       0.0902456632     -1.5233738089      0.9879943046     -0.1724928101     -0.0244100556      0.0909670165      0.1567585653
H       1.7074673566     -0.9913763192      1.4688319875      0.1072705228      0.0520495639      0.2020904581      0.1407078570
H       1.3981592493      2.1367325292     -0.5474382020     -0.0804958485      0.2023105445      0.0264562196      0.2419989056
H       1.9759649696      0.6304612391     -1.2712038338     -0.0093303136     -0.1876979441     -0.2018635300      0.1100687676
H      -1.8765939941      0.7956939641      1.7568269859     -0.2435870317      0.0328015984     -0.1757544053      0.0960799582
H      -0.9228947074     -0.5119431146      2.4737969001     -0.0418080646     -0.2703700594      0.0388435141      0.0854842850
H      -1.5866651847      2.1864666456      0.0130751146     -0.0025472628      0.1064098328      0.1788992205      0.1693262024
H      -0.4334861433      2.4590051420     -1.2930951003      0.1425309894      0.2008638228      0.0051503927      0.1430843249
H       0.9388679737     -1.7944303732     -1.3899620483     -0.1352266126      0.0263291558     -0.2337727835      0.1087643047
H       2.5661605814     -1.4113952514     -0.8065142177      0.2167519030      0.1524276435     -0.1036302600      0.1185281489
H       2.8353942963      1.8627736597      1.4015380903     -0.0838761623      0.0810100809      0.1709270429      0.1904642169
H       3.3794413435      0.2695597348      0.8464734574      0.1065686327     -0.2791979931      0.1057827438      0.0779207758
H      -1.9806966214      0.9394051960      4.2044799620     -0.2546675171     -0.0885497562      0.2015756931      0.0290134390
H      -0.2116229374      0.9789195008      4.3178456052      0.2377553454     -0.0096929425      0.2195561392      0.0315843835
H      -1.0777434243      2.3339453237      3.5862324785      0.0476382411      0.2444570301      0.0798974610      0.0995685980
H      -2.7547791005      2.5741335763     -2.1109844893     -0.1816195370      0.2575533750     -0.1051174438      0.0606615451
H      -1.9136308519      1.2117382468     -2.8676594447      0.0496354399     -0.1085933593     -0.3328012509      0.0218865812
H      -3.0676213037      0.9230027364     -1.5529183330     -0.2995105687     -0.1961957415      0.0520075812      0.0239107667
H       2.2248443500     -3.8490215113     -0.8944713842      0.1353114584     -0.2464036267     -0.1801088854      0.0505985536
H       2.4496140845     -3.3311687234      0.7834853810      0.2022334476     -0.0876179485      0.2642084112      0.0422804458
H       0.8281499984     -3.7246035802      0.1867596222     -0.2580843448     -0.1976623684      0.0902685483      0.0354113139
H       5.0173348056      2.0397110183      0.2829541599      0.2976557706      0.0890644864      0.1150590715      0.0436843525
H       4.3518973760      1.3344681489     -1.2013672710      0.1338365236     -0.1620002776     -0.2959752855      0.0267338739
H       3.7854600606      2.9174179189     -0.6336120277     -0.0446521286      0.2752216041     -0.1115457903      0.0651140874
N       1.0544053110      5.8051252616      2.0484953990     -0.0407888410     -0.2457431108     -0.0179549002     -0.8357688305
S       1.7086097994      4.7389726119      3.0504084059     -0.0959792715      0.0873232197      0.2285331761      1.6303870398
S       0.3705494339      5.2800625682      0.7098163893      0.0944941076      0.1243445615     -0.0584204210      1.6440585312
C       3.4863488497      4.5684747118      2.4743126756     -0.9382888738      0.2382575628      0.1069419986      1.2050648185
C      -1.4271208383      4.9542933313      1.1355742372      1.0223777314      0.2004927827     -0.0566170298      1.2051431387
O       1.8093017519      5.3498445850      4.3448642164      0.2420552410      0.5816218486      1.0858070747     -0.7239446435
O       1.1898796023      3.3828212174      2.9772993931     -0.1353615767     -0.6609750381     -0.1428513538     -0.7919731268
O       0.8171566773      3.9859658033      0.2046161008      0.1764522528     -0.6595622224     -0.1508567812     -0.8102246284
O       0.3053048217      6.3698918117     -0.2219039248     -0.2177167164      0.9763694416     -0.7555557034     -0.7274864163
F       4.2366244293      5.5331564564      2.9720360906      0.7787152716      1.0198142657      0.5333061865     -0.4303757016
F       3.5623635774      4.6081652746      1.1504223633      0.1214013398      0.0902490772     -1.3911472149     -0.4561601135
F       3.9716775298      3.3962230523      2.8781238232      0.5287716379     -1.1968642383      0.5485174230     -0.4591066618
F      -2.1262594192      4.8328577748      0.0118396785     -0.6891148330     -0.1004109753     -1.2174311007     -0.4525006823
F      -1.9453563580      5.9249371250      1.8624467145     -0.5134146646      1.0293090803      0.7206900382     -0.4297983279
F      -1.5489675085      3.8070493353      1.8081673846     -0.2402502402     -1.0639037401      0.7589938066     -0.4741032583
