43
Properties=species:S:1:pos:R:3:forces:R:3:charge:R:1 energy=-240.07809238721705 homo_lumo=2.1653037343938366 dipole="-1.4254763796415262 -0.41374075527192583 -2.3746218082041874" free_energy=-240.07809238721705
N       0.1334043657     -0.3912141183      1.0756107848      0.0345538634     -0.1015572805     -0.1213900351     -0.4986621229
C       1.2673796744     -0.3380354190      0.1346618186      0.4715552767      0.4244850584     -0.0608854235     -0.0675687876
C      -0.6219133348      0.7039265418      1.2620933525     -0.3321510605      0.1766398007      0.1038475445      0.2860806672
C      -0.1220065656     -1.5263515923      1.7428848720     -0.3160852973     -0.2995738206      0.1676615478      0.3041726037
C       2.2820205049      0.7305439095      0.5184918973     -0.2589455930     -0.3314016674     -0.0624991349     -0.1096156394
C      -1.6916846381      0.6798615575      2.1314068679      0.0029442852     -0.1357765572     -0.0950781681      0.0061342497
C      -1.1872294606     -1.6040217014      2.6159314305     -0.0916164059      0.0913925461     -0.1239846771      0.0003855832
C      -1.9879403654     -0.4892674721      2.8201067119      0.1485400567     -0.0324792055     -0.2428566072      0.0600665919
H       1.7384544066     -1.3230528321      0.1359800442     -0.0120905215     -0.2046035014      0.0065218988      0.1212508544
H       0.8538710046     -0.1431333624     -0.8599371565     -0.1486770975     -0.0696634484     -0.2143261618      0.1187002520
H      -0.3477529404      1.5936025068      0.7095456142      0.1047917189      0.0845143275     -0.0860699774      0.1099871314
H       0.5480806389     -2.3604286601      1.5772534230      0.1109690799     -0.0480065694     -0.0625379112      0.0970707494
H       1.8519830536      1.7282336762      0.4540587238     -0.0465742196      0.3116748968     -0.0783285751      0.0423561999
H       3.1228299779      0.6654885215     -0.1706644643      0.2490424236      0.0244090391     -0.2639018508      0.0458623336
H       2.6423242266      0.5699088937      1.5313357581      0.0806661551     -0.0056762778      0.2837747033      0.1712324253
H      -2.2688665996      1.5824332718      2.2837274481     -0.1199026323      0.2062609231     -0.0080017894      0.0581284910
H      -1.3578186664     -2.5237844871      3.1597575117     -0.0060621531     -0.2131671090      0.0772307268      0.0663889704
H      -2.8096928725     -0.5211808762      3.5244159790     -0.1893233673     -0.0116774403      0.1626494186      0.0598117071
P       1.9372545421      0.2991458290      4.8746288914     -0.0506478302      0.1320541692     -0.4625522261      1.6933619777
F       2.9227395004      0.8491788830      3.6188354681      0.1356735571      0.0207947277      0.0921634068     -0.5425249219
F       3.2399033416      0.3316917302      5.8992587773     -0.1731428098      0.0056269386      0.0744223607     -0.5136638382
F       0.5725135528      0.2228190692      3.8189016039      0.4364972559     -0.0420156816      0.2924013436     -0.5541243457
C       1.5368625947      2.2094544135      5.1192732572     -0.0975081310     -0.9512566241     -0.6934517265      0.5619015115
C       2.3585679705     -1.5019866369      4.1745629184      0.3283537306      0.6822162318      0.8477162142      0.5289734819
C       0.8483619088     -0.3694375919      6.4110033401     -0.0402062533      0.3640645081     -1.0248816747      0.6011765627
C       0.8356177836      2.9444403274      3.9353485606      0.2572742840     -0.7211546341      0.1938211659      1.3931958276
C       3.6566239618     -2.2188331803      4.6214166404     -0.5560255084      0.6337457786     -0.0363383194      1.4031208093
C      -0.6920549188     -0.4930195310      6.2791070805      0.7804113341      0.2627094830     -0.4398881615      1.4061510280
F       2.6858957705      2.8612951035      5.3475008189      1.1484327967      0.7154010368      0.1648864974     -0.4375747045
F       0.7284898778      2.4370990033      6.1706751490     -0.8261491267      0.4906463060      0.9921512350     -0.4534287068
F       2.4581137271     -1.4137983356      2.8190448588      0.3213397791     -0.0708091393     -1.2635761130     -0.4795075382
F       1.3269274008     -2.3469140020      4.3833653785     -0.8470380959     -1.0237976842      0.1451911408     -0.4660160402
F       1.0869379787      0.4016465670      7.4849644843      0.1215378259      0.6295512273      1.0524719156     -0.4430940010
F       1.2993912732     -1.6011093687      6.7258568657      0.2239599127     -1.1383161821      0.5619367875     -0.4530443936
F       0.9465277330      4.2626990274      4.0751999474      0.1681344239      1.2739534926      0.3004656617     -0.4478552612
F      -0.4698898240      2.6527365840      3.9034380317     -1.1783420737     -0.0913717114      0.1182553356     -0.4678450399
F       1.3295151244      2.6311224532      2.7317401752      0.4600357101     -0.0494021537     -0.8862701656     -0.4723494646
F       4.7197685892     -1.4957610914      4.2840615957      0.9221932359      0.6857948298     -0.3492289865     -0.4446515604
F       3.6885705598     -2.4404468125      5.9268511049     -0.0410168474     -0.2373764884      1.1254445674     -0.4417742618
F       3.7548152488     -3.4014927719      4.0006764829     -0.0075237889     -1.1623011353     -0.6497608027     -0.4602613713
F      -1.2684484642     -0.7183547811      7.4547499111     -0.4235733276     -0.2521917306      1.2191914843     -0.4461590994
F      -1.0186815623     -1.5089304894      5.4676605887     -0.2511870769     -0.9699899428     -0.4984746139     -0.4745741932
F      -1.2365369301      0.6106305666      5.7618348678     -0.4931174879      0.9476306639     -0.2579218549     -0.4612147169
