41
Properties=species:S:1:pos:R:3:forces:R:3:charge:R:1 energy=-236.68229055237126 homo_lumo=2.731824899305863 dipole="-1.5763853618666268 0.9179649464159509 1.7044961359322683" free_energy=-236.68229055237126
N      -1.0114350210      1.1621510532     -0.3773007650      0.0057412648     -0.0030688272     -0.0092858458     -0.5071688254
N      -2.3626188939     -0.5271634103     -0.3434237820      0.0035146827     -0.0000975644      0.0035575895     -0.5263831135
C       1.3357697394      1.9189417890     -0.1024179670      0.0011036775     -0.0049345286     -0.0173484781     -0.1841154459
C       1.9250296323      0.5214241810     -0.2702179834     -0.0033370876     -0.0003733031      0.0052304311     -0.2167184025
C       0.0239801561      2.0946730441     -0.8584213699     -0.0005575150      0.0064934026      0.0135151732     -0.0071045881
C       3.3069964841      0.3839496908      0.3631466131     -0.0023843689      0.0022859792     -0.0001787227     -0.1572062962
C       3.9144827871     -0.9991171554      0.1360200090     -0.0047211487     -0.0060594065      0.0006338130     -0.2121367150
C      -1.5073445765      0.1599297979     -1.1180228432      0.0009006795     -0.0058004965      0.0112338659      0.5227683349
C      -1.5570164027      1.1168266635      0.8889844183      0.0000586952     -0.0014677371     -0.0100171143      0.1960829800
C      -2.4130618019      0.0524049825      0.9096076696     -0.0024868095      0.0000717740     -0.0010543121      0.2036428149
C      -3.1462921872     -1.6839462260     -0.8084315985      0.0031468832     -0.0089045805     -0.0053217596     -0.0632584074
C       5.3228540148     -1.1277116691      0.7096593794     -0.0006988013      0.0131304528      0.0067149764     -0.0627644279
C      -4.1415953038     -1.2751433696     -1.8811860843     -0.0038326609      0.0072341447      0.0021150249     -0.0986879319
H       2.0345092688      2.6722098400     -0.5097096366      0.0010203754     -0.0087377020      0.0008756996      0.1004941333
H       1.2024291215      2.1680290014      0.9671923398     -0.0026162086     -0.0076739913     -0.0007937563      0.0775258498
H       1.9890954378      0.2717758216     -1.3442157394      0.0034942969      0.0032927215     -0.0029906291      0.1852973671
H       1.2443599395     -0.2266561279      0.1784192666      0.0006297242     -0.0017427159      0.0021379342      0.1022106103
H      -0.3797343979      3.1151431515     -0.7630829030     -0.0028419555     -0.0077565346     -0.0003247460      0.0972597395
H       0.1682070365      1.8487311947     -1.9221438158     -0.0028988530      0.0065657480     -0.0126127993      0.1556188187
H       3.2518342664      0.5965387292      1.4489800345      0.0032070417     -0.0034965187     -0.0012780414      0.0626759539
H       3.9806175708      1.1489677425     -0.0687610515     -0.0028800631     -0.0020149726     -0.0094145512      0.0790318683
H       3.9203654442     -1.2105657639     -0.9478041871     -0.0047045410     -0.0000089446      0.0029601243      0.1272300455
H       3.2552205996     -1.7617551338      0.5894056863      0.0005993526      0.0012993454      0.0028723449      0.0800491897
H      -1.1266089671     -0.0772408336     -2.1504700084     -0.0063753465     -0.0035629472      0.0058906308      0.2257266910
H      -1.2941500137      1.8286997221      1.6610959430      0.0038013805      0.0103656844     -0.0012405577      0.0440288273
H      -3.0385055661     -0.3396426329      1.7023836684     -0.0088993901      0.0053136834     -0.0164327427      0.0371457132
H      -2.4350228986     -2.4326063921     -1.1864664123      0.0028140804      0.0060447849      0.0101759068      0.1709369815
H      -3.6478312416     -2.0964121773      0.0782122216     -0.0003053756      0.0013394988      0.0139406357      0.0994752133
H       5.3286370664     -0.9530759846      1.7987443628     -0.0038596461      0.0043300573     -0.0026261990      0.0218664916
H       6.0038117378     -0.3917117048      0.2510438004     -0.0064654513     -0.0080089608     -0.0030413581      0.0294287206
H       5.7389469306     -2.1296774281      0.5266605745      0.0132629283     -0.0103921872     -0.0003774235      0.0359953291
H      -4.8128280880     -0.4852809090     -1.5118634738     -0.0042948798     -0.0036018999     -0.0003739965      0.0542531088
H      -4.7458783072     -2.1452660647     -2.1750921186      0.0053360839     -0.0057284002      0.0066209433      0.0607919914
H      -3.6157684508     -0.9129089495     -2.7757092188      0.0058688525     -0.0004476947     -0.0027699655      0.0832790829
C       0.7291519551     -1.2368960285     -3.2388097391     -0.0046183766      0.0052840790     -0.0076300053      0.9068747826
O       0.0612237726     -0.1567868291     -3.3049298556     -0.0154009020     -0.0065882342      0.0003408145     -0.8207390111
O       1.9440278024     -1.4388427936     -3.1286084727      0.0206709548      0.0147378291     -0.0086046869     -0.7516585269
C      -0.1423669053     -2.5444701330     -3.2279442924      0.0065029777      0.0041226007      0.0011741647      1.2552440607
F       0.3407897998     -3.5223053864     -4.0319579120      0.0054125490     -0.0074415253      0.0109134944     -0.4466497614
F      -1.4611631856     -2.3532958723     -3.5882647158      0.0008496169      0.0144326800      0.0103203931     -0.4816600479
F      -0.1904798807     -3.0607496510     -1.9400159298     -0.0037567167      0.0015652075      0.0024937310     -0.4786831986
