30
Properties=species:S:1:pos:R:3:forces:R:3:charge:R:1 energy=-168.53378484958714 homo_lumo=0.03423378735429081 dipole="4.341873889598245 2.294072471868464 2.404744409645718" free_energy=-168.53378484958714
N       1.1238997576      0.3700049316     -0.3778911592     -0.4397818874     -0.3355306651     -0.6333625337     -0.5217173147
N      -1.0987498045      0.3667920456     -0.3671047219      0.7141282753     -0.2633833119     -0.5518941684     -0.5079151053
C       0.0112601126     -0.2331452353     -0.8386420628     -0.2009979556     -1.4178055449     -0.9602177026      0.5594056508
C       2.5052385606     -0.0204414618     -0.6447223054      0.6732604791     -0.3550181484     -0.0249323476     -0.0665268929
C      -2.4807773614     -0.0198085236     -0.6336241370     -0.9262825866     -0.5109147681     -0.1453713860     -0.0900519158
C       0.7045659416      1.3883204452      0.4004213368     -0.7540517508      1.3194901980      1.0480359739      0.2265014714
C      -0.6756172751      1.3866469385      0.4067097997      0.8477575508      1.1307498545      0.9004148191      0.2439125078
C       3.1103540117     -0.6924895038      0.5821628204      0.0324834180     -0.1011628915      0.2400818813     -0.1159223517
C      -3.0929404865     -0.6853613790      0.5932670173      0.0140797089     -0.0535509103      0.2880753331     -0.1123286286
H       0.0092740801     -1.1022118318     -1.4850701657     -0.0506298157      0.0027111220     -0.0479829950      0.1042900036
H       2.5407514522     -0.7312997968     -1.4991165679     -0.2956220342      0.4028982949      0.1784511834      0.1333444965
H       3.1008453726      0.8772980046     -0.9174285520     -0.4009906518     -0.1572522193     -0.0207130772      0.1308947716
H      -3.0731406558      0.8779759579     -0.9133323294      0.4201397573     -0.1994289090     -0.0447462381      0.1378643475
H      -2.5124517732     -0.7350199053     -1.4828073763      0.0185608824      0.3121930027      0.0133523271      0.1802800407
H       1.3531695276      2.0789478096      0.9237030354      0.1994615742     -0.0616881373     -0.0692147065      0.0516853126
H      -1.3214740228      2.0765143915      0.9344654853     -0.2085623263     -0.0721190978     -0.0698377283      0.0575240537
H       3.1121978133      0.0082509738      1.4436891804      0.0525731196     -0.2938244516     -0.1909945503      0.0726178804
H       4.1553534139     -0.9974046661      0.3649387299     -0.3133733911      0.0995406871      0.1025754266      0.0780689612
H       2.5206442167     -1.5959351016      0.8477631178      0.2261952053      0.2760026557     -0.0082800172      0.0825506713
H      -2.5088595107     -1.5910084213      0.8634655937     -0.2469003155      0.2506962376     -0.0320882215      0.0664742047
H      -4.1384963136     -0.9864150570      0.3723456574      0.3639109420      0.0678209024     -0.0284696811      0.1161833955
H      -3.0955882040      0.0178094386      1.4527710852     -0.0414911599     -0.2615132625     -0.1519473245      0.0472251006
S      -4.9489869326     -2.7613469105     -3.8031399675     -5.5691079846      0.8201470166      8.8370102333      1.5806023188
O      -4.8121944286     -3.9120430502     -2.7951283875      1.4929774959      0.2386181951     -2.9383883422     -0.7481750312
O      -4.5194744690     -1.5314801339     -2.9912885502      1.5555455167     -0.4152549545     -2.4614909346     -0.7918354123
O      -6.4691766169     -2.5821703420     -3.9267015802      2.3382762410     -0.3569172479     -2.4231755034     -0.7308288910
C      -4.0688470905     -2.9961164729     -5.3713709531      0.1731316604     -0.1633665910     -0.8557926856      1.1141424761
F      -4.5805898511     -4.1000129927     -6.0254912758      0.6742248095      0.9589645724      0.2814769359     -0.4262874756
F      -2.7243765717     -3.1915266143     -5.1208368651     -0.7195286249      0.1032953822     -0.5420935931     -0.4405649770
F      -4.2315025030     -1.8755736021     -6.1627747116      0.3706138480     -0.9643970102      0.3115196232     -0.4314136685
