44
Properties=species:S:1:pos:R:3:forces:R:3:charge:R:1 energy=-239.43515246753498 homo_lumo=2.3903052894887695 dipole="-5.353641952186889 -2.1345934909603432 -3.8606816790060283" free_energy=-239.43515246753498
N      -1.8934396666      0.1362422023     -0.0556987800      0.0127075998      0.1034111211     -0.0224031201     -0.5249441794
C      -2.1134659179     -1.0696398544     -0.9116181524      0.1754452906     -1.8399950799     -1.4665804554     -0.0071038141
C      -3.0101407477      0.1137019815      0.9397895764     -1.6543725345      0.5257280542      1.6387752771     -0.0096817181
C      -0.5843429616      0.0289174918      0.6670105343      1.8347397891      0.0339454125      0.4046479290     -0.0602028223
C      -3.4914262088     -1.6233922375     -0.6038519717     -0.5919053419     -0.0321698728     -0.6045062801     -0.1415871375
C      -3.7209865030     -1.2214162238      0.8258362488     -0.0410633286     -0.5319347522      0.6543972036     -0.1428033941
C      -1.9799760001      1.3701699674     -0.9026978862     -0.0062633544      1.7140313359     -0.7455640765     -0.0882039840
C       0.6648394271      0.0315266863     -0.2481303114     -0.4454414340     -0.0222885956      0.1059360141     -0.2140967922
C      -1.7532461864      2.6888704415     -0.1398339032      0.1243881988     -0.3008297002      0.1190847507     -0.1275164104
C       1.9367486505     -0.1841577366      0.5813409597     -0.1518796661      0.1515029356     -0.0125309040     -0.1886573965
C       3.1879948447     -0.2058656161     -0.3048157666     -0.0241453310     -0.0615549458      0.3755845238     -0.1681985540
C       4.4570944052     -0.3635119494      0.5419736479      0.1034571067      0.1648653179     -0.0963775809     -0.2332320293
C       5.7062253152     -0.4003294837     -0.3328080340      0.1862681611     -0.0789390585      0.0446488930     -0.0819926774
H      -1.3856199058     -1.8836463516     -0.6886279521      0.0494980598      0.7527281613      0.1783553139      0.1593428978
H      -2.0235863017     -0.8582854729     -2.0021059186      0.2275374109      0.2754658811      0.5986624012      0.1422760638
H      -3.7724062370      0.9014595538      0.7384162498      0.6885402337     -0.0558451414     -0.2630147315      0.1502595899
H      -2.6688729623      0.2718829650      1.9887766808      0.2523630418      0.1370155621     -0.6460627122      0.1553817830
H      -0.5717010390     -0.9082489096      1.2706895071     -0.3814925888      0.2492353698     -0.3428026721      0.1572953036
H      -0.4790914437      0.8553917028      1.4043726435     -0.3267303637     -0.1507915218     -0.3646151105      0.1851131500
H      -3.5344771469     -2.7273775944     -0.7307048304     -0.0181766334      0.4554107877     -0.1986570151      0.1056140673
H      -4.2489414623     -1.1392483214     -1.2593808343      0.1427210217     -0.2761079933      0.1227256309      0.1022129913
H      -4.8051499663     -1.1373659787      1.0586721890      0.4735650566     -0.0500504295      0.1544294177      0.1046256362
H      -3.2464908193     -1.9617995940      1.5078388270     -0.2706090171      0.1810665751     -0.1209184047      0.1114726009
H      -1.2521888807      1.3274235986     -1.7417245075     -0.0800221966     -0.3955103810      0.4572694823      0.1645611346
H      -2.9814667265      1.4255287783     -1.3874347453      0.2100979082     -0.4844053476      0.3585972502      0.1483791696
H       0.5922973001     -0.7699536495     -1.0129588678     -0.0511395160      0.1821336641      0.0599550201      0.1012669731
H       0.7554272071      1.0061014093     -0.7707650342     -0.0648604633     -0.2083405656      0.0340035694      0.1235852339
H      -1.9693206377      3.5409090669     -0.8177619293      0.0330351049     -0.3262162980      0.1491486634      0.0919836632
H      -2.4218374202      2.7752462772      0.7406571454      0.2197612415      0.0419116634     -0.2198972108      0.0761318438
H      -0.6989148390      2.7860324566      0.1890596343     -0.3243093848      0.0222929258     -0.0174687125      0.1034185898
H       1.8627286249     -1.1478532240      1.1324881044      0.0354695587      0.2693867789     -0.0223712883      0.0869651072
H       2.0254836974      0.6397182671      1.3217737628      0.1180547091     -0.2752836266      0.0328324432      0.1748108135
H       3.2484961029      0.7426177599     -0.8829613530     -0.0078706126     -0.2266126231      0.0501472032      0.0820922384
H       3.1151003256     -1.0534694558     -1.0215234930      0.0146958069      0.2000992095     -0.0011496343      0.0633123076
H       4.5432620101      0.4886996443      1.2501145650     -0.1809309890     -0.2951987109      0.0028006804      0.1798203833
H       4.4021764804     -1.3049656159      1.1311270317     -0.0766125668      0.2864826179     -0.0252254820      0.0832863412
H       5.7961438767      0.5402229446     -0.9174758362      0.0579978279     -0.2959821688      0.1072216895      0.0353133066
H       6.6064139071     -0.5062302644      0.3091269969     -0.1749731577      0.0571346345     -0.2980628090      0.0559792179
H       5.6638434946     -1.2639828897     -1.0304015301      0.1148121295      0.2493828582      0.0774154772      0.0168147715
B       4.0060467040      2.4559916201      4.2446963440      0.4253320627      0.3780610920      0.5252827092      1.2839000765
F       5.0284009680      3.1276474121      3.5229162574      0.0860089934      0.0201185878     -0.2223107965     -0.5620395959
F       3.1162041992      3.4101499167      4.8055471737     -0.2535330924      0.1094399972     -0.0013825970     -0.5601481358
F       4.5887658225      1.6827663210      5.2835548458      0.0055174873     -0.1579316471      0.0466536464     -0.5564642038
F       3.2893038422      1.6023409057      3.3672776107     -0.4656822278     -0.4948620839     -0.6066735959     -0.5783424106
