44
Properties=species:S:1:pos:R:3:forces:R:3:charge:R:1 energy=-241.3491214786291 homo_lumo=5.603116962351259 dipole="-0.8548527554502607 -1.44265599155654 -2.3949114622342442" free_energy=-241.3491214786291
N      -1.7427917021      0.6023093968     -0.4314354326     -0.0033488033     -0.0101710830     -0.0040451415     -0.4860254057
C      -2.1580732583     -0.7784493327     -0.8844629846     -0.0071845377      0.0092124479      0.0166718419      0.0099507058
C      -2.8209230927      0.9484128798      0.5873530961      0.0111055113     -0.0020213162      0.0083453514     -0.0312005236
C      -0.3939061611      0.5774657545      0.2728292522      0.0002935132     -0.0072445769      0.0065074104     -0.1095115136
C      -2.6143294730     -1.4921454523      0.3863252005      0.0051478958      0.0062472553     -0.0030008935     -0.1564279202
C      -3.0785178300     -0.3578487600      1.3386830969      0.0028857719      0.0039773982      0.0003149550     -0.1547692132
C      -1.7448702645      1.5614286506     -1.5974126622     -0.0042044166      0.0152426574      0.0065408163     -0.0563950603
C       0.7933370526      0.2156135150     -0.5982967376     -0.0001789653      0.0023623895      0.0069315958     -0.2177429687
C      -1.3365019720      2.9741618206     -1.2351976395      0.0065289613     -0.0034245193      0.0075837400     -0.1025529475
C       2.0546354826      0.1848719427      0.2735398478      0.0059464729      0.0015462212     -0.0158763018     -0.1740937699
C       3.3296588975     -0.0311397651     -0.5358902876     -0.0069979955     -0.0031728189      0.0175689106     -0.1627808949
C       4.5804667293     -0.0556430074      0.3419953259      0.0068191883     -0.0048748919     -0.0169129786     -0.2047344050
C       5.8638423762     -0.2641026593     -0.4574871971     -0.0063178616      0.0008163706     -0.0061803334     -0.0644070241
H      -1.3274092333     -1.2546533553     -1.4185484918      0.0113695378     -0.0084464984     -0.0048969786      0.1265655652
H      -2.9953584171     -0.6299643231     -1.5836444959     -0.0054942652      0.0026817934     -0.0008695765      0.1178080817
H      -3.6948696368      1.2684152107     -0.0006246115     -0.0078203232     -0.0020633577     -0.0051810649      0.0988983988
H      -2.4590574174      1.7660266333      1.2279637425      0.0013075239      0.0058760915     -0.0003541509      0.2237288651
H      -0.4997457986     -0.1125163144      1.1202980609      0.0025643834      0.0043910992     -0.0022103248      0.1942645603
H      -0.2645554240      1.5718490911      0.7148058682      0.0005641560      0.0049594636      0.0034689075      0.2710822988
H      -1.7907842922     -2.0685827055      0.8315065288      0.0131354948     -0.0007963482      0.0056350908      0.0911883776
H      -3.4180096982     -2.2036864181      0.1490531902     -0.0053113752     -0.0042691912      0.0051933541      0.0938059876
H      -4.1443151205     -0.4413663735      1.5924075289     -0.0093766290     -0.0003206364      0.0005485806      0.0899497857
H      -2.5101062651     -0.3559649896      2.2785840527      0.0044595483      0.0028215230      0.0080346391      0.1390584700
H      -1.0813029960      1.1278395711     -2.3599625652      0.0154941070     -0.0074744280     -0.0076688116      0.1338309992
H      -2.7729197169      1.5357544629     -1.9919410805     -0.0083311724     -0.0005652816     -0.0020776453      0.1162727981
H       0.6685860683     -0.7657119371     -1.0897714644     -0.0078818335     -0.0089788716     -0.0009198915      0.0779020044
H       0.9329889784      0.9643208125     -1.3966310611      0.0078047411      0.0130690343     -0.0112869727      0.0976839525
H      -1.5015757495      3.6158006676     -2.1132442822      0.0028362377     -0.0010899713     -0.0157552788      0.0603473955
H      -1.9205081209      3.3724635841     -0.3951207544     -0.0006297010      0.0064379470      0.0002981015      0.1016161602
H      -0.2769295922      3.0438877762     -0.9570199157      0.0114520308     -0.0009001558     -0.0021222564      0.0746624378
H       1.9531478502     -0.6164296273      1.0271775208     -0.0006243752     -0.0091043043      0.0030061368      0.0890217857
H       2.1187423160      1.1259379448      0.8451952846     -0.0014822065     -0.0025410750      0.0040659660      0.1556836440
H       3.4296598213      0.7750238707     -1.2870573637     -0.0000872068      0.0113224978     -0.0029302403      0.0797652115
H       3.2610739907     -0.9791344571     -1.1032308885     -0.0001992496     -0.0083232396     -0.0052801316      0.0714276116
H       4.6387756235      0.8914904349      0.9066551647      0.0035931606      0.0047220319      0.0042496648      0.0975722807
H       4.4759398908     -0.8564418693      1.0957984538      0.0011402091     -0.0103936011      0.0008072878      0.0870117120
H       6.0040195910      0.5422661507     -1.1954267110     -0.0033394168      0.0019213381     -0.0012863886      0.0317925938
H       6.7486083118     -0.2774170754      0.1969565442     -0.0016736809     -0.0002466170      0.0004053488      0.0389091440
H       5.8366964212     -1.2191150911     -1.0070773294     -0.0024387094      0.0011269586     -0.0038034309      0.0285558025
B      -0.4588811222      2.5571966709      3.0234886823     -0.0026482899     -0.0157357502     -0.0190426514      1.3855628733
F       0.8656611218      2.3510437885      2.5353471797     -0.0197472482      0.0089956868      0.0077536964     -0.5678607666
F      -0.4737734674      3.3250830532      4.1846439964      0.0001144776      0.0050528583      0.0063616311     -0.5276635300
F      -1.0757605046      1.2766762671      3.2392484078      0.0015847893      0.0104340987     -0.0021501015     -0.5816595378
F      -1.2117995569      3.2187210076      1.9685930711     -0.0108294491     -0.0110586288      0.0135585184     -0.5860940223
