55
Properties=species:S:1:pos:R:3:forces:R:3:charge:R:1 energy=-293.2226185570034 homo_lumo=3.180974468742114 dipole="-8.458466550330472 0.41150262102786744 -0.5297858532603871" free_energy=-293.2226185570034
N       0.2579630639     -0.1191895373     -0.1903695576      0.0540076347     -0.1855772150     -0.3103500960     -0.5275390882
C      -0.6068524025      0.6930789428     -1.1064200029     -1.2354792271      1.0483803343     -0.8651884875     -0.0304197791
C      -0.5014941575     -1.3398993193      0.2357358110     -1.0914867140     -1.2861490520      0.7931497727     -0.0347719791
C      -1.9741181704      1.0684491292     -0.5102853717      0.0426519764     -0.0519869648      0.0412647277     -0.1805881078
C      -1.8830149825     -1.0376532380      0.8508939073     -0.0031529299      0.1628689373     -0.0421851112     -0.1710736022
C       0.6745270828      0.6631114021      1.0257547197      0.6727848898      1.1294833774      1.2506163373     -0.1020469024
C       1.4476242370     -0.5545083434     -0.9996623342      1.7778429992     -0.7460852915     -0.7207925035     -0.0936989809
C      -2.7330677091     -0.1845418427     -0.0856899346     -0.2879488882      0.0477832052      0.1524805982     -0.1695625022
C       1.5441855480      1.9046690946      0.7567239234     -0.0520444047     -0.1868073558     -0.2684508017     -0.1370930467
C       2.5161275826     -1.3616315499     -0.2393994478     -0.2450811376      0.1623438470      0.1666743346     -0.1481269606
H      -0.8101785451      0.1237861796     -2.0439375087      0.3795913061     -0.1694861227      0.5034413462      0.1543803882
H      -0.0926667433      1.6201887027     -1.4352293718      0.2501581455     -0.4422893268      0.3430755440      0.1640722814
H       0.0700967809     -1.9194238874      0.9925432717      0.1887821324      0.4367208621     -0.4108025647      0.1674258704
H      -0.6650901116     -2.0195665549     -0.6324809561      0.3248749165      0.5303416282      0.0502702169      0.1496878538
H      -2.5692679812      1.6016759628     -1.2828836074      0.3673396829     -0.0295081665      0.1281705716      0.1261562193
H      -1.8629111800      1.7658319779      0.3454178338      0.0066124339     -0.1127738089     -0.1732710185      0.1143687660
H      -1.7785344107     -0.5362484058      1.8355095570      0.0227206980     -0.1306146536     -0.1863697431      0.1121631656
H      -2.4114403760     -1.9978089200      1.0366867971      0.3738644838      0.1457099212      0.0110243081      0.1296901150
H      -0.2044482345      1.0158641457      1.5989380088     -0.1109057537     -0.3854532734     -0.5174984720      0.1789407730
H       1.2217137458      0.0102024239      1.7398238647     -0.2054269231     -0.1808615480     -0.5919940203      0.1691553778
H       1.1193218694     -1.1845984364     -1.8584840122     -0.4289437913      0.3415971969      0.4459195630      0.1517778486
H       1.9488799141      0.3214513399     -1.4671971905     -0.4781433077      0.0003877192      0.3809550676      0.1708181080
H      -3.6744102693      0.1069475225      0.4279042805      0.1771119401     -0.1550177556     -0.2310378254      0.1078025423
H      -3.0024768784     -0.7791739296     -0.9865282697      0.0120101844      0.1402096395      0.1879771964      0.1002300321
H       1.8107715589      2.3696525037      1.7293246464     -0.1340465844     -0.2445449494     -0.2402497054      0.1018735631
H       2.4946693473      1.6473399361      0.2507959088     -0.2085677696      0.1442054459      0.1182210253      0.1126666761
H       0.9957633506      2.6696926873      0.1725878514      0.2062837651     -0.1714982198      0.0971143077      0.0647711526
H       3.3316089522     -1.6271832666     -0.9451288996     -0.2671427239      0.1715357831      0.1804914763      0.1260585617
H       2.9740152386     -0.7719028750      0.5783109476     -0.0311119895     -0.2512643803     -0.2301419588      0.1061254430
H       2.1070224878     -2.3106395098      0.1597280406      0.1608784123      0.2346350806     -0.0501317702      0.0647617308
P       9.0416694509     -0.5455800308      0.4304642339      2.1436571994      1.4519256651      1.3785517657      1.6454282742
F       9.5874867352      0.8662580703      1.2514321873      0.4388462517      1.3551822549     -0.7629486473     -0.5242705235
F       8.8069546703     -0.2672127033     -1.2543804930     -0.9057593745      0.0558032320      0.4612979460     -0.5191516743
F       9.4844453629     -1.1523691010      1.9784470562     -0.6222003732     -0.3039422436     -0.0582440798     -0.5160824312
C      10.8597252794     -0.4117125170     -0.2326503760      0.1367118468     -0.6276988524      0.1331998602      0.5385744067
C       7.4747078039      0.5503117280      0.7303828763     -0.4827111160     -0.5652980968      0.1512922765      0.5715457602
C       8.3206071805     -2.3388245814      0.3794775572     -0.2660001417      0.2689819284     -0.6882088435      0.5312259659
C      12.0110132888     -0.4322923798      0.8096512126      0.4350805742      0.2722208825      0.6169653011      1.3333199303
C       6.1468464796      0.0629570604      0.1155302082     -0.0208057674      0.0903642562     -0.3057740618      1.3157712021
C       9.3275222645     -3.4935766737      0.2064306394      0.6949674142     -0.6885133865      0.0696209903      1.3643858099
F      10.9963383023      0.7796412019     -0.9351910007      0.1811081470     -0.4526208630      0.3487365964     -0.4394875389
F      11.0996568977     -1.4326952360     -1.1308123972      0.5525805802      0.1585253643      0.0055863005     -0.4540899804
F       7.6897367861      1.8210136874      0.2044269227     -0.4940974784     -0.7292323533      0.0661070514     -0.4352768394
F       7.2663748929      0.6749813728      2.0971912804     -0.4242587078      0.0464157543     -0.4713837743     -0.4406066672
F       7.4493637123     -2.4355196348     -0.6909083377     -0.1479094112     -0.6078073486     -0.0168433845     -0.4579329513
F       7.5845789886     -2.5850913108      1.5307771900      0.2571787923     -0.1786039976     -0.4956929169     -0.4439289645
F      13.2173273191     -0.4958782481      0.1344757714     -0.4196730900      0.0178652703      0.4194879168     -0.4560045293
F      11.9441667774     -1.5239083779      1.6486332749      0.5283440942      1.0567687763     -0.6794254301     -0.4428456360
F      12.0231305101      0.7205592088      1.5740342104      0.4137262061     -1.1549886155     -0.5508309305     -0.4381975082
F       5.1882548980      1.0438473644      0.3000364944     -0.3226980448     -0.3404118315     -0.1948305753     -0.4816992737
F       6.2663358106     -0.1578069085     -1.2436749629     -0.7480387179      0.2139032311      1.2795132150     -0.4384652396
F       5.6913981740     -1.0809756346      0.7393902427     -0.1046330063      0.9659375913     -0.6494997099     -0.4601961808
F       9.8025520781     -3.5390336549     -1.0908396414     -0.4402842430     -0.2179699000      1.1851864029     -0.4395471612
F       8.6810751135     -4.6924541244      0.4525871513      0.3734711483      0.4456207130     -0.1705594275     -0.4557107505
F      10.3835204193     -3.3988183447      1.0850647625     -0.9946362388     -0.4987123248     -1.0836861567     -0.4347630189
