40
Properties=species:S:1:pos:R:3:forces:R:3:charge:R:1 energy=-222.1755003213689 homo_lumo=3.562128621439666 dipole="-1.1681831190275027 -1.0333246717018922 -1.2785640986805766" free_energy=-222.1755003213689
N      -0.2984361252      0.1228173586      0.4760369101      0.0022510617      0.0051434104      0.0021513478     -0.5068583956
C      -1.1369821468      1.3948289100      0.4769174495     -0.0046140923     -0.0068737766     -0.0139397239     -0.0325583543
C      -0.8862656616     -0.8842865248     -0.4782622532     -0.0049290553      0.0208228094     -0.0144571720      0.0036901388
C       1.0915484620      0.5466968932      0.0144209212     -0.0026746779     -0.0147971693      0.0100779704     -0.0472605649
C      -2.6099940546      1.1328064746      0.7402964410      0.0044635041      0.0009641818      0.0217651112     -0.1706663363
C      -2.3432153824     -1.1907975815     -0.1693608319      0.0048664638     -0.0158885690      0.0088041243     -0.1585149878
C      -3.1876391635      0.0828773123     -0.2099098608     -0.0101902927      0.0093917188     -0.0165542715     -0.1640504595
C      -0.2087039838     -0.4319063927      1.8749740183     -0.0037650798      0.0034813138     -0.0053913873     -0.0088018420
C       2.1599578107     -0.5240943104      0.1057031639     -0.0056526426      0.0108820003      0.0074677254     -0.2031108959
C       3.5227288458      0.1058802024     -0.1940176720      0.0037759233     -0.0030057518      0.0030568580     -0.2048237291
C       4.6526683367     -0.9161922255     -0.1256146346      0.0182628014      0.0015445575     -0.0012719552     -0.0664022553
H      -0.9997810495      1.8303796414     -0.5273584977     -0.0051163936     -0.0091629930      0.0106523384      0.1076205616
H      -0.6420863286      2.0510614928      1.2222575451     -0.0015154452     -0.0038156480      0.0071394416      0.2077376913
H      -0.2556956052     -1.7823996465     -0.4272717698     -0.0027764226     -0.0019847123     -0.0008587241      0.1342246717
H      -0.7890965044     -0.4448413722     -1.4856934070     -0.0069511726     -0.0059883695      0.0112743703      0.1182436293
H       1.3381306221      1.3965544342      0.6764460913     -0.0027161438      0.0024501041      0.0018784538      0.2459696371
H       0.9644741338      0.9028104624     -1.0213123643     -0.0067681847     -0.0022159468     -0.0025299977      0.0827763283
H      -3.1336269154      2.0967995669      0.6258878985      0.0033894531     -0.0093834729     -0.0003940723      0.1073896692
H      -2.7684095785      0.8268910577      1.7884794662      0.0035861217      0.0028997979     -0.0122450127      0.0950373352
H      -2.4243993263     -1.6756193083      0.8192063618     -0.0019100610      0.0069833100     -0.0144973177      0.1030337067
H      -2.6986093208     -1.9270958683     -0.9101819278      0.0033567621      0.0195562809      0.0027978877      0.0977594389
H      -4.2357670208     -0.1419836024      0.0476025573      0.0126227059      0.0046098254      0.0018194282      0.0821952485
H      -3.1881514348      0.4823486246     -1.2422900920      0.0042297147     -0.0033264545      0.0197031462      0.0850145490
H      -1.1879179142     -0.3490911199      2.3558949240      0.0042666733     -0.0179783286     -0.0004449603      0.0881203903
H       0.0826998476     -1.4880838885      1.8090664045     -0.0035732687      0.0105421435      0.0000274160      0.0493484311
H       0.5752704207      0.1537427272      2.4156400910     -0.0114972087      0.0010689881     -0.0031859228      0.2104074555
H       1.9733580330     -1.3603045418     -0.5923268121      0.0001354996     -0.0025442672      0.0029617262      0.0682734536
H       2.2020327704     -0.9153729103      1.1338258841     -0.0028414942     -0.0052163640      0.0033066037      0.1415441866
H       3.6917801424      0.8983134581      0.5544723179      0.0047805555      0.0059192338     -0.0007108696      0.1394341676
H       3.5069483486      0.5868296614     -1.1894998296      0.0014943834     -0.0026359866      0.0035519153      0.0688086227
H       4.5098651074     -1.7241476758     -0.8612198899     -0.0044275087     -0.0036070835     -0.0070808585      0.0218487120
H       4.6985115697     -1.3724583877      0.8759623542      0.0070501841      0.0001101779      0.0032324743      0.0429336122
H       5.6266042875     -0.4449660210     -0.3261862560      0.0049611099     -0.0046035503      0.0023587531      0.0382525162
C       2.6108603668      3.1823148041      3.8688388840     -0.0034117914      0.0035555968     -0.0041527542     -0.0894893854
C       1.8059488943      2.2481252358      2.9583019578      0.0076022778      0.0029277974      0.0006595735      0.8947138278
O       2.1286841249      1.0192703031      2.9679798970      0.0080737055     -0.0123377186     -0.0012601532     -0.8380643647
O       0.9021645277      2.7830407634      2.2399461362     -0.0087216962      0.0018963973     -0.0175548514     -0.8427061159
H       3.0288151577      2.6314168126      4.7225380399      0.0030181597      0.0032330044     -0.0017996509      0.0311212705
H       3.4497269011      3.6016908409      3.2900744214     -0.0016743759      0.0038436194      0.0015026192      0.0358931462
H       1.9926551003      4.0223180912      4.2147260410     -0.0064600525      0.0035398935     -0.0078596296      0.0319152887
