32
Properties=species:S:1:pos:R:3:forces:R:3:charge:R:1 energy=-184.56043088220065 homo_lumo=0.9232453421878484 dipole="1.4161868719929303 1.7541099275586844 -2.804077609265499" free_energy=-184.56043088220065
N       1.7391027108     -0.0253570508     -0.5219959724      0.9226761540     -0.0925281386     -0.0198892888     -0.5172176447
C      -0.6423828809     -0.0007898432      0.0660352232     -0.0720932430     -0.1495883440      0.0987804147     -0.2366089632
C      -2.0818749410     -0.0018206043     -0.4564836408      0.2292086952      0.0605680761      0.1625034825     -0.1772728038
C       0.3787529361     -0.0516294371     -1.0732180330     -1.0334249773      0.0236174965     -0.2397310498     -0.0204988175
C      -3.0762264759      0.0412722889      0.7106818133     -0.0977756208     -0.1101532236     -0.0583735350     -0.2192858042
C      -4.5191403228      0.0386430477      0.2156454170     -0.1440193359      0.0444593706      0.1128152410     -0.0824206945
C       2.3607399920     -1.1981216408     -0.1891897685      0.6068366937      0.5712462047      0.4149881489      0.2952674750
C       2.3568619177      1.1747571901     -0.2974238412      0.7757313370     -0.5315064397      0.4496354583      0.2675051224
C       3.6379102454     -1.1880171569      0.3767943495     -0.4875902528      0.7013945387     -0.2128528622      0.0150803889
C       3.6347944083      1.2205137755      0.2647520640     -0.6366456585     -0.5979052044     -0.2130846184     -0.0062784542
C       4.2766002243      0.0302685395      0.6034459535     -0.3926896935     -0.1367142425     -0.1787285289      0.0626575854
H      -0.4940069869     -0.8873076681      0.7153795842      0.0833330210      0.2692172171      0.0917497117      0.2275089471
H      -0.4670490629      0.9158337086      0.6712728354      0.0311049675     -0.3112958629     -0.0218868784      0.1171414713
H      -2.2541415956     -0.9225330125     -1.0570089816     -0.0278895030      0.2346102987      0.0441461618      0.0857067502
H      -2.2363478987      0.8852644795     -1.1095827889     -0.0725991937     -0.2144198945     -0.0027848670      0.0710260321
H       0.2268525451     -0.9745720676     -1.6769230272      0.3371441958      0.2474438137      0.2650246059      0.1251401827
H       0.2256745672      0.8117803624     -1.7587741372      0.3703367855     -0.2110312060      0.2313252343      0.1139674389
H      -2.9051204877      0.9604973241      1.3129347143      0.0863947767     -0.2943723145     -0.0540927453      0.0946247949
H      -2.9208372704     -0.8423527193      1.3683072016      0.1519174391      0.3317054454     -0.0644572989      0.1427477394
H      -4.7091584028      0.9250910169     -0.4257853447     -0.0719002736     -0.2691853596      0.0986184702      0.0282891445
H      -5.2078823643      0.0765103758      1.0857284928      0.0747299365     -0.0229084069     -0.3296925707      0.0525936967
H      -4.7277959405     -0.8868161204     -0.3617048856     -0.0458878325      0.2835779620      0.1028647281      0.0382274790
H       1.8664828983     -2.1487296871     -0.3505333799     -0.5239993651      0.0670520394     -0.0809411930      0.1303619815
H       1.8598844822      2.1050273025     -0.5460121673     -0.4623517626     -0.1340058817     -0.2108623922      0.1078621076
H       4.1253533921     -2.1175470580      0.6409787479     -0.0644833817     -0.2890835172      0.0522392354      0.0808388467
H       4.1203742296      2.1719512264      0.4395816993     -0.0141105559      0.2860741855     -0.0061673152      0.0665550337
H       5.2661327356      0.0521396668      1.0408412583      0.2749135422      0.0009247994      0.1475748193      0.0682526806
B       0.4012923565     -2.1505527341      3.1962765273     -0.2007992996     -0.3008995393      0.9199421800      1.3352464302
F      -0.9193554030     -1.7588397817      3.5448438217     -0.0859804688      0.1212804803     -0.2032727911     -0.5619725785
F       0.3542634751     -3.0362581800      2.0861054491      0.0841314086     -0.0790742416     -0.6771117892     -0.5766251858
F       1.0086205128     -2.8071302794      4.2993334192      0.0630993272      0.0456222275     -0.1497768355     -0.5507662611
F       1.1610147277     -0.9995967899      2.8542018607      0.3426821383      0.4558776616     -0.4685013327     -0.5776541215
