32
Properties=species:S:1:pos:R:3:forces:R:3:charge:R:1 energy=-185.12329465947727 homo_lumo=3.464076313881564 dipole="0.7945859809413669 -2.068280681788991 0.05182101308707492" free_energy=-185.12329465947727
N       2.0578460144      0.0534870819     -0.6192888513      0.0496194388     -0.1331911982     -0.2722622631     -0.4940232780
C      -0.2867598955      0.1757346451      0.0866766473     -0.2060648431      0.0598627026     -0.5805042816     -0.2022611381
C      -1.6994846154      0.4419174124     -0.4370180841      0.1867018408     -0.1001033439      0.6591237235     -0.1722163634
C       0.6710878173     -0.0772113333     -1.0839211170     -0.3983253745     -0.0008997935      0.3448584885     -0.0064632282
C      -2.6721657688      0.6834408699      0.7209811471     -0.1780870224     -0.0269693247     -0.6230370481     -0.2005372337
C      -4.0805414932      0.9767488346      0.2076953569      0.3351496903     -0.0794371077      0.2841552301     -0.0457497140
C       2.5744590181     -0.8952480391      0.1870565060      0.2665922773     -0.1933951284      0.2059323208      0.2668875860
C       2.7330340362      1.1797923813     -0.8879150109      0.4711507546     -0.0243286827     -0.2888328639      0.3060465694
C       3.8306449059     -0.7483123137      0.7204906162     -0.0045472278      0.0072171899      0.0628372094     -0.0303885316
C       4.0157093842      1.3637627035     -0.3842159886      0.0872353232     -0.1387291364      0.0445293098     -0.0002041732
C       4.5683006438      0.4041286141      0.4368725516     -0.1743970853     -0.0229136424     -0.1290923397      0.0400776161
H      -0.2795710976     -0.6868348003      0.7609837181     -0.0371617323     -0.2676912710      0.1983689110      0.0724376408
H       0.0636209154      1.0497234127      0.6405762966      0.1023916311      0.1405321556      0.0787976120      0.1820175838
H      -2.0410087042     -0.4082561704     -1.0388290686     -0.1658986077     -0.2279567668     -0.1795226953      0.0626750363
H      -1.6722051802      1.3269617288     -1.0802928310      0.0232492625      0.1937445329     -0.1382721779      0.1284096269
H       0.5366658394     -1.0792038811     -1.5011731325      0.0538072874     -0.2383859213     -0.1105826281      0.0933857161
H       0.5118937040      0.6699095831     -1.8636953127      0.0267793984      0.1022971358     -0.0707381581      0.1473791694
H      -2.3188040624      1.5304422645      1.3174927754      0.1510930737      0.1803963042      0.1677708367      0.1010931657
H      -2.6957983934     -0.1987701258      1.3707836707      0.0341195969     -0.1978709277      0.2032142579      0.0695158516
H      -4.0780826658      1.8664790442     -0.4231141025     -0.0400045601      0.2600024696     -0.1934560154      0.0367448638
H      -4.7556001748      1.1474779512      1.0467326050     -0.3067644383      0.0698012655      0.1831846079      0.0295139425
H      -4.4586740734      0.1368444025     -0.3776542464     -0.1571295535     -0.2283217128     -0.1864061808      0.0212509572
H       1.9585045469     -1.7657736349      0.3776742851     -0.1624548363     -0.0939520828     -0.0082325715      0.0858995208
H       2.2816124366      1.8850603967     -1.5727128358     -0.0476434968     -0.0055878665     -0.1515878602      0.1319609862
H       4.2325524707     -1.5226242931      1.3611626863      0.0599250722     -0.2101116940      0.1358239443      0.0446145078
H       4.5342201924      2.2842438280     -0.6182346760      0.0628916317      0.2334860787     -0.1006887709      0.0613188998
H       5.5584564526      0.5325717733      0.8571780166      0.2414056790      0.0537692510      0.0933930206      0.0463700578
B       1.1271899227      3.4996474819     -0.3708369216      0.1191898447     -0.3851748973      0.0766314367      1.4289728460
F       0.2892207872      2.7796049971     -1.2561673630     -0.5284811251     -0.0660889011     -0.5461898564     -0.5764531224
F       2.2219440831      3.9842717013     -1.0846427322      0.6720860160      0.4908705758     -0.4914825963     -0.5548708306
F       1.6502523952      2.5046072914      0.5512122579     -0.0054207795      0.0804509261      0.8194917343     -0.5567174852
F       0.4472814262      4.4583706959      0.3122077113     -0.5310071357      0.7686788116      0.5127756636     -0.5166870454
