61
Properties=species:S:1:pos:R:3:forces:R:3:charge:R:1 energy=-325.92118089029833 homo_lumo=2.824083321253608 dipole="-8.907624883339299 -3.911014509553635 -2.219409727542096" free_energy=-325.92118089029833
N      -0.2308069155      0.3005334746     -0.1689704131      0.0330193418      0.2872906413     -0.2282079764     -0.5204755925
C      -0.9224941472      1.2768581509      0.7361422670     -1.0468408476      0.9093783716      1.2809868874     -0.0393167994
C      -1.1332332492     -0.0019979244     -1.3276069367     -1.3022515095     -0.5199360096     -1.1998111142     -0.0332321080
C       0.1228768580     -0.9399078941      0.6071652089      0.5849369821     -1.4194736847      0.4339084666     -0.0624645874
C       0.9923406845      0.9622764793     -0.7417018139      1.7067460898      0.7307811077     -0.1470816326     -0.0528732844
C      -2.3283403939      0.8308480511      1.1875737857     -0.0056711939     -0.1267266011     -0.1141768410     -0.1712604999
C      -2.5256966199     -0.5134082891     -0.9222776916      0.0546289953      0.0355691176      0.0457453597     -0.1802554344
C      -3.2153702894      0.4919492703     -0.0062892765     -0.3105666860     -0.0948779663      0.1318471038     -0.1690256810
C       0.9198732730     -2.0149924343     -0.1712337762     -0.0560474705      0.2956228518     -0.1547819718     -0.2647444934
C       2.1158777998      1.2940007199      0.2712379042     -0.2576735640     -0.1847661484      0.0472820565     -0.2704209451
C       1.2439604975     -3.2055583175      0.7284273940     -0.0489268974     -0.0433456852      0.2478872488     -0.0935493963
C       3.2642201664      2.0284545142     -0.4160713695      0.0423210123      0.0904413999     -0.2085217052     -0.1051050162
H      -0.3304804495      1.4530318551      1.6596919119      0.1907612149     -0.2251753863     -0.5583190447      0.1673410412
H      -1.0327121619      2.2649844620      0.2325308063      0.2972375107     -0.5193777234     -0.1806826893      0.1520734033
H      -1.2935661505      0.9186453990     -1.9366079057      0.3782365258     -0.0701570102      0.5266760263      0.1555743545
H      -0.6723060176     -0.7314715993     -2.0252121048      0.2817320423      0.2262612359      0.5008166461      0.1594517309
H       0.6986081314     -0.6683821054      1.5190578810     -0.1399567585      0.3389696327     -0.4586871969      0.1678813402
H      -0.7869036501     -1.4358154926      0.9975181992     -0.0392726613      0.4590586174     -0.3215456520      0.1855435166
H       1.4293016749      0.3369945159     -1.5519158667     -0.4117946033     -0.0931309584      0.3632701308      0.1601597594
H       0.7051694078      1.9153536712     -1.2439785590     -0.3361561419     -0.4043691729      0.3078696789      0.1584635479
H      -2.2679576240     -0.0366255218      1.8771749576      0.0340749127      0.1911638771     -0.1136459174      0.1110255174
H      -2.8009952662      1.6591036254      1.7586966054      0.3708748361     -0.1624501266     -0.0559273699      0.1325749187
H      -3.1418204312     -0.6429599456     -1.8382693322      0.3631110384     -0.0462364329      0.1200528753      0.1258731802
H      -2.4644500142     -1.5081695316     -0.4349115048      0.0197686077      0.1693768263     -0.1080336360      0.1126970581
H      -4.1777220960      0.0679599764      0.3536628078      0.1945950800      0.2308821204     -0.1500085347      0.1083173709
H      -3.4403679805      1.4206487419     -0.5761131350      0.0027192036     -0.2087411472      0.1102162526      0.1018910657
H       0.3314951220     -2.3981597920     -1.0288289743      0.1214210464      0.2447628186      0.0578997400      0.1232346680
H       1.8801055966     -1.6097014547     -0.5482003833     -0.2797778197      0.0369000820     -0.0338998058      0.1390596785
H       1.7399399112      1.9463235900      1.0842748155     -0.0290580068     -0.2416596725     -0.0872767463      0.1284410380
H       2.5311079787      0.3685216485      0.7197098631     -0.2189011477      0.1602967947     -0.0017409483      0.1335583561
H       1.8113190754     -3.9655197633      0.1505966939     -0.1866250358      0.2293543905      0.2533081757      0.0803428485
H       0.3086832573     -3.6731771594      1.1038875078      0.3348619529      0.0506237528     -0.0191609116      0.0502452385
H       1.8644976079     -2.8811589664      1.5909087369     -0.1831166020     -0.2198135958     -0.2007774041      0.0664601738
H       4.0518180175      2.2643592827      0.3287716287     -0.1708456313     -0.0596743164     -0.3123238400      0.1293313597
H       2.9049986462      2.9810904907     -0.8605555254      0.2234684139     -0.2493507957      0.0727529244      0.0514738272
H       3.7077654732      1.3941644720     -1.2130359745     -0.0309320603      0.2949164402      0.2028529808      0.0558563763
P       9.0335655119      4.2172822231      2.3451814898      1.8793391570      1.3546173482     -1.6921952049      1.6408218007
F      10.2826109559      5.2973803358      1.8574126201     -0.2963539790      1.6148819311     -0.3434274360     -0.5248163443
F       7.6172466286      5.0509510033      2.8645669657      0.4337760844     -0.2880793026      0.6787653331     -0.5200391099
F      10.1761384410      3.1716657521      1.5959593305     -0.1516783318     -0.4354179399      0.4783582930     -0.5181394400
C       8.3015869947      4.8940024407      0.6809046489      0.1652142230     -0.4973915471     -0.1030182811      0.5334844223
C       9.8801519896      4.8388596929      3.9711817880     -0.0101619776     -0.7187919205      0.6354043003      0.5452797878
C       8.3686076738      2.4724188096      2.8436929767     -0.4654600354      0.4261043987      0.5322444695      0.5397560218
C       9.1382366486      4.6885785198     -0.6110345859      0.7744503608      0.1652657987     -0.3192861667      1.3317014540
C       9.2446886340      4.4034115286      5.3081564685     -0.0170571548      0.2315797221      0.7518475055      1.3259924739
C       7.6740108019      1.6470624972      1.7425779051      0.2066092486     -0.5364294911     -0.5095413625      1.3632326039
F       8.1055100539      6.2648605154      0.7989984714      0.1004388270     -0.5352911036     -0.3227152109     -0.4387583238
F       7.0597067208      4.3317854017      0.4604869793     -0.2107981284      0.1539202920     -0.6223640256     -0.4667039866
F       9.8823022612      6.2307473317      3.9922813683     -0.1983616820     -0.7851093399      0.2763785737     -0.4350823884
F      11.1975579512      4.4019657804      3.9868879347     -0.4376061677      0.1534839283      0.3747394422     -0.4375462815
F       7.4288318400      2.6272499761      3.8469264791     -0.2604190158     -0.6040224615     -0.0478236923     -0.4530998388
F       9.4020133952      1.7048717498      3.3634359427     -0.6552248559      0.1054110086     -0.3147442543     -0.4365649113
F       8.3801280248      5.0900115666     -1.6969290782      0.3599617351     -0.1889133410      0.2092916774     -0.4621404537
F       9.4866295479      3.3699362699     -0.8100594157     -0.2863902604      1.2772435296     -0.3337114805     -0.4444693939
F      10.2871958862      5.4590091692     -0.5989536036     -1.0830656309     -0.8271707564     -0.4890145233     -0.4344396959
F       9.8821698849      5.0719174604      6.3389223064     -0.4386865342     -0.4302757994     -0.1838087562     -0.4556130774
F       7.9025521981      4.7287305743      5.3629117238      1.2213686687     -0.3840981949      0.4318161402     -0.4412422889
F       9.4095629454      3.0511976286      5.5318827898     -0.2293666769      1.1476684198      0.1283189142     -0.4481287138
F       6.4230113579      2.1618129864      1.4633026038      0.7126836003     -0.6790556406      0.0914878016     -0.4643106768
F       7.4966507340      0.3519473435      2.1968460825     -0.1165890571      0.4513904633     -0.3739522005     -0.4579904225
F       8.4201840901      1.5872756168      0.5867450180     -1.1767225861     -0.2639076468      1.0181885286     -0.4353307484
