61
Properties=species:S:1:pos:R:3:forces:R:3:charge:R:1 energy=-326.5585404951659 homo_lumo=3.7597215800833235 dipole="-0.7730467988289877 -0.8264753997784489 6.860289231047371" free_energy=-326.5585404951659
N      -0.2221162809      0.3069360080     -0.1845863464      0.0823412620      0.3077818686     -0.1254877124     -0.5191333303
C      -0.9162107156      1.2832670783      0.7185252921     -1.0343397600      0.8815484948      1.2528356247     -0.0365373305
C      -1.1191854410      0.0077773632     -1.3485035738     -1.3359972390     -0.5135720031     -1.3279728147     -0.0607314429
C       0.1248035275     -0.9350776527      0.5920533975      0.5632926364     -1.3822780774      0.4217151066     -0.0586339857
C       1.0052314932      0.9664077061     -0.7504132658      1.6936358286      0.6903997865     -0.2210451441     -0.0819146317
C      -2.3239254166      0.8371776760      1.1644810633     -0.0205060805     -0.1081706402     -0.1045111600     -0.1688363122
C      -2.5142567842     -0.5020455719     -0.9504711666      0.0687002343      0.0492228896      0.0660385756     -0.1814302401
C      -3.2068968172      0.5009149827     -0.0333931096     -0.3000905152     -0.1052912443      0.1165233297     -0.1698804156
C       0.9245055291     -2.0109814732     -0.1821512434     -0.0663736271      0.2771400767     -0.1511684257     -0.2649677598
C       2.1247644310      1.2960105067      0.2671373093     -0.2805445477     -0.1892294873      0.0867750881     -0.2609181456
C       1.2442072778     -3.2006392928      0.7204478237     -0.0588647411     -0.0313741210      0.2355008413     -0.0905857354
C       3.2831942742      2.0160964153     -0.4193767993      0.0620700367      0.0917464424     -0.2223865050     -0.0942059729
H      -0.3274940182      1.4587245738      1.6444770542      0.1899626975     -0.2324142923     -0.5446351536      0.1540747506
H      -1.0241757407      2.2718301890      0.2151337183      0.2878761344     -0.5347331702     -0.1950394151      0.1510533545
H      -1.2755565325      0.9296156388     -1.9571254673      0.4165721371     -0.1170790906      0.4657126697      0.1823049423
H      -0.6559698298     -0.7210845687     -2.0455734266      0.2661233759      0.2879167801      0.4461247931      0.1859562174
H       0.6949079360     -0.6660120695      1.5084091067     -0.1391720410      0.3349760440     -0.4487069602      0.1539448407
H      -0.7880846220     -1.4302250240      0.9760985426     -0.0378051198      0.4576266933     -0.3281177674      0.1841061340
H       1.4466250710      0.3379215941     -1.5549138427     -0.4611914984     -0.0158028119      0.3017167900      0.1987626102
H       0.7232198237      1.9192117534     -1.2567023413     -0.3169680233     -0.4677250743      0.2460249087      0.1810697908
H      -2.2665560098     -0.0310667430      1.8533335923      0.0417255200      0.1747257358     -0.1151713838      0.1041124322
H      -2.7982746790      1.6642933457      1.7362282180      0.3674532956     -0.1555302168     -0.0599759748      0.1251793052
H      -3.1267836572     -0.6271499702     -1.8696217464      0.3981017852     -0.0390791839      0.1127900653      0.1400581672
H      -2.4565313829     -1.4987361926     -0.4667971749      0.0056809829      0.1554942385     -0.0971716801      0.1049186860
H      -4.1697490476      0.0754720642      0.3226674803      0.1843483677      0.2300523628     -0.1413364513      0.1039154906
H      -3.4307523204      1.4311290225     -0.6010326650      0.0089524890     -0.2190507598      0.1038929472      0.1062256874
H       0.3388701952     -2.3938008240     -1.0418234697      0.1531207567      0.2617123647      0.0614448660      0.1366775040
H       1.8869644965     -1.6069099698     -0.5544556823     -0.2987714704      0.0336223789     -0.0669708754      0.1363594949
H       1.7485531372      1.9565657599      1.0735175793     -0.0291608865     -0.2467856506     -0.0638513373      0.1128359362
H       2.5306599752      0.3700897907      0.7230453629     -0.2313870883      0.1410470601      0.0068746053      0.1177953236
H       1.8124071325     -3.9625271859      0.1461454620     -0.1946786778      0.2237431380      0.2418434723      0.0798532387
H       0.3070031319     -3.6657552969      1.0941150504      0.3344701551      0.0413328466     -0.0175060024      0.0496505132
H       1.8620432030     -2.8752220923      1.5844225586     -0.1808379364     -0.2179030274     -0.1796100558      0.0514462538
H       4.0812307558      2.2300199131      0.3225268183     -0.2389741660     -0.0500167583     -0.2845154286      0.0677487484
H       2.9366976318      2.9780540338     -0.8539033375      0.2289272315     -0.2928174053      0.0259454067      0.0651467639
H       3.7093038138      1.3820855044     -1.2259995576     -0.0692687207      0.3215942870      0.1699608404      0.0723175784
P       0.5877364942      1.1209491015     -7.5048387147      1.6839688376     -0.1004457566     -2.6298484708      1.6501865996
F       2.0167171082      1.3574995336     -8.4357270159      0.3446364977      1.4453672588     -0.6753591329     -0.5223370642
F      -0.2186303849      2.6118419423     -7.1910246672      0.5236768256     -0.3354943578      0.8219691091     -0.5181393216
F       1.0331263640     -0.4814461424     -7.9444473514     -0.2256958149     -0.1828571153      0.7556210114     -0.5168106020
C      -0.1670689835      1.5579068176     -9.2377800154     -0.3747031553     -0.4530781355     -0.0095823482      0.5386667393
C       1.9580265099      1.7064726065     -6.2674677853     -0.1707671953     -0.3921109553      0.6128005620      0.5686920513
C      -0.5799555784      0.0680882633     -6.3803411774     -0.1741831490      0.6767800474      0.0548218691      0.5269687188
C       0.1986069632      0.6362760229    -10.4330373492      0.5534466835     -0.3269772056     -0.5961913486      1.3346744796
C       1.5230553824      1.9739369360     -4.8107550762      0.3036305276      0.7203578879      0.0709986703      1.3182170776
C      -1.7764666434     -0.6238460749     -7.0608961588     -0.5394373766     -0.4864052204     -0.6811623401      1.3656742943
F       0.2386988296      2.8380237037     -9.5955693286     -0.1693859632     -0.6092078691     -0.0670447589     -0.4372091358
F      -1.5443350176      1.5896603807     -9.1496481186     -0.0450545357      0.0463573236     -0.5705694775     -0.4550925919
F       2.5162904063      2.8994429412     -6.7185145226     -0.4601373840     -0.5509348799      0.6770334209     -0.4310252608
F       2.9606035251      0.7475902797     -6.2219549926     -0.2041780442      0.4170344305      0.4376804690     -0.4391988911
F      -1.1253502575      0.8929070782     -5.4132917481     -0.4871937435     -0.3187449280      0.4174722457     -0.4657073571
F       0.1556465599     -0.9083774992     -5.7224973611     -0.5140042797      0.1760966901     -0.0718044563     -0.4489619376
F      -0.5380629998      1.0285617142    -11.5367421530      0.3731581150     -0.2842917080      0.3847837932     -0.4551226345
F      -0.0953383172     -0.6870756940    -10.1849480991      0.2303375116      1.1078789821     -0.6796881299     -0.4445512487
F       1.5367934273      0.7429146240    -10.7667631830     -1.3594858258     -0.3219716097     -0.0769945808     -0.4364310549
F       2.5849810075      2.5385320782     -4.1255173816     -0.5530548743     -0.2057614022      0.2278930977     -0.4645285173
F       0.4652807649      2.8614644090     -4.7514923440      1.0780090760     -0.8144292662      0.5587971144     -0.4396022353
F       1.1906265689      0.8037429802     -4.1595745596      0.2139661495      0.8882937215      0.0739359692     -0.4741272420
F      -2.7373516585      0.3004432621     -7.4231611433      0.6902631956     -1.0496201399      0.4304568757     -0.4382423373
F      -2.3605385974     -1.4944042033     -6.1576697995      0.0651286836      0.2617399549     -0.3494438476     -0.4620222014
F      -1.3944423114     -1.3571551073     -8.1621136007     -0.8413635493      0.6495937788      1.2168850016     -0.4317087884
