44
Properties=species:S:1:pos:R:3:forces:R:3:charge:R:1 energy=-241.42422355820045 homo_lumo=6.209701476126058 dipole="-1.004802617963942 -1.2625504197335957 -1.9370789456340305" free_energy=-241.42422355820045
N      -1.5599247157     -0.1687200799     -0.1973130424      0.1012675657     -0.2805549534     -0.0581297880     -0.5311058956
C      -1.7658343247      1.3088127788     -0.3758112136     -0.4357370716      0.4820662914     -0.1832937552     -0.0555727410
C      -2.5192901289     -0.7135103024      0.8253627126     -0.6728666777     -0.1378337768      0.1167298985     -0.0130710848
C      -0.1797056688     -0.4368795987      0.3547486262      0.5330713946      0.3203255251     -0.2391118341     -0.0608555135
C      -3.2154885656      1.6830770017     -0.6499630387      0.1025612624     -0.2714682329      0.3902337489     -0.1503201156
C      -3.9714824842     -0.3589103663      0.5418980325      0.3241165853      0.3442461233      0.0903783897     -0.1585406609
C      -4.1241831476      1.1577978333      0.4573033535      0.0562676599     -0.2311473568     -0.3410659241     -0.1552743535
C      -1.7214906390     -0.8788620888     -1.4909345620     -0.1029828749      0.0385786193     -0.0493886818      0.0843902558
C       0.9744783667      0.2058372050     -0.4054809552     -0.1605064599     -0.3596871871      0.3649800426     -0.2090563567
C       2.2751700749     -0.1296578354      0.3357582413     -0.0695300244      0.4475102692     -0.5687130738     -0.1638508648
C       3.4738798666      0.5606619120     -0.3196132987      0.0308338142     -0.5505322999      0.6441414929     -0.1580608874
C       4.7704216698      0.2395184563      0.4301758307     -0.0076071996      0.4337611279     -0.5870855798     -0.1972703847
C       5.9713039136      0.9332875232     -0.2106468631     -0.2287469967     -0.2786893727      0.2926459215     -0.0428157858
H      -1.1308084503      1.6285689708     -1.2032886712      0.2244132849     -0.0018087095     -0.1375569577      0.1107806345
H      -1.4253638259      1.7854036554      0.5459336370      0.1024910395     -0.0054511045      0.0436329275      0.2655249992
H      -2.2263297937     -0.2786181927      1.7843541030      0.1566563327      0.1128960583      0.1046279136      0.2072891906
H      -2.3743970610     -1.7959386452      0.8582535324      0.1449100247     -0.2641465465     -0.0404582059      0.0985488853
H      -0.1752358657     -0.0595426852      1.3790493611     -0.0084321514     -0.0480806660      0.1146864912      0.2578534410
H      -0.0633784269     -1.5243482717      0.3805754991     -0.0547535261     -0.2892561489     -0.0082201539      0.0888107674
H      -3.2630508475      2.7744488767     -0.6856370884      0.0508343888      0.2878352582     -0.1038023608      0.1018302888
H      -3.5444354434      1.3027015965     -1.6228158867     -0.1394032453     -0.0241392577     -0.2917405630      0.0694907180
H      -4.3247855926     -0.8320084392     -0.3797566409     -0.1695951394     -0.1584895358     -0.2151675549      0.0739445867
H      -4.5684994314     -0.7511855967      1.3692295973     -0.1473246593     -0.2029159782      0.1815367604      0.1004955446
H      -3.8322133643      1.6060345477      1.4119201502      0.0556066491      0.1269773036      0.2316433899      0.1262980282
H      -5.1636185503      1.4209262394      0.2487447276     -0.2975927863      0.1024099612     -0.0077918140      0.0696397029
H      -1.0048080996     -0.4804825012     -2.2058732853      0.1906970146      0.1194715699     -0.1586564149      0.0912174237
H      -1.5381969231     -1.9409877801     -1.3371446567      0.0513074094     -0.2786991142      0.0735300190      0.0684504888
H      -2.7302142069     -0.7325957200     -1.8689874253     -0.2300170345      0.0406701928     -0.0926540925      0.0986912590
H       1.0238294145     -0.1531914767     -1.4386228347      0.1000845713     -0.1213862329     -0.2955363566      0.0676245989
H       0.8568913794      1.2911462449     -0.4136094228     -0.0094383045      0.2106595472      0.0456347322      0.1421949292
H       2.1815036457      0.2051370678      1.3734610227     -0.0453489091      0.0492526552      0.2214651688      0.1584730181
H       2.4279964163     -1.2146393120      0.3402692503      0.0811580361     -0.3047117574      0.0294695624      0.0587734945
H       3.3116340114      1.6435249298     -0.3196062876     -0.0548315401      0.3005631351     -0.0151251750      0.0910726256
H       3.5620749573      0.2353874137     -1.3627983853      0.0567171603     -0.0423526857     -0.3079678604      0.0650900620
H       4.9331131990     -0.8438823923      0.4303246772      0.0052221472     -0.2887845540      0.0620973809      0.0738768864
H       4.6760632274      0.5638374748      1.4714281022     -0.0720481859      0.0173249762      0.2847552702      0.0920087255
H       6.0940961010      0.6094159898     -1.2454658079      0.0800937442     -0.0616590393     -0.3250392828      0.0205677367
H       5.8372876099      2.0158126685     -0.1999869755      0.0003003844      0.3407282516     -0.0210958454      0.0289490634
H       6.8809908106      0.6907951915      0.3392453198      0.3658167706     -0.0022210273      0.0928464111      0.0280705520
B      -0.1894536453      1.8545494306      2.7873711529     -0.1175204787     -0.1650169043     -0.3073883389      1.4003631752
F       0.2396325849      2.3680365258      1.5368032148      0.3262313442      0.5136862294     -0.4198352155     -0.5776856752
F       0.5665931067      0.7029413432      3.0602791172      0.4458468998     -0.6062297323      0.3791145250     -0.5635591605
F      -1.5507619101      1.4323890033      2.5934511641     -0.6337037266     -0.0339164923      0.2420606752     -0.5867560452
F      -0.1089498179      2.7864374281      3.7769464432      0.0714815081      0.7202155715      0.7686141071     -0.5165255567
