58
Properties=species:S:1:pos:R:3:forces:R:3:charge:R:1 energy=-312.7644743390834 homo_lumo=5.388306851093053 dipole="-3.2185238494082635 -1.2015202430529621 1.0280689274188668" free_energy=-312.7644743390834
N       1.6555359259      0.6199424832     -0.2746683528     -0.0022102277     -0.0040978110      0.0052258450     -0.4832355616
C       1.5285883694      0.9553078517     -1.7535458639     -0.0007403431      0.0067492542      0.0001535903     -0.0356160015
C       2.1481638875      1.9306371708      0.3143035238     -0.0000966077      0.0021011501      0.0000650091     -0.0741844904
C       2.6804212234     -0.4771113917     -0.0799429860      0.0068925703     -0.0001342231     -0.0009467332     -0.0684670642
C       1.1011247983      2.4256741371     -1.8266549660     -0.0060575917     -0.0038536749      0.0024663431     -0.1636993563
C       1.3809855315      3.0173316110     -0.4235351938     -0.0004964328      0.0097608199      0.0000229333     -0.1479846724
C       0.3095713772      0.2760093848      0.3257101065     -0.0045354289      0.0000929073     -0.0010214208     -0.0669059370
C       2.9890988486     -0.8067519287      1.3687092229      0.0041308263     -0.0057016494     -0.0068235966     -0.2157082258
C      -0.2591594107     -1.0603848038     -0.1069898241      0.0018471533     -0.0084448117     -0.0001090866     -0.1006989697
C       4.2094132489     -1.7313800715      1.4369034089     -0.0012307458      0.0047033349      0.0159549736     -0.2150882835
C       4.5814468099     -2.0872813402      2.8729555397      0.0024867429     -0.0014844379     -0.0157396953     -0.0700520123
H       0.8366745687      0.2453903109     -2.2222278880     -0.0023930619      0.0026486450     -0.0017229194      0.1119108227
H       2.5267056258      0.8139776860     -2.1822855906     -0.0016657501      0.0022957113     -0.0062475416      0.2198068065
H       2.0015752427      1.9174457781      1.4007261867      0.0071712500      0.0114993154     -0.0013190935      0.0948364060
H       3.2161191464      1.9797497605      0.0780908160      0.0018559139      0.0074530284      0.0006398038      0.2787890499
H       2.3204630080     -1.3567264782     -0.6338522821     -0.0041217629      0.0021241490     -0.0030625382      0.1248784055
H       3.5881069462     -0.1101526000     -0.5756355941      0.0042523865      0.0000220745     -0.0010979225      0.2465892049
H       1.7064474080      2.9277923218     -2.5940115444     -0.0009229050      0.0001001556     -0.0016769116      0.1379600591
H       0.0428490626      2.5327481105     -2.1045117277     -0.0072151972      0.0022233576      0.0052083692      0.0736007499
H       0.4463174345      3.2770197420      0.0964365505     -0.0048715461      0.0022713016     -0.0037569253      0.0704383203
H       1.9998390095      3.9235270823     -0.4754693387     -0.0005718964     -0.0040248932     -0.0057707888      0.1333211309
H       0.4452356059      0.3065439904      1.4162506026      0.0006902905     -0.0016866788      0.0081582741      0.1408701101
H      -0.3635930444      1.0993049704      0.0467696734     -0.0030983345      0.0042137285     -0.0022541590      0.1623110621
H       3.2298689438      0.1162507734      1.9217850887      0.0014868034      0.0081415092      0.0032141817      0.1319013738
H       2.1298630624     -1.2853382544      1.8717292456     -0.0064823890     -0.0009169109      0.0013055022      0.0902332664
H      -1.2656937598     -1.1632521313      0.3257859245      0.0010303997      0.0114805904      0.0059151424      0.0783370284
H       0.3430196548     -1.9042700601      0.2551848811      0.0039100120     -0.0037222145     -0.0010301424      0.0636349524
H      -0.3640920337     -1.1427766739     -1.1976550466     -0.0006361362     -0.0011288202     -0.0094443146      0.0582434666
H       4.0094655515     -2.6511321808      0.8583928032     -0.0015230535     -0.0101264993      0.0004518893      0.0855047262
H       5.0576939254     -1.2243765847      0.9455083140      0.0077464739     -0.0052791234     -0.0036920923      0.1367060663
H       3.7621178082     -2.6215118395      3.3799835616     -0.0090549608      0.0007335156      0.0027804971      0.0283846897
H       4.8077272619     -1.1786948924      3.4531624704      0.0013352156      0.0012552855      0.0046094445      0.0444580710
H       5.4727994182     -2.7309292038      2.8999961846     -0.0050605940      0.0005724998     -0.0020929520      0.0521730708
P       5.8917936572      2.4031390163     -1.5377614237     -0.0013139128     -0.0171518651     -0.0050005799      1.7370765895
F       4.3683629263      3.1374403945     -1.5489226429      0.0077400122     -0.0016339236     -0.0025333233     -0.5417388412
F       6.5088907165      3.4562788991     -2.6475628117      0.0052809548     -0.0069891944      0.0129215621     -0.5033690884
F       5.2641282483      1.3073054726     -0.3956863960      0.0029478032      0.0157918512     -0.0013494781     -0.5419779475
C       6.3041670850      3.7499995877     -0.1488139569      0.0154677643      0.0029812253      0.0130048171      0.5195467462
C       5.1707021851      1.2952297914     -3.1068574574      0.0009911022      0.0041050442      0.0043016592      0.4859484622
C       7.5787015672      1.3003166825     -1.4839028155      0.0038911324     -0.0097361758     -0.0138960716      0.5290503870
C       5.6479106748      3.6701798565      1.2638991581      0.0070995191     -0.0143737996      0.0109401450      1.3643622452
C       5.9880317738      0.9021590611     -4.3901115586     -0.0151728436     -0.0045632586     -0.0202458201      1.3838822466
C       8.6370689477      1.2051082712     -0.3297536459     -0.0043435295      0.0043339982     -0.0009035852      1.3892231796
F       5.9248403057      4.9902639580     -0.6181633940      0.0075271336     -0.0061646422     -0.0004008308     -0.4368167655
F       7.6584800890      3.8232318064      0.0793101090     -0.0153839385     -0.0029188761     -0.0076565608     -0.4498057391
F       4.1160088508      2.0119930903     -3.6541730037      0.0064135550      0.0008510705     -0.0071000033     -0.4547317451
F       4.6134720818      0.0950456734     -2.6674953704     -0.0025642615     -0.0012897458      0.0004028895     -0.4694210888
F       8.3240396880      1.5729760619     -2.6064186244      0.0087818422     -0.0104195061     -0.0054015205     -0.4407317963
F       7.1220404314     -0.0043663608     -1.5902958129      0.0077317400     -0.0241247269      0.0046745841     -0.4497302449
F       6.1010520905      4.6944210113      2.0335047930      0.0155568149      0.0113818838      0.0052571761     -0.4451676233
F       5.9209811029      2.5177152954      1.9177841275     -0.0124085143      0.0108530645      0.0124064709     -0.4505159367
F       4.2914975638      3.7965692946      1.1884737491     -0.0110966042      0.0007084546      0.0141287837     -0.4712817620
F       5.1040044699      0.4212878377     -5.3218190688     -0.0003528546      0.0048252692      0.0137557348     -0.4555352821
F       6.6072144874      1.9700685391     -4.9306068365      0.0005780114      0.0091220876     -0.0111080336     -0.4366042112
F       6.8900712383     -0.0751414902     -4.1765032120      0.0024750709     -0.0137038946     -0.0067387265     -0.4414556254
F       9.5360583436      2.2098640092     -0.3658962480     -0.0009663130      0.0077877458      0.0019552628     -0.4405610647
F       9.3406471405      0.0450229063     -0.4781008277     -0.0056856665      0.0110365228     -0.0024972443     -0.4491749284
F       8.0491952363      1.1686549273      0.8904708264     -0.0050450902     -0.0005491942      0.0027197276     -0.4537184302
