47
Properties=species:S:1:pos:R:3:forces:R:3:charge:R:1 energy=-257.10667061291224 homo_lumo=3.9596939034268783 dipole="1.459677203175395 -1.0317214813374278 -2.705580015208993" free_energy=-257.10667061291224
N       0.2932487604     -0.2946807988      0.0742176750     -0.0001933324      0.0045389672     -0.0004339068     -0.4824566797
C       1.6825310072      0.0254684860     -0.4323001577      0.0074486523      0.0020044653      0.0058334033      0.0072668556
C       0.5793439569     -1.1115548415      1.3269183565     -0.0019988577     -0.0081131487      0.0055249070     -0.0256844826
C      -0.4563802731      0.9682776363      0.4843402193      0.0037085986      0.0001273096     -0.0092593709     -0.0882876170
C      -0.4679888901     -1.0849972783     -0.9605890949     -0.0002508124      0.0033174958      0.0007273650     -0.0054832215
C       2.4849346108      0.3634065977      0.8174073508      0.0058448129      0.0009821761     -0.0066280767     -0.1568182883
C       1.8335678282     -0.4801479117      1.9417251986      0.0020808629     -0.0016497359      0.0104570433     -0.1460229344
C      -0.7846839378      1.9196323397     -0.6499653003      0.0037198952     -0.0009996389     -0.0041717351     -0.2258259008
C      -1.8680911438     -1.4911205028     -0.5404362160      0.0060414187      0.0051668088      0.0069188368     -0.2302168437
C      -1.5194673415      3.1524018016     -0.1091751064     -0.0003775025     -0.0071842586      0.0206444673     -0.2072637510
C      -2.5196457004     -2.3711294233     -1.6086702615      0.0068999159     -0.0050561054     -0.0187670058     -0.2027889620
C      -1.9135024934      4.1122032145     -1.2252871275     -0.0022463398      0.0128986829     -0.0120078420     -0.0638921168
C      -3.9191891738     -2.8198491875     -1.1964991886      0.0029334080      0.0047082375      0.0053889930     -0.0704327718
H       1.6247985156      0.8193355534     -1.1868991965      0.0026161015     -0.0003670242      0.0009551241      0.1264702364
H       2.0511027391     -0.8973229919     -0.9071231299     -0.0005334410      0.0029797465      0.0058369594      0.1199684772
H       0.7492635176     -2.1442560321      0.9871179563      0.0055784454      0.0030233109     -0.0017561397      0.1004424476
H      -0.2810232706     -1.0497818547      2.0084759568      0.0118219831     -0.0025934657     -0.0069023460      0.2080394938
H      -1.3673123800      0.6240242632      0.9818938648     -0.0069905399      0.0006029835      0.0029196717      0.2357491981
H       0.1365216802      1.4525872477      1.2699809232      0.0042053141      0.0061619571      0.0058938312      0.2072474454
H      -0.4883878830     -0.4721446602     -1.8744097397      0.0036264201     -0.0040434905     -0.0011066691      0.1365414564
H       0.1471558384     -1.9761011746     -1.1664885505      0.0053388881     -0.0054901790      0.0050116195      0.1162792578
H       3.5464752340      0.1215268819      0.6645261437      0.0008896734      0.0107564183     -0.0001596921      0.0938682600
H       2.4231258971      1.4379841055      1.0432997938     -0.0002170671      0.0065493651      0.0054978707      0.0958640032
H       1.5398135745      0.1379679140      2.8018964081      0.0004963734     -0.0059382412      0.0025980831      0.1419132055
H       2.5078107452     -1.2691119228      2.3040364109      0.0015675079      0.0066877657      0.0092659140      0.0898525661
H       0.1287392851      2.2519465842     -1.1755834041     -0.0019622566      0.0017993953      0.0010939836      0.0874694052
H      -1.4291773979      1.4260075055     -1.3989790379      0.0021582389      0.0052249928      0.0017852023      0.0964747505
H      -1.8352982786     -2.0376491348      0.4154370588      0.0050603303     -0.0040418110     -0.0025432181      0.1448835245
H      -2.4979432877     -0.6031704509     -0.3709325576      0.0023482457     -0.0023860496     -0.0004093313      0.1419082339
H      -0.8812532421      3.6598080758      0.6328614960     -0.0003048135      0.0004735604     -0.0089000657      0.1107678748
H      -2.4077861309      2.8267162807      0.4562623890      0.0086928063      0.0021797261     -0.0114417257      0.1403085515
H      -2.5701662659     -1.8152489117     -2.5630075860      0.0031541891     -0.0041391684      0.0086209002      0.0857601436
H      -1.8843146391     -3.2568538922     -1.7944727098     -0.0037724783      0.0061965590      0.0035716885      0.0824068200
H      -2.5848354780      3.6251044183     -1.9513590118      0.0023127030      0.0040413787     -0.0027913636      0.0267300244
H      -1.0297593622      4.4754633179     -1.7753569584      0.0017285123      0.0002077811     -0.0001755459      0.0237858832
H      -2.4403626838      4.9889907194     -0.8194471926      0.0110518108     -0.0091145720     -0.0029444147      0.0503900198
H      -4.5767671029     -1.9529073081     -1.0274456531      0.0044770329      0.0018716147     -0.0004038249      0.0487546961
H      -3.8854582458     -3.3981419861     -0.2601417885      0.0020036341      0.0033968538     -0.0017238596      0.0475445997
H      -4.3794666238     -3.4511975943     -1.9704115785      0.0056002220      0.0027165075     -0.0065091916      0.0438426339
S      -1.7458319703      1.2158006738      3.8572838236     -0.0032997477      0.0009661031     -0.0010793575      1.7395269389
O      -2.1972394620      1.5534617366      5.2045950152     -0.0238184984     -0.0121340985     -0.0098096286     -0.7486498571
O      -0.6685746284      0.1996092311      3.7653311848     -0.0264924343     -0.0052785811      0.0017427703     -0.8180176698
O      -1.5833008069      2.3363678424      2.9104796988     -0.0149705539     -0.0076746087      0.0047661902     -0.7978834346
C      -3.2428690943      0.2602656551      3.1083706409     -0.0120723141     -0.0109935975     -0.0019288831      1.0876158941
F      -4.1498729086     -0.1055493729      4.0408180858      0.0047379763     -0.0117167596      0.0072705054     -0.4349864374
F      -2.8385888382     -0.8967107533      2.4692214528     -0.0076529275      0.0031337590     -0.0142673847     -0.4757651284
F      -3.8974270560      0.9976887846      2.1592326531     -0.0209900563      0.0062006128      0.0037952495     -0.4571968002
