48
Properties=species:S:1:pos:R:3:forces:R:3:charge:R:1 energy=-259.2246468649843 homo_lumo=1.479472604918301 dipole="-11.65730727313923 1.011800441697141 -1.0526527682479556" free_energy=-259.2246468649843
N      -1.6322242334     -0.2988725965     -0.1759086297      0.1468364551     -0.3491777830      0.0851069046     -0.5473315486
C      -1.9106745558      1.1182394035      0.2117680165     -0.5516374893      1.7512577548      0.2206293499     -0.0347586449
C      -2.6451506683     -1.2142333808      0.4411262846     -1.5661676650     -0.9837446241      0.6041597027     -0.0306438149
C      -0.2947963030     -0.7193201138      0.3610845917      1.9199309719     -0.0918164003      0.3252246699     -0.0421755343
C      -3.3550096814      1.5623057434     -0.0781216982     -0.0481669854     -0.1535940027      0.0245782427     -0.1713776700
C      -4.1094381660     -0.8072172683      0.1871410803      0.0463083144      0.0524297278     -0.0350988084     -0.1793015919
C      -4.3533381342      0.6373769888      0.6070518018     -0.3263818168      0.1023352271     -0.0654759519     -0.1699682012
C      -1.6436727048     -0.4557817440     -1.6563458261     -0.0507763516     -0.0264669536     -1.4079436689      0.0131753742
C       0.9263371001      0.0585261059     -0.1897317973     -0.4476160380     -0.1193449790      0.0380063912     -0.2158790817
C       2.2280401258     -0.4604198458      0.4364790145     -0.1707786921      0.0629743326     -0.0731664015     -0.1651504293
C       3.4472731937      0.2702962455     -0.1400619158     -0.0396306618     -0.3114761012      0.2890825766     -0.1683133126
C       4.7497763380     -0.2689436519      0.4617384406      0.0825052319      0.1868071341     -0.1810688172     -0.2141660918
C       5.9638857323      0.4394252176     -0.1320443163      0.2492750587     -0.1006939305      0.0829990027     -0.1014192220
H      -1.2417633489      1.8185436071     -0.3330643003      0.0829781921     -0.6295132408      0.1363301809      0.1664734496
H      -1.7195242047      1.2648677350      1.2998140039      0.0874336912     -0.4616012104     -0.3701553390      0.1544049423
H      -2.5086503168     -1.2509019505      1.5472383088      0.3602241338      0.2710427625     -0.4586709637      0.1570191798
H      -2.5058060570     -2.2559366159      0.0714966812      0.3645950986      0.5070830865     -0.0181068733      0.1527227941
H      -0.2830842685     -0.6179706222      1.4713072373     -0.4063801226      0.0658668211     -0.4179474091      0.1515164665
H      -0.1277131700     -1.8010508944      0.1476167027     -0.4251754446      0.3621899655     -0.0711191377      0.1531307005
H      -3.5012256587      2.5959038546      0.3034492687      0.2920038728     -0.2321929647     -0.1929265438      0.1320528061
H      -3.5447489119      1.5856515523     -1.1723308778      0.0596379747      0.0573469378      0.2240627224      0.1129872761
H      -4.3881479956     -0.9498868609     -0.8772272850      0.0753823739     -0.0091372732      0.1893548386      0.1101067746
H      -4.7755475708     -1.4691716935      0.7818339528      0.3459334543     -0.0337846975     -0.2062844887      0.1337164487
H      -4.2512617210      0.7286550074      1.7111315186     -0.0707208177      0.0029279624     -0.2248422889      0.1030504450
H      -5.3874499064      0.9355417846      0.3297672258      0.2483285842     -0.0697489345      0.2145178166      0.1117309621
H      -1.0162223911      0.3143896780     -2.1531868850     -0.0823415831     -0.2794331936      0.4851229828      0.1246330006
H      -1.2721482505     -1.4611489065     -1.9554482579     -0.0809166175      0.3699956166      0.4019757864      0.1194522253
H      -2.6567732797     -0.3390621395     -2.0866027641      0.1773134918     -0.0371664774      0.4852432547      0.1367155022
H       1.0007798871     -0.0701829882     -1.2891014014     -0.0372972059      0.1219382347      0.2140723715      0.1199910000
H       0.8375688628      1.1391055205      0.0444042037     -0.0115526472     -0.1975648662     -0.1446573861      0.1196627232
H       2.1947159260     -0.3079715475      1.5379408652      0.0422824666     -0.1474342501     -0.2174347663      0.0980811205
H       2.3254607062     -1.5498970999      0.2337201172      0.0088874427      0.2092618608      0.1467817577      0.0994261668
H       3.3625093435      1.3577242624      0.0787076302      0.0264068404     -0.1944930476     -0.1465510649      0.0879007450
H       3.4696319384      0.1323922022     -1.2437691742     -0.0060238553      0.1233950060      0.2050022833      0.0883406695
H       4.8353632791     -1.3585137694      0.2569164408     -0.0967849178      0.1997286967      0.1613418038      0.0942674564
H       4.7463051219     -0.1167240608      1.5632023455     -0.0476031486     -0.1632393748     -0.2184944927      0.0969925057
H       5.9935655560      0.2979926147     -1.2334445998      0.0484006745      0.1079899996      0.2802758380      0.0254347415
H       5.9280441972      1.5254149314      0.0985603676      0.1155634298     -0.2843836003     -0.1291596199      0.0335589538
H       6.8912810782      0.0137340564      0.3029178559     -0.0930507763      0.2602300057     -0.1455377581      0.1341565523
N      10.9802161234     -0.8550192120      0.3240801674     -0.0157170040      0.2283165704     -0.2072227897     -0.8467741570
S      10.2796579936      0.0851868679      1.4660715926     -4.3606103340      0.1321378639     -1.8103906914      1.8462632550
S      11.0055751460     -2.4855769957      0.4623275426      4.6076939300     -0.6412759597      2.4057697132      1.8331451086
F      11.3133898021      0.2239489763      2.7755530962     -0.2546193054     -0.0032304722     -0.5683740480     -0.4463110786
F       9.4849547797     -3.0920020544      0.1114513735      0.3283019861      0.2690955369     -0.1015389979     -0.4560386725
O      10.0112568281      1.4497457759      0.8988066444      1.8271368315     -1.5956706617      1.0401143818     -0.7276110096
O       8.9914895668     -0.5360545284      1.9273891918      1.9481106800      0.4064246114      0.5168125479     -0.7508003769
O      11.3752227434     -2.8769314093      1.8655061458     -1.7313088453      0.2033089145     -1.5870524974     -0.7249507422
O      12.0041000529     -3.0572883563     -0.5030114596     -2.5702128558      1.0621003698      0.2226556845     -0.7171381660
