48
Properties=species:S:1:pos:R:3:forces:R:3:charge:R:1 energy=-261.8654913182195 homo_lumo=5.11429020866634 dipole="-0.8655366811595526 -1.4747633089391925 3.3558539315519127" free_energy=-261.8654913182195
N      -1.7094633483     -0.2582718166     -0.4005314993      0.0707810485     -0.1397347665      0.3041722477     -0.5337601129
C      -1.9776523394      1.1612727973     -0.8169066046     -0.4222715496      0.2766332082     -0.4424007269     -0.0542461098
C      -2.7222010449     -0.6702347638      0.6275692798     -0.6442114183     -0.1200211063     -0.0767431196      0.0071610925
C      -0.3554121117     -0.3498459777      0.2594039131      0.5835956712      0.2036930024     -0.3523313390     -0.0023259583
C      -3.4000689125      1.3717370471     -1.3154265648     -0.0266510486     -0.1590807447      0.5878236232     -0.1644746667
C      -4.1603408235     -0.5009493572      0.1488894771      0.2660084515      0.4048660288      0.1197182637     -0.1582492636
C      -4.4253250657      0.9445401272     -0.2695732423      0.2362656965     -0.3107742328     -0.2607256593     -0.1508905308
C      -1.7503813422     -1.1925591464     -1.5583690928     -0.0079253600     -0.0503083168     -0.0800612557      0.0397374202
C       0.8218756039      0.0970276775     -0.6041403263     -0.1372329027     -0.2570690495      0.6789241986     -0.2325399691
C       2.1328732303     -0.1498020359      0.1504257675     -0.1734507007      0.2646304254     -0.6366173414     -0.1459066274
C       3.3259793106      0.2960967417     -0.7010161263      0.0839841410     -0.3578549513      0.8079046904     -0.1614719888
C       4.6506494933      0.0571888030      0.0293686007     -0.0463329772      0.2884563383     -0.6316269717     -0.1968198204
C       5.8390228011      0.5019592933     -0.8214277760     -0.2240295619     -0.1927059850      0.3795670779     -0.0456964013
H      -1.2760118048      1.4151967823     -1.6101305061      0.2592641558      0.0916634032     -0.0401299495      0.2600668433
H      -1.7810520348      1.7864683718      0.0583625141      0.0839721976      0.0838651038      0.2842251480      0.1016262186
H      -2.5520124061     -0.0481322394      1.5109419450      0.1075706744      0.1647604184      0.1772752949      0.1237590365
H      -2.5203683269     -1.7125946336      0.8862023164      0.1504355537     -0.2299978585      0.0835565363      0.1191335302
H      -0.4040288889      0.2641191359      1.1632469576     -0.1003283563      0.1220421077      0.2183031927      0.1140391894
H      -0.2290706066     -1.3949608995      0.5577625091     -0.0400046974     -0.2582963205      0.0886019824      0.1189616992
H      -3.5086952178      2.4366010734     -1.5348693029      0.0511550863      0.2482961508     -0.2076509302      0.1183817069
H      -3.5562666151      0.8280500689     -2.2495604192     -0.0166573097     -0.0006609471     -0.2579594107      0.1336432179
H      -4.3710455995     -1.1797542361     -0.6813108120     -0.0961275549     -0.2202125868     -0.1631850616      0.1009419664
H      -4.8151353195     -0.7784545471      0.9792179487     -0.1643278307     -0.1889417234      0.2025765452      0.1039377700
H      -4.3577024353      1.5972789667      0.6069774079     -0.0265058210      0.1919408540      0.2628166626      0.0784040119
H      -5.4339131550      1.0283169214     -0.6800909024     -0.3003143565      0.0962474550     -0.0336857826      0.0878041147
H      -0.9994520249     -0.8988805572     -2.2850005720      0.1592781569     -0.0435025827     -0.1335540596      0.1915392243
H      -1.5544591424     -2.2016447950     -1.2002300057      0.0502734938     -0.2692611286      0.2029741596      0.0550989957
H      -2.7271835822     -1.1481798915     -2.0302395504     -0.1783111093      0.0130399212     -0.1147328365      0.1044189354
H       0.8456270539     -0.4522337830     -1.5467487774      0.0344843254     -0.0533334214     -0.2480519283      0.1646193865
H       0.7401847868      1.1601662767     -0.8371179501     -0.0118409156      0.1736155632     -0.1377167945      0.1420842229
H       2.1240883807      0.4047634133      1.0953706823      0.0522332328      0.1140322454      0.2887281914      0.0718049109
H       2.2258320428     -1.2154671097      0.3878068554      0.0765824758     -0.2842973136      0.1128180846      0.0715110124
H       3.2235949883      1.3599568800     -0.9375339581     -0.0330342474      0.2704480804     -0.1328727811      0.0980810523
H       3.3222955433     -0.2571810658     -1.6455074989     -0.0166172173     -0.0846232624     -0.2832698049      0.1026226655
H       4.7496654553     -1.0079078793      0.2660699901      0.0011129741     -0.2674545419      0.1268245957      0.0761503208
H       4.6510491486      0.6108892267      0.9747350087     -0.0217454924      0.0874550979      0.2801545097      0.0758351321
H       5.8657187255     -0.0536050066     -1.7595789733      0.0479155577     -0.1323195924     -0.2998979654      0.0337743380
H       5.7674153164      1.5658954951     -1.0503898493      0.0192983939      0.3219762459     -0.1076920338      0.0324113197
H       6.7708946540      0.3234308211     -0.2845485905      0.3714798461     -0.0087273501      0.0734865447      0.0288342978
N      -0.2070508158      1.4411607660     -5.5555996813     -0.0225053339      0.0784042013     -0.0571089449     -0.8571529084
S      -0.8379562052      2.9160870674     -5.7551984212      0.2136709329     -0.2095694699     -0.5133641332      1.9276162304
S      -0.1958531000      0.9334826010     -4.0837055168     -0.0578717698     -0.2413710302     -0.3991200563      1.9641655891
F       0.3247235497      3.8701618861     -5.1731015733      0.6590459769      0.4715068797      0.3416387735     -0.4563666853
F      -1.8036197311      0.6069618273     -3.7353766520     -0.4424918179      0.0113872532     -0.2579441598     -0.4978884680
O      -0.8688840738      3.1833358912     -7.1503823260      0.0911366818      0.2465360183     -1.6447790116     -0.7156235494
O      -1.9804394982      3.2077728408     -4.9522040567     -1.2227584850      0.2306289796      1.1123536427     -0.7317581403
O       0.1444274044      1.8566349682     -3.0308639780      0.1926833593      1.0615944730      0.7595513411     -0.7711775809
O       0.3894640966     -0.3743446892     -4.0138081682      0.5713197501     -1.4376011727      0.0192267518     -0.7718166701
