48
Properties=species:S:1:pos:R:3:forces:R:3:charge:R:1 energy=-260.7006723400285 homo_lumo=3.7633195286230987 dipole="-3.4972491187550743 -0.897304856433089 -3.7191145075634924" free_energy=-260.7006723400285
N      -1.5867687340     -0.2749227721     -0.0989503260      0.1551928890     -0.3769937178     -0.0272514069     -0.5480855127
C      -1.8327163050      1.1456901063      0.2979200370     -0.4915889004      1.7969459946      0.3377983364     -0.0476110616
C      -2.6294732970     -1.1681513856      0.5004719937     -1.5520927856     -0.9371427185      0.6304167451     -0.0293303893
C      -0.2663111906     -0.7364869190      0.4456520350      1.9349701796     -0.1714534259      0.4929341451     -0.0611386046
C      -3.2618195766      1.6298074994     -0.0042098631     -0.0383113663     -0.1707287202     -0.0051727977     -0.1687647494
C      -4.0793962635     -0.7238841968      0.2301196524      0.0418791789      0.0463263440     -0.0440954398     -0.1759999420
C      -4.2938488430      0.7238046584      0.6569052810     -0.3385914343      0.1257313503     -0.0445239074     -0.1695194947
C      -1.5867330080     -0.4196819137     -1.5806868004     -0.0852883548     -0.0093551144     -1.3571577708      0.0232542784
C       0.9768057027      0.0402784797     -0.0531609562     -0.4428306410     -0.0612499096     -0.0283098447     -0.2233627229
C       2.2589805642     -0.5425270181      0.5560197810     -0.1656282425      0.0765599979      0.0544610010     -0.1844668353
C       3.4954918097      0.2334569038      0.0878216037     -0.0456776356     -0.2727409815      0.2162849101     -0.1742416870
C       4.7795770755     -0.3878092182      0.6483162782      0.0389736271      0.1517286546      0.0098799674     -0.2251018703
C       6.0104160705      0.3940366164      0.1993381300      0.2109482764     -0.0491228561      0.0522255511     -0.0818514785
H      -1.1404646094      1.8327864094     -0.2349728450      0.0664708666     -0.6469743517      0.1493820626      0.1571427339
H      -1.6485173164      1.2787646368      1.3889371581      0.1444161614     -0.4835056267     -0.3324790341      0.1957479466
H      -2.5087800129     -1.2129976246      1.6082195319      0.4067055607      0.2883228051     -0.4565505980      0.1719583663
H      -2.5106477573     -2.2113886009      0.1278994923      0.3778824387      0.4995348808     -0.0196217099      0.1419771887
H      -0.2720669061     -0.6732614088      1.5572599251     -0.3864752126      0.1792908275     -0.2872235072      0.2045722121
H      -0.1139708220     -1.8135299579      0.2006117881     -0.4350845271      0.3564125134     -0.1110287626      0.1319936280
H      -3.3855991512      2.6626360203      0.3873905986      0.2905678900     -0.2497929919     -0.1729757161      0.1286089020
H      -3.4371772014      1.6714541447     -1.1002541065      0.0343927252      0.0439468765      0.2037505784      0.0996025147
H      -4.3478188263     -0.8536340388     -0.8385462157      0.0650022300     -0.0013907063      0.1700221825      0.0987896482
H      -4.7686034059     -1.3736873857      0.8118180611      0.3440438055     -0.0310188963     -0.1933930761      0.1264889039
H      -4.2085677455      0.8047205011      1.7631100747     -0.0417484843      0.0000400850     -0.2385744876      0.1121190047
H      -5.3155425333      1.0492472980      0.3646660124      0.2293286365     -0.0764927858      0.2088374403      0.1006372375
H      -0.9283950564      0.3321732055     -2.0648449481     -0.0885206211     -0.2735940023      0.4947024349      0.1166760110
H      -1.2468166574     -1.4348088702     -1.8844160090     -0.0682957721      0.3676305388      0.4125470076      0.1079963207
H      -2.5903438026     -0.2650164335     -2.0209140630      0.1593053794     -0.0427627528      0.4739683836      0.1263269866
H       1.0621223623     -0.0295564126     -1.1566904364     -0.0516708216      0.1076349650      0.1560546615      0.0970297489
H       0.9086977692      1.1081849380      0.2387402082      0.0005948218     -0.2243799229     -0.0849320486      0.1388192650
H       2.1974065281     -0.4960468643      1.6645830266      0.0639368594     -0.0999172070     -0.2181225697      0.1726894607
H       2.3567108818     -1.6086437062      0.2542617212     -0.0031508302      0.1655951587      0.1424346343      0.0724341478
H       3.4162624281      1.2895893945      0.4285722666      0.0298049091     -0.2381168339     -0.0989909350      0.1111460715
H       3.5393715727      0.2222370588     -1.0237463317     -0.0151977233      0.0969789923      0.1607313918      0.0651787929
H       4.8725098117     -1.4380835629      0.2955809579     -0.1063127834      0.1492438022      0.1403544755      0.0663769314
H       4.7416685747     -0.3938620344      1.7586838950     -0.0694176928     -0.0481791947     -0.2541409971      0.1645531543
H       6.0871143137      0.3888116697     -0.9089904616      0.0597615761      0.0843570305      0.2603041923      0.0181618471
H       5.9531417044      1.4437316741      0.5584396033      0.0773467951     -0.2891283997     -0.1210377376      0.0520064217
H       6.9237465780     -0.0762004847      0.6206436091     -0.1572822486      0.2474005668     -0.1676554783      0.0434139261
N       2.2834017759      0.1589569681      4.3885429305     -0.4207780760      0.0892725961     -0.3242150962     -0.8450585335
S       3.8005105699      0.6864510191      4.6989646804      2.7277208896     -0.4523343894     -3.6730247043      1.8559338297
S       1.0560453627      1.2127147676      4.1442996456     -1.4624033357     -0.0900054570      5.0325345342      1.8396946185
F       3.8167113530      1.5057169755      6.1590494605     -0.1283931521     -0.5437846789     -0.6669528205     -0.4363740783
F       1.3648892617      2.1219576935      2.7729236153     -0.2295705705     -0.3310095871     -0.0272965252     -0.4589715580
O       4.7364401125     -0.4861145387      4.7699724398     -2.1176877673      1.4691052478      1.1609050758     -0.7128191712
O       4.2459418948      1.6243511497      3.6127564289     -0.9004899084     -0.2641681731      2.0721084796     -0.7325437390
O       0.9406264476      2.1378559452      5.3224905380      0.5540258134     -0.3939155209     -2.4800773360     -0.7070706396
O      -0.2298512652      0.4567689973      3.9710159747      1.8292173779      0.4871996941     -1.5978338841     -0.7590180313
