34
Properties=species:S:1:pos:R:3:forces:R:3:charge:R:1 energy=-193.05666090254113 homo_lumo=4.107246484916459 dipole="-0.4520609481774889 -1.5725358886988872 -1.3278732981409884" free_energy=-193.05666090254113
N       0.6134433637      0.5015601900      0.7096480578     -0.3607532733     -0.1601883046     -0.2030068914     -0.4932218005
N       2.7337347091      0.1702617277      0.8672840885      0.4840418416     -0.2276167413     -0.0543413618     -0.5366805044
C      -0.8135014804      0.4709148271      1.0181918138     -0.0524201234      0.3464234401      0.5086530029     -0.0458380408
C       1.5473402669     -0.2237508515      1.3248323943     -0.1408850600     -0.2884988141     -0.0191831746      0.6005276164
C       1.2177932671      1.3977837832     -0.1280418122      0.0434490593      0.0117777933     -0.2036607967      0.2497206655
C       2.5560202943      1.1842867777     -0.0328290016     -0.0656229827      0.0741391761     -0.2722136627      0.2349160975
C      -1.1035862950      1.3747878473      2.2120833001     -0.1068751314     -0.2326914905     -0.3156448986     -0.0850793281
C       4.0197284764     -0.2907534389      1.3647408861     -0.0303949510     -0.0513657741      0.1042939424      0.0933410187
H      -1.3514626425      0.8089182710      0.1287529028     -0.0494647939     -0.0461045621     -0.2356348997      0.1040418510
H      -1.0916760617     -0.5645173327      1.2333321989     -0.0484620311     -0.2276880028     -0.0762735201      0.0998118656
H       1.3749515219     -0.9829176816      2.0678208768     -0.0154747146     -0.0641297065      0.1471163678      0.0972452844
H       0.6613471661      2.1213552805     -0.6968056092     -0.1217755043      0.1843384310     -0.0830021860      0.0416334306
H       3.3825812582      1.6815756366     -0.5071498880      0.1647328721      0.1275251132     -0.0840690228      0.0461306967
H      -0.5866881700      1.0056578610      3.0962270929      0.1498819422     -0.0436503684      0.2444602509      0.1045803964
H      -2.1759577980      1.3848467151      2.4003312927     -0.3907875177      0.0006570735      0.0558904828      0.0375155945
H      -0.7628176611      2.3887487505      2.0087701475      0.0838864213      0.2731757893     -0.0144021043      0.0892761877
H       3.9748553555     -1.3634823214      1.5476956446     -0.0048749614     -0.2547226450     -0.0217476183      0.0542385630
H       4.7829200030     -0.0682536747      0.6221384231      0.1445456513     -0.0128683679     -0.2050164626      0.0512550285
H       4.2452056593      0.2354013500      2.2949410038      0.0562817625      0.0958475302      0.1918740302      0.1312431163
N       1.7969224296      2.3815685796      2.6470759916      0.3697479705      0.2199362669      0.3499596724     -0.8868137983
S       2.3431156908      3.8418560548      2.2559054865     -0.4482428097     -0.0112561295     -0.2990278657      1.6357357441
S       2.3219356135      1.6460881994      3.9633843184     -0.2053786720     -0.2988839873     -0.2238293772      1.6291957750
C       4.2078159150      3.7921146247      2.0413705931     -0.9320249209     -0.2982400234      0.1002085952      1.2025642108
C       1.7994957270      2.5807051530      5.5023581293      0.1440969399     -0.3120628650     -0.9194088234      1.2140437226
O       1.8607787773      4.0655276477      0.9120801518     -0.2056578008      0.2499382788     -1.1039991418     -0.7668351049
O       2.1097962887      4.8524649197      3.2529557640      0.0508065484      0.7069879759      0.9212418965     -0.7266724937
O       3.7637992350      1.5288472970      4.0445991245      0.9412075549      0.1317756715      0.3041343192     -0.7620535077
O       1.5632759175      0.4090360559      4.0252365304     -0.7006608802     -0.8458207188      0.3599925973     -0.7902300326
F       4.5616264812      4.7562568638      1.2079935399      0.3590377064      1.1022716206     -0.8751154222     -0.4349584883
F       4.5659258425      2.6241226247      1.4916990888      0.5227097910     -1.0101669317     -0.5389663852     -0.4696193355
F       4.8472990483      3.9462166992      3.1780778638      0.7137811535      0.2573465237      1.2078592966     -0.4244649760
F       1.7719416690      1.7351276386      6.5191449737      0.0305674857     -0.9892635673      1.0840333118     -0.4341328227
F       0.5842801382      3.0723853564      5.3214943423     -1.3198109923      0.5378682260     -0.1643893345     -0.4360798143
F       2.6396104188      3.5554737677      5.7719461196      0.9407924198      1.0552100901      0.3332151836     -0.4243368175
