35
Properties=species:S:1:pos:R:3:forces:R:3:charge:R:1 energy=-194.785798998052 homo_lumo=5.25407072216022 dipole="0.2935325489405525 2.0682762026043466 -1.6030697882921139" free_energy=-194.785798998052
N       0.9179381781      0.4550284479      0.7658222928      0.3826255870     -0.0439712717      0.3027978705     -0.5092944522
N      -0.9926653574      0.2226030482     -0.1957541170     -0.2437712522     -0.2474012542     -0.2558521540     -0.5126651444
C       2.1352177926      0.1180468682      1.4978985115      0.4953991489     -0.0290818676     -0.2982929747     -0.0215900894
C      -2.2326149575     -0.4073524506     -0.6430434001     -0.4506774802      0.1983267190      0.0448136946     -0.0056576759
C       0.0201074844     -0.4358082760      0.3578751462      0.0636592213     -0.1908558784     -0.1485733942      0.6044791807
C       3.2865020488     -0.1991103968      0.5413946517     -0.3763030830     -0.2989609137      0.0174399559     -0.2092927500
C      -3.4212377769      0.0790330040      0.1915298635      0.3642288997     -0.2908977037      0.2566136369     -0.2276509622
C       0.4751305654      1.7126905920      0.4571699786     -0.0272815561      0.2943586339     -0.0124306121      0.2149469786
C      -0.7337896743      1.5679353517     -0.1474069118     -0.0968207069      0.3278935985     -0.0791155953      0.1970688894
C       3.0261870083     -1.4545089268     -0.2881362340      0.1481397892      0.3430024354      0.2214525843     -0.0873946738
C      -3.2745493408     -0.2669355915      1.6709020003     -0.1572268951      0.1571372080     -0.4450902851     -0.0777367046
H       1.9026832805     -0.7432957122      2.1296829267     -0.0782710811     -0.0883870050      0.1278651384      0.1922426987
H       2.3878156761      0.9729671432      2.1296091611     -0.0705456767      0.1826476073      0.1635466897      0.0925991952
H      -2.1012385096     -1.4866014249     -0.5296652833      0.0563394908     -0.1475767592      0.0242879501      0.1463382880
H      -2.3800949902     -0.1657166195     -1.6999603109      0.0528968242      0.0245327618     -0.2591027884      0.1006867836
H       0.0933237738     -1.5023874727      0.4692695520      0.0008019176     -0.2460699896      0.0381601230      0.1810112624
H       3.4590495595      0.6579133556     -0.1177185763      0.1196136271      0.2730186745     -0.1264848848      0.0834953317
H       4.1831283166     -0.3438414004      1.1504716280      0.2466557684      0.0307309849      0.1813006355      0.0961823212
H      -3.5334183732      1.1608575893      0.0665571522     -0.1136625962      0.2811971867     -0.1282569772      0.0856790611
H      -4.3169899525     -0.4003019247     -0.2143292089     -0.2412630535     -0.0493766893     -0.2009179379      0.0949412245
H       1.0414565169      2.5951848196      0.6984583842      0.1322006165      0.2003452577      0.0671660650      0.0305288680
H      -1.4162412875      2.3003049720     -0.5412607679     -0.1668842969      0.1623189380     -0.0688013334      0.0351041991
H       2.1944294624     -1.2961469642     -0.9758117948     -0.2010844369     -0.0310719149     -0.2638696820      0.0465942263
H       2.7868041159     -2.2963893033      0.3613316348     -0.0726291129     -0.2756341681      0.1282189647      0.0809948446
H       3.9132681154     -1.7005516471     -0.8709223130      0.2137887563     -0.1137721841     -0.2568580956      0.0465292305
H      -2.3873305005      0.2057801576      2.0911631687      0.2270806781      0.0520131837      0.2119278305      0.0728551056
H      -3.1867105318     -1.3440128928      1.8055284169      0.0808893309     -0.2471213468      0.1235669255      0.0957274507
H      -4.1496536729      0.0848876844      2.2162775579     -0.2379184327      0.1147122131      0.2228136995      0.0288358991
P      -0.4577927047     -2.8539188009      2.7441989368     -0.0643586208      0.1958112745      0.0808903782      2.2189108585
F      -0.4504142136     -1.1699814432      2.7583279105      0.0052662246     -0.0493881074      0.2276749616     -0.5310320684
F       0.4121984499     -2.8608828527      4.1184204213      0.1508807719     -0.0048507005      0.1914791483     -0.4967396349
F      -1.8658298807     -2.8491649219      3.5608926325     -0.1971019165     -0.0147338626      0.1101737584     -0.4998584457
F      -0.4412140633     -4.4729098111      2.6515289756      0.0095758735     -0.2408779334     -0.0318761018     -0.4902753863
F      -1.3072946073     -2.7782449612      1.2917062848     -0.0150371869     -0.1394808519     -0.0981568683     -0.5384395677
F       0.9651288062     -2.7818595853      1.8457644550      0.0607948585     -0.0885362749     -0.0685103257     -0.5381243420
