35
Properties=species:S:1:pos:R:3:forces:R:3:charge:R:1 energy=-194.90014324164747 homo_lumo=4.977764259564564 dipole="-1.6577827723354595 2.3262241021398378 0.29495050272197565" free_energy=-194.90014324164747
N       1.6941484792      1.3907987237      0.2376426218     -0.0073147541      0.0095371909     -0.0001777768     -0.5164932379
N       0.1219509623      0.0423992626     -0.4059340173      0.0025841047      0.0086300903     -0.0072501885     -0.5138625568
C       2.9891451782      1.8575986016      0.7587629279      0.0083347341     -0.0027285590     -0.0030551631     -0.0101111389
C      -0.6406670071     -1.1964012240     -0.6195989990      0.0004570987     -0.0037230756      0.0009683565     -0.0293835248
C       1.2825574133      0.1169812879      0.2569297728      0.0014276535     -0.0044435099     -0.0086210976      0.5858978358
C       3.8891887535      2.3769924195     -0.3592560640     -0.0014025464      0.0150700068      0.0038720744     -0.2363677644
C      -1.6464547321     -1.4495872109      0.4995373794     -0.0062514952     -0.0018384846     -0.0007124189     -0.2186802065
C       0.7739141150      2.1510838607     -0.4581704270     -0.0092931965      0.0059738097     -0.0001033893      0.1935610803
C      -0.2178810294      1.3018836409     -0.8571569928      0.0016987941      0.0153640510     -0.0014637710      0.2063386655
C       4.1877252254      1.3274839908     -1.4228286516      0.0027518794     -0.0075643018     -0.0131799498     -0.0961566523
C      -0.9904819463     -1.6709534364      1.8589204096     -0.0010062691     -0.0009848986      0.0097854274     -0.1032670575
H       3.4488057195      0.9874568040      1.2486515689      0.0047068497     -0.0053976605      0.0067677536      0.1494877390
H       2.7869368647      2.6329894731      1.5136697324     -0.0108676518     -0.0030884967      0.0163629130      0.1075569910
H       0.1016848328     -2.0053086077     -0.6848905846      0.0057561706     -0.0053334469     -0.0028355012      0.1989159038
H      -1.1359600572     -1.0954672265     -1.5961521293      0.0053549875      0.0036660428     -0.0122268920      0.1002778658
H       1.8295048853     -0.7185098626      0.6826844030      0.0047124859     -0.0138494247      0.0001789612      0.1953239555
H       3.4333598997      3.2768902014     -0.8110897637     -0.0027595415      0.0046325010      0.0027731809      0.0883140202
H       4.8220523058      2.7167821542      0.1235328446     -0.0024982020      0.0009398024      0.0025453496      0.1050767004
H      -2.3674660685     -0.6137666746      0.5464976802     -0.0074419632      0.0009275363     -0.0047824782      0.0873436318
H      -2.2183975082     -2.3468167154      0.2074434385      0.0020250844     -0.0016175905     -0.0015958634      0.1057836713
H       0.9057594542      3.2134789001     -0.6195223586      0.0040961442     -0.0077228324      0.0069905396      0.0460145988
H      -1.1184589124      1.4823409754     -1.4317463636      0.0021374680     -0.0060496131      0.0150302589      0.0416743346
H       3.2693415785      0.9796321236     -1.9188408655     -0.0045968134      0.0039352078     -0.0071246898      0.0746711277
H       4.6670163709      0.4393087719     -0.9865981351      0.0000105419     -0.0053753013      0.0017252424      0.1012182198
H       4.8534667947      1.7427896346     -2.1930321773     -0.0032266336     -0.0004219141     -0.0095938138      0.0402181110
H      -0.4948543396     -0.7573264748      2.2221018055     -0.0000178598      0.0162899444     -0.0015645043      0.0523575646
H      -0.2347879172     -2.4693418572      1.8033950738      0.0008772254     -0.0026565110      0.0105474476      0.0822434758
H      -1.7428681383     -1.9552714798      2.6091107509     -0.0023064691      0.0116277723      0.0076391708      0.0550090335
P       3.3430633952     -2.7066178286     -0.5122129458     -0.0102097647      0.0176940810     -0.0099629176      2.2026983233
F       4.0839561121     -3.7327763418      0.5170137170      0.0122954468     -0.0244077879     -0.0022228083     -0.4914981984
F       3.7474235879     -1.4145970317      0.5057470870      0.0031986401     -0.0070468793     -0.0048027333     -0.5399157917
F       4.7205067373     -2.4614134038     -1.3583033703      0.0011856289     -0.0075190146      0.0034409674     -0.4989778635
F       2.5410769669     -1.6146010403     -1.5022418411      0.0037752605      0.0013058716     -0.0027944051     -0.5301704275
F       2.8751936679     -3.9308568923     -1.4872805430      0.0009280579     -0.0045682471      0.0048544379     -0.4961352583
F       1.9106100282     -2.8575122955      0.3740288643      0.0008789042      0.0007436411      0.0005882808     -0.5389631706
