37
Properties=species:S:1:pos:R:3:forces:R:3:charge:R:1 energy=-197.72118462888832 homo_lumo=2.028096980588541 dipole="0.5641840498483254 2.278313853982955 2.4868431594749514" free_energy=-197.72118462888832
N      -0.5535630941      0.1089328757     -0.0801837270      0.1802435271     -0.0160527649     -0.1407615552     -0.5267547289
C      -1.5560124632      0.5486894488     -1.1046377448     -1.4332709079      0.5507876747     -1.1964163664     -0.0348045037
C      -0.8977817067     -1.2786958579      0.3730883292     -0.6196373280     -1.7254949392      0.7808081811     -0.0403020075
C       0.7776091688      0.0701603936     -0.7794232289      1.6831762742     -0.2010752504     -0.4468927849     -0.0448880888
C      -0.5284096219      1.0305368799      1.1081698534      0.1507643537      1.1755894100      1.0546288775     -0.0802433442
C      -3.0168813785      0.4612780460     -0.6355058987      0.0803349243     -0.0503363320      0.1176974221     -0.1721190281
C      -2.3551081905     -1.4461928756      0.8511190888     -0.0439128076      0.2158082968     -0.0661425183     -0.1595451674
C      -3.3499503618     -0.9606258843     -0.1985656279     -0.3585728266     -0.1562656460      0.0106614133     -0.1643569390
C       1.9962460810     -0.3030490608      0.1010423876     -0.3923662114      0.1637246170     -0.1152562785     -0.2192354544
C      -0.1069175317      2.4834993779      0.8207778113     -0.0089197432     -0.1390569278     -0.1473288354     -0.1212786051
C       3.2769403196     -0.3516802750     -0.7447236192     -0.0813558006     -0.0286914990     -0.1152335260     -0.2088737332
C       4.4898307396     -0.7292029104      0.1012102960      0.1593327345     -0.0049179365     -0.0181158183     -0.0864146826
H      -1.4738006980     -0.0874513056     -2.0168399675      0.3727200026     -0.3446172849      0.4177372696      0.1865219007
H      -1.3539241398      1.5826846782     -1.4539338187      0.3702372184     -0.2681819087      0.4216172474      0.1323374511
H      -0.2465627158     -1.5928725786      1.2173462862      0.0819165321      0.5094575134     -0.3598639340      0.1313532481
H      -0.7298221271     -2.0106531550     -0.4491701388     -0.0019131343      0.5198780572     -0.3343539997      0.1817904396
H       0.9875335954      1.0479391879     -1.2672335400     -0.4150621283     -0.1581526839      0.3389730547      0.1422104308
H       0.7393307152     -0.6636211749     -1.6181812644     -0.5760990876      0.0526959644      0.3208122692      0.1855029800
H      -1.5209016105      1.0808227436      1.5969273981      0.0868050278     -0.3874130803     -0.4926568317      0.1744674519
H       0.1457774243      0.6307245639      1.8961378964     -0.1007856425     -0.2658370900     -0.5660401955      0.1471147642
H      -3.6839044439      0.7399789406     -1.4799002916      0.3762300341      0.0626244641      0.1202125986      0.1156763992
H      -3.2208454729      1.1799222767      0.1847090842      0.0273101427     -0.0568773178     -0.1059611371      0.0811951603
H      -2.5213612345     -0.9113047655      1.8093150405      0.0582791082     -0.0791601159     -0.1017327650      0.0783344065
H      -2.5463731349     -2.5233806528      1.0482922867      0.3297137897      0.2573932546     -0.0278320949      0.1199026776
H      -4.3780253336     -0.9880918752      0.2224338409      0.2237922893     -0.0563830659     -0.1377148442      0.0797586348
H      -3.3214998997     -1.6382471035     -1.0802920636      0.1254736268      0.1346391099      0.1125907739      0.1382761969
H       1.8508260902     -1.2999346301      0.5643349394     -0.0154817258      0.2363929429     -0.0287103765      0.1260301105
H       2.1432563416      0.4493206610      0.9026656961     -0.0399854379     -0.2072065815     -0.0365460780      0.1048539093
H      -0.0972365941      3.0480845560      1.7769834965     -0.0488789407     -0.2701140694     -0.2175975739      0.0785748575
H       0.9154761432      2.5459526235      0.3991035780     -0.2991888449      0.0354241774      0.0270507966      0.0703139953
H      -0.8280908445      2.9943567502      0.1527510895      0.2751954935     -0.1137104182      0.1052530992      0.0709604978
H       3.4589537951      0.6427940027     -1.2075828826     -0.1163350440     -0.2409985022     -0.0199385218      0.0916588419
H       3.1623834417     -1.1016101498     -1.5576487622     -0.0677866765      0.2839257754      0.1063866959      0.1175691266
H       4.3495957463     -1.7354902605      0.5505127063      0.1175514111      0.3026937174     -0.0636033927      0.0476166509
H       4.6448868703      0.0163922369      0.9099406478      0.0375417007     -0.2766120536     -0.1563135551      0.0365392748
H       5.3970127026     -0.7511231000     -0.5393775543     -0.2043710881     -0.0318714583      0.2999556283      0.0582817541
Cl     -1.2301555337     -2.8879628146     -3.3162298506      0.0873051849      0.5779919511      0.6606276559     -0.8380248774
