34
Properties=species:S:1:pos:R:3:forces:R:3:charge:R:1 energy=-199.30801209208462 homo_lumo=3.2311774803634115 dipole="-0.20640733295684544 0.3197076870734859 -0.0005739061943668254" free_energy=-199.30801209208462
N       2.5630805101      0.4695076371      0.2362932601      0.0050022557     -0.0117679526     -0.0036933989     -0.5342223948
C       0.1293977774      0.0228862759      0.1843352624      0.0012659410     -0.0027150687      0.0111460241     -0.1763281071
C      -1.0926281986     -0.2329089415     -0.6914445335      0.0000944654     -0.0013250514     -0.0100559488     -0.1735970371
C       1.4040488525      0.2346720404     -0.6280889538     -0.0043195799     -0.0007720111     -0.0001017956     -0.0029770200
C      -2.3690667185     -0.4470583182      0.1198762086     -0.0075004380     -0.0027097638      0.0020964024     -0.2006281990
C      -3.5928123814     -0.7005390909     -0.7559489898      0.0096741842      0.0020874575     -0.0076014178     -0.0647371290
C       3.3531195513     -0.6416663816      0.6291484839     -0.0138656669     -0.0045560799     -0.0020457932      0.2855799633
C       2.8798065329      1.7365006257      0.6315866957      0.0133427887     -0.0088202315      0.0119551321      0.2478706027
C       4.0756045614     -0.4148098258      1.8908876921     -0.0074234746      0.0063467400     -0.0080905429     -0.0535175585
C       3.7838304260      1.9747549921      1.6243368072      0.0099070954      0.0045092037      0.0049415001     -0.0914915169
C       4.3309928503      0.8503431852      2.3130418102     -0.0018411805      0.0071157221      0.0040512918      0.0086892336
H       0.2828605768     -0.8336981298      0.8652325321     -0.0001664554     -0.0035304338      0.0111313455      0.1053033587
H      -0.0394047866      0.9082866063      0.8243161947      0.0025060683     -0.0018792315      0.0077865636      0.0968915479
H      -0.9098834257     -1.1205617322     -1.3256192374     -0.0010590619      0.0009290166     -0.0089708065      0.0931276201
H      -1.2395683116      0.6199115546     -1.3811957543      0.0025912610      0.0004340682     -0.0060880622      0.0821959805
H       1.6197211963     -0.6479863899     -1.2498283145     -0.0100296245      0.0051447404      0.0036970704      0.1536710783
H       1.2991048119      1.1036324941     -1.2996557373     -0.0149021635      0.0012893773      0.0053659678      0.0786660114
H      -2.5460352648      0.4379177976      0.7579841450      0.0093539936      0.0041374501      0.0081555600      0.0836633126
H      -2.2215820771     -1.3005138004      0.8061318884      0.0084077941     -0.0021836612      0.0094242368      0.0862821598
H      -3.7749617703      0.1509617590     -1.4315867617     -0.0070332878     -0.0076902740     -0.0029151265      0.0324830986
H      -4.4978215457     -0.8501965893     -0.1477594486     -0.0109671678     -0.0007255093     -0.0039786935      0.0369573673
H      -3.4499532903     -1.5986616682     -1.3786439456     -0.0106970028      0.0047864548     -0.0031933055      0.0351578012
H       2.7670921948     -1.5666510219      0.5874714272      0.0163596777      0.0080566978     -0.0176276875      0.1160302600
H       2.3287058440      2.5336678774      0.1308182123      0.0025714365     -0.0190455468      0.0024022593      0.0559652542
H       4.4264928787     -1.2883368326      2.4406154181      0.0029731924      0.0038467682     -0.0247682994      0.0335576556
H       4.0112526175      2.9956890950      1.9245708341      0.0080053759     -0.0044378253     -0.0175470666      0.0134764651
H       4.9241586125      1.0136761345      3.2155464072     -0.0090599798     -0.0049860997      0.0141676069      0.0289026279
C       5.2828409002     -1.9915770272     -2.3876757239     -0.0094350087      0.0000538466      0.0107483839     -0.1049656768
C       4.1560912126     -1.8103515991     -1.4020194560     -0.0077025210     -0.0109009037     -0.0141247703      0.9156200175
O       3.0956272768     -2.4202604342     -1.4787979949      0.0038942999      0.0116294289      0.0109668373     -0.7347894956
O       4.4582280641     -0.8845851798     -0.4724521193      0.0068388289      0.0124243396      0.0049146707     -0.6592588183
H       6.2567111178     -1.7707370655     -1.9342826983      0.0023990933     -0.0008615208      0.0071029367      0.0625209461
H       5.2561566272     -3.0121419108     -2.7905207572     -0.0062803456      0.0203972710      0.0102546987      0.0696510231
H       5.1241831683     -1.2878105898     -3.2191365865      0.0170952067     -0.0042814177     -0.0095057728      0.0742495674
