37
Properties=species:S:1:pos:R:3:forces:R:3:charge:R:1 energy=-206.99212431446608 homo_lumo=0.34192667850540304 dipole="-4.762523687094585 5.264355338450337 -2.5884099348003664" free_energy=-206.99212431446608
N       1.1118225934      0.3887049165     -0.3916789415     -1.0650158739     -0.3906098061     -0.7186411345     -0.5113494182
N      -1.1122083700      0.3719181583     -0.3751204042      0.8679447853     -0.3773236237     -0.7107752632     -0.5198848593
C       0.0008711437     -0.2214912552     -0.8492449716      0.1379376501     -1.0863637756     -0.7306084703      0.5824380577
C       2.4960544775      0.0010259693     -0.6522025686      1.0837485747     -0.4334703767     -0.0646447820     -0.0788989254
C      -2.4951804568     -0.0204926620     -0.6362190277     -0.8415856596     -0.4036634991     -0.0512228150     -0.0726651007
C       0.6883035260      1.4007825345      0.3922849389     -0.7663053412      1.1199487858      0.9057358958      0.2537809734
C      -0.6920398100      1.3911840453      0.4015812565      0.7345294208      1.2182320006      0.9632336512      0.2395737831
C       3.0917409563     -0.6727933914      0.5763276982     -0.1301724454     -0.0695339245      0.2481539606     -0.1280247859
C      -3.0965908125     -0.6932612146      0.5916194187      0.0032962867     -0.1036539330      0.2552164450     -0.1204173614
H       0.0026735880     -1.0929851871     -1.4921645165      0.0198911938     -0.0178083211     -0.0346242100      0.1089085834
H       2.5380896569     -0.7100685187     -1.5059734042     -0.3222967301      0.3804135244      0.1780701268      0.1376368919
H       3.0944257334      0.8989197251     -0.9184694434     -0.4858667418     -0.1089572304     -0.0572987701      0.1321262202
H      -3.0939158034      0.8764406463     -0.9051286515      0.4420723733     -0.1433107034     -0.0286907933      0.1371425459
H      -2.5348893088     -0.7313108372     -1.4902692160      0.3108520598      0.4034000843      0.1720944465      0.1354645688
H       1.3341656222      2.0917563947      0.9186372592      0.2143855310     -0.0715825622     -0.0597925172      0.0675671002
H      -1.3398357484      2.0755416415      0.9340791261     -0.2049855798     -0.0634655716     -0.0600677058      0.0625067914
H       3.1184244626      0.0366451742      1.4301912742      0.0687167018     -0.2780690131     -0.1842424546      0.0597641256
H       4.1252984434     -1.0149848055      0.3574897261     -0.3714638201      0.0380854398      0.1426519759      0.1121026662
H       2.4707952255     -1.5500501381      0.8507918734      0.4061332713      0.0873280092      0.0652339267      0.1222515265
H      -2.5078849049     -1.5987133125      0.8516655707     -0.2293540331      0.2767056508      0.0140578448      0.0938980311
H      -4.1435236747     -0.9955606292      0.3778885831      0.3389219811      0.1161023965      0.0871618829      0.0849343995
H      -3.0939932172      0.0065296182      1.4538416772     -0.0557852826     -0.3027199838     -0.1888960904      0.0784146294
N       4.3574725243     -5.9446687842      2.6320892475     -0.6206242961      0.2787987654     -0.2591358643     -0.8636932563
S       5.6834801569     -6.5255237687      3.3992041891      2.2131081528     -3.6237504945     -5.8274546268      1.5629974035
S       4.3963024010     -4.6175594539      1.6711019260      1.1194225028      3.2607207183      6.1599978775      1.5657588184
C       5.8189933056     -5.7611562224      5.0026703816     -0.0308384246      1.0290172311      1.6008670814      1.1513262139
C       4.4518557120     -5.1318937778     -0.0331028046      0.3504600317     -1.2584620681     -1.3932234098      1.1502804325
O       5.5362886727     -8.0093443540      3.5812270513     -0.7429412270      2.3209406109      0.9954381804     -0.7233403330
O       6.9235277890     -6.2376206054      2.5991442690     -1.2359830774      0.5025531426      1.9196677020     -0.7277140935
O       5.5975975745     -3.7670033594      1.9790316034     -1.0705248935     -1.1285399330     -1.7002860515     -0.7332047161
O       3.1448084591     -3.8191681668      1.8944248665      0.4650352405     -1.5130279719     -1.4066901133     -0.7707489036
F       6.9100176003     -6.2808102439      5.6723508741     -0.9715773995      0.5508444874     -0.4045930220     -0.4289313380
F       4.6728046804     -6.0132183442      5.7319454025      0.9115158947      0.3602171548     -0.1941328327     -0.4336207835
F       5.9782997380     -4.3964250085      4.8597259853     -0.1177890953     -1.1042270846      0.4952727725     -0.4270908182
F       4.5187313310     -4.0209318662     -0.8521308113     -0.0937944730     -0.7779541515      0.2517016521     -0.4483030776
F       3.3130666609     -5.8539950136     -0.3344177575      0.8327916143      0.5053908357     -0.2110546852     -0.4341785088
F       5.5641295979     -5.9238811546     -0.2443175060     -1.1638588722      0.8077951902     -0.1684798102     -0.4168074832
