41
Properties=species:S:1:pos:R:3:forces:R:3:charge:R:1 energy=-224.04936797498365 homo_lumo=4.273943596926095 dipole="-0.6374939621968271 -1.7081204539205368 -2.211577111903754" free_energy=-224.04936797498365
N      -1.4414929845     -0.0732056780      0.4499547848      0.2253147864     -0.0627540205      0.0893994855     -0.5327467741
C      -1.8470062277     -0.8634032441     -0.7498369620     -0.3782741259     -0.1244823234     -0.2718441483      0.0226370311
C      -2.4104122598     -0.5032503845      1.5099352459     -0.6064578834     -0.1354797426      0.1496916376     -0.0082305511
C      -0.0463277367     -0.3949241193      0.8995579485      0.5503458055      0.2795028131     -0.2961902847     -0.0486581758
C      -3.3729627649     -0.9050159235     -0.6979493900      0.1007046083      0.0174718881     -0.0491975848     -0.1322016179
C      -3.7363735117     -0.7088376710      0.7837736152      0.1262761845      0.0087860903     -0.0028962281     -0.1392866469
C      -1.6026459294      1.3858622497      0.1929106694     -0.0022952946      0.1878176555     -0.1461659529      0.0457014802
C       1.0449997433      0.1268683839     -0.0270916036     -0.1135718787     -0.3245408438      0.5545176683     -0.1939099880
C       2.4111945416     -0.2467597819      0.5608916970     -0.1419479183      0.3890899025     -0.6418022711     -0.1591194182
C       3.5505740704      0.2674652925     -0.3233795365      0.0821184584     -0.3689049042      0.5656313065     -0.1999408694
C       4.9125226398     -0.0908355199      0.2681091087     -0.3159144613      0.1736230713     -0.3072542061     -0.0465764618
H      -1.4233810468     -1.8655652699     -0.6500470881      0.1487193165     -0.1850812866      0.1164144491      0.1184150321
H      -1.4554480924     -0.3944178773     -1.6525695705      0.1667954015      0.0732280697     -0.1676474177      0.1140986552
H      -2.4458116312      0.2630699545      2.2868217938      0.1637616942      0.2260224071      0.2112266003      0.2091896589
H      -2.0426840289     -1.4384045486      1.9369479508      0.1974948225     -0.1997739616      0.0162765776      0.1114109883
H       0.0150586146     -1.4820811118      0.9956105862     -0.0989746426     -0.2890318034     -0.0283263114      0.0872306355
H       0.0710204604      0.0573350286      1.8850087551      0.0274333928      0.1581648597      0.0695467361      0.2591252275
H      -3.7376113861     -1.8595630089     -1.0807395503     -0.0935318624     -0.1826888583     -0.1900134737      0.0913727578
H      -3.8006066329     -0.1084681257     -1.3104486649     -0.1251173597      0.1338854964     -0.1835807261      0.0860327180
H      -4.3886294788      0.1572654251      0.9092461281     -0.1947957119      0.1687599560      0.0811704423      0.0859843500
H      -4.2528768393     -1.5817509139      1.1862980467     -0.1672394498     -0.1376162055      0.1493747680      0.0946515441
H      -1.0836129489      1.6501663282     -0.7253160703      0.1387060805     -0.0140787699     -0.2634881865      0.0566360188
H      -2.6610322801      1.6128639657      0.0934491336     -0.3189440082      0.0220568027     -0.0124059575      0.0938605262
H      -1.1852240421      1.9332949147      1.0349637241      0.0714544516      0.0942325238      0.2334761282      0.1940512571
H       0.9356436300     -0.2936206931     -1.0320023547      0.0316607413     -0.1222854864     -0.3045099055      0.0798108806
H       0.9853504473      1.2154656762     -0.0957398068      0.0008114216      0.2647501028      0.0296641293      0.1281007433
H       2.4838529914     -1.3350207654      0.6624134920      0.0617181572     -0.3052357460      0.0526921102      0.0734521480
H       2.4951631849      0.1932491689      1.5595374401      0.0021625506      0.1036948370      0.2752429370      0.1265876869
H       3.4705784138      1.3550427541     -0.4205539105     -0.0720839497      0.2799824293     -0.0608157306      0.0899106516
H       3.4604865570     -0.1663966567     -1.3255462258     -0.0559769205     -0.0612090149     -0.2851091079      0.0724346004
H       5.0265616770      0.3535000898      1.2573760096      0.0764769808      0.1174843910      0.3109584312      0.0386839996
H       5.7086878419      0.2835731881     -0.3754410863      0.3415109423      0.0717365079     -0.1211938114      0.0312174250
H       5.0180458971     -1.1728761725      0.3588512274      0.0799074986     -0.3228728589      0.0507843360      0.0253054709
S      -0.5275220907      2.2783675332      3.5861451776      0.0118782933     -0.1556174684      0.1255848277      1.7575310224
O       0.4350168173      2.0674240176      2.5078362089      0.9692619879     -0.2620452652     -0.9275966841     -0.8256691991
O      -1.9061679966      2.0426855597      3.1653572675     -1.3128918939     -0.2677420811     -0.2395763568     -0.8244848928
O      -0.3116886937      3.4423311973      4.3967196218      0.2946984855      1.1737625289      1.0551701354     -0.7558839000
C      -0.2065241220      0.8207420273      4.6922604699     -0.2455136372      0.7502841285     -0.7626423880      1.1405667708
F       1.0741637772      0.7048004490      5.0148670802      1.4087765303     -0.0548013474      0.3859534694     -0.4447824713
F      -0.5521846723     -0.3000332089      4.0196792927     -0.2628091217     -1.2328342793     -0.4387183879     -0.4812201430
F      -0.9240192154      0.8532970635      5.8043044822     -0.7716484723      0.1147398057      1.1781989454     -0.4412881710
