29
Properties=species:S:1:pos:R:3:forces:R:3:charge:R:1 energy=-168.98879198286832 homo_lumo=1.7695184488885793 dipole="-2.1635776573570555 -1.2104726330079045 -0.5477977346892137" free_energy=-168.98879198286832
N       1.4283265618      0.0999183569     -0.2910600090      0.3556647019     -0.1491946480     -0.1654871920     -0.5038173602
N      -0.6726920554      0.5531643646     -0.2782415994     -0.4491629014      0.1179638978     -0.3343597020     -0.5258676769
C       0.2575884883     -0.2462699789     -0.8144306124     -0.2412307060     -0.0532003352     -0.1741121682      0.5728855584
C       2.7276069318     -0.4697276673     -0.6307150551      0.3338418776     -0.3017077645      0.2361857886     -0.0537730611
C      -2.1028922085      0.4759774939     -0.5342649582     -0.1161996152     -0.4471219654      0.4109498202     -0.0410021415
C       1.2651888632      1.1261465154      0.5976024203      0.2260944351      0.3135058401      0.3411567998      0.1946759725
C      -0.0643847491      1.4091889866      0.6085475805     -0.0893959152     -0.0408040588      0.0036417119      0.1854216635
C       3.3708246226     -1.0866973853      0.6043196366     -0.1791349453      0.0732484072     -0.2698616297     -0.0811289298
C      -2.7702861450     -0.4234027215      0.5025985888      0.0669619819      0.2715718163     -0.3122566702     -0.0640055567
H       0.0832929147     -1.0124419456     -1.5502634799     -0.0320599984     -0.1367392206     -0.1397489637      0.0699306363
H       2.5780256124     -1.2082657626     -1.4230932309     -0.1470178941     -0.1505574125     -0.1565883068      0.0641883524
H       3.3418349744      0.3660390818     -0.9950472830      0.0172383630      0.2935297539     -0.0066877851      0.1832236024
H      -2.5106024674      1.4892015722     -0.4854000656     -0.0168865474      0.2188793102     -0.1033454562      0.1153639707
H      -2.2506123303      0.0799537551     -1.5428289909     -0.0175328771      0.0368056883     -0.2173238497      0.1061754884
H       2.1719388447      1.5563506687      1.1192273954      0.1183783309      0.0333144478      0.1305272172      0.1725219275
H      -0.6261249547      2.1453999590      1.1554964102     -0.1434057631      0.1976127293      0.1458109802      0.0145737786
H       3.5626724660     -0.3122871621      1.3473958117      0.1147953605      0.2784568657      0.1806506427      0.1090300534
H       4.3187470744     -1.5404191118      0.3183529224      0.3089652147     -0.1460393184     -0.0503203310      0.0355679098
H       2.7255631749     -1.8510119821      1.0389538146     -0.1841913420     -0.2970067152      0.1223132310      0.0197373740
H      -2.3559016138     -1.4298716747      0.4526095912      0.1002148075     -0.3110452098      0.0104646540      0.0558355745
H      -3.8405061864     -0.4700932718      0.3068367805     -0.3657649260     -0.0586822864     -0.0041433350      0.0495963050
H      -2.6101196616     -0.0272074061      1.5046463936      0.0258595670      0.0873354578      0.3152914085      0.0639862879
C       5.3534462942      3.4125279609      0.8484071751     -0.3557132062     -0.3960872162     -0.0904439399     -0.0844789399
C       4.1360391170      2.4874843147      0.6316883809      1.0253486124      0.6602416324      0.2378860268      0.9215934059
O       3.7555804052      2.2971124691     -0.5358466023     -0.3219205883     -0.1483392794     -1.4411448553     -0.8208774656
O       3.6116796697      2.0065340453      1.6710355798     -0.3278889521     -0.3308196307      1.2361711077     -0.8368297756
H       6.0032904088      3.3873550499     -0.0242613731      0.1873834198      0.0577725811     -0.2768409077      0.0215118394
H       4.9879423600      4.4297936092      0.9885943539     -0.0570997866      0.3489869899      0.0647958779      0.0329500415
H       5.9011124427      3.1090724349      1.7385806517      0.1638592918     -0.0218803568      0.3068198261      0.0230111652
