56
Properties=species:S:1:pos:R:3:forces:R:3:charge:R:1 energy=-306.1620030901528 homo_lumo=0.9597117591513527 dipole="2.302334342654712 0.19298912175955532 -7.123329427953151" free_energy=-306.1620030901528
N       1.8364846525     -0.9005257562     -0.1438953409      0.7020167368      0.8209304255     -0.7824234229     -0.5146880801
N       3.1522340884      0.8866456154     -0.0133491394     -0.5586786518     -0.4330551996     -0.7654806203     -0.5549552911
C      -0.4524527260     -1.8346822436     -0.0537736816      0.0349534952      0.3394900828     -0.0043785961     -0.2042539096
C      -1.1184431937     -0.4794172461     -0.3309455383     -0.0221223254     -0.3338892327      0.2207441700     -0.1896120775
C       0.9435411085     -1.9255088197     -0.6830006573     -0.6846827452     -0.8429010388     -0.2298575232     -0.0262966404
C      -2.5529860415     -0.4483613653      0.2079430046      0.1940420143      0.3377792008     -0.1118504658     -0.1803135232
C      -3.1837827854      0.9344417334      0.0100572692     -0.1607031044     -0.1472341280      0.1067005241     -0.2103205384
C       2.3812332038      0.1309625683     -0.8187110105     -0.3471057404      0.2048113150     -1.4146991930      0.5751043320
C       2.2830727588     -0.7961680843      1.1246816618      0.6146213121      0.3364690521      1.5020195553      0.2402598270
C      -4.6020377760      0.9783001812      0.5706632382     -0.1503442105      0.2168471000     -0.0024660193     -0.0885642902
C       3.0979257884      0.3150566765      1.2055743371     -0.2603902223     -0.9760819762      1.5157781114      0.2546741616
C       3.8932377518      2.0873012131     -0.3777647111      0.3124551379      0.5580773781     -0.2258760947      0.0595991475
H      -0.3759653514     -1.9985795704      1.0431640943     -0.0992524746     -0.0260333276     -0.2476556325      0.1456907855
H      -1.0805028049     -2.6482903428     -0.4779340128      0.2744301830      0.1141939781      0.1362573818      0.1174845756
H      -1.1351751566     -0.2909016130     -1.4270789748      0.0572158473      0.0383613679      0.1775356852      0.0777538689
H      -0.5276734985      0.3265350314      0.1571933609     -0.1467847020     -0.1057230125     -0.1400885126      0.1189133774
H       0.8574318012     -1.8162381642     -1.7867430664      0.2802085690      0.1964984001      0.4044552071      0.1183852244
H       1.3749224140     -2.9290016650     -0.4783085121      0.1525355068      0.3948127126     -0.0321581396      0.1384833349
H      -3.1620847853     -1.2121692498     -0.3239656553      0.1116803874      0.1174885459      0.1882454896      0.0849948432
H      -2.5473592573     -0.6963104891      1.2911082101     -0.0263857085      0.0055553144     -0.2484486011      0.1404061207
H      -2.5707172304      1.7043302838      0.5278266907     -0.0409188548     -0.1772071543     -0.1932015241      0.0931379884
H      -3.2157764230      1.1799553792     -1.0738924592      0.1340974833      0.0073446875      0.2024795404      0.0774638941
H       2.2135431391      0.3310677351     -1.8700149829     -0.0154321548      0.0001633643     -0.0018322578      0.1011922849
H       2.0337386437     -1.4743175875      1.9304608054     -0.1772351341     -0.1202061940     -0.0086874179      0.0894239732
H       3.6104335483      0.6785658239      2.0868493253      0.0821506118      0.1860522406     -0.0095263461      0.0795076508
H      -4.5922792222      0.7641239466      1.6607883478     -0.1019186315      0.0430972041     -0.3152828144      0.0602695146
H      -5.0332721490      1.9890675312      0.4116750597     -0.0327639796     -0.3278540482      0.1204243537      0.0474412154
H      -5.2439637706      0.2323909879      0.0554418188      0.0992475577      0.2138089612      0.2234975918      0.0390737603
H       4.9759322251      1.9293839102     -0.1897367263     -0.4051227434     -0.0259552277     -0.0426930198      0.0988119285
H       3.7463410107      2.3245956436     -1.4532209299     -0.0234405918     -0.2236388138      0.4739480606      0.0878833767
H       3.5366225597      2.9448650249      0.2305308000      0.0620631524     -0.3602706676     -0.1796041770      0.1055243179
P      -0.2712870252     -0.0041787492      7.5075218353     -1.7594111528     -2.9111905980      1.8468604765      1.6309310467
F      -1.0937712711     -1.4464604692      7.9739617054     -3.0028990122      0.0806816875     -0.1095933609     -0.5241959722
F      -1.4398834788      1.1674414145      7.0264240853      0.5274516037     -0.1117513451     -0.7825960332     -0.5179619652
F       0.8704654107     -1.0921627709      8.1951447185      2.0982296534      1.2157417509     -0.5406583618     -0.5172480803
C      -1.0318793488      0.6146813291      9.1738706059      0.5503789160      0.1685500055      0.4632016376      0.5387081262
C      -0.7874636393     -0.8381916483      5.8389350565      0.7016536698      0.0302807516     -0.2518330713      0.5555315108
C       1.3497032739      0.9074431760      7.0241352905     -0.6320655941      0.4944924655     -0.1363967667      0.5320682582
C      -0.4434898354     -0.0106134634     10.4576598473     -0.0736604838     -0.6056937163      0.5600558532      1.3372108841
C      -0.5323322932     -0.0435109689      4.5331398530     -0.5564193808      0.3109957833     -0.1222502624      1.3314751622
C       2.2330541816      1.4549598075      8.1608021627      0.6630256395     -0.0182228592      0.8859676347      1.3640202375
F      -2.3933715369      0.3339048461      9.1812203557      0.6765170406      0.1753549205      0.1635129585     -0.4346450030
F      -0.9088457221      1.9911308066      9.2783394641     -0.2231130946     -0.2092584237      0.5066337899     -0.4504526850
F      -2.1521812982     -1.1102756754      5.8611470537      0.8075696612      0.3595432164     -0.4249294226     -0.4323730125
F      -0.1145601637     -2.0449789738      5.7203721889     -0.1610024618      0.1749790974     -0.5743825116     -0.4458502561
F       1.0163968337      1.9782576808      6.2139535663      0.5151349779      0.2111481255     -0.0454447097     -0.4526161813
F       2.1482409559      0.0446301313      6.2917026885      0.0436778206      0.3610533178      0.2238566791     -0.4483076458
F      -1.1392645146      0.4735527612     11.5513198233      0.4572896655     -0.3009551030     -0.3023991682     -0.4561643903
F       0.8826044863      0.3249418307     10.6191065468     -1.0892737707     -0.3768973116      0.1915242231     -0.4509964886
F      -0.5635101833     -1.3881910841     10.4527152239      0.2006022353      1.3833479820      0.4781714358     -0.4338150996
F      -1.1528138715     -0.7052573830      3.4893531458      0.2814077391      0.3204034855     -0.1948979528     -0.4813440142
F      -1.0552289669      1.2343703549      4.5894152292      0.6857225713     -1.2631930691     -0.6670001775     -0.4330919218
F       0.8107264125      0.0260103476      4.2267429693     -0.9181140611      0.0844626017     -0.2833888456     -0.4673295398
F       1.5349477569      2.3133486398      8.9819285908      0.9435768778     -0.7172306871     -0.7978808458     -0.4381694044
F       3.2776545149      2.1703766592      7.6021495362     -0.3562816304     -0.2666716280      0.3000816953     -0.4569480569
F       2.7841352339      0.4286025565      8.9054973202     -0.2384334492      1.3782982401     -0.7020901862     -0.4309106618
