29
Properties=species:S:1:pos:R:3:forces:R:3:charge:R:1 energy=-162.14692269011636 homo_lumo=3.1299569264493723 dipole="0.3165386478569236 -0.03850801826980812 -1.5137294674440136" free_energy=-162.14692269011636
N       1.0825537056      0.2100088421     -0.0035750472     -0.0027121305      0.0081305601      0.0179208815     -0.4978113335
N      -1.0226171638      0.3585311721     -0.5643606486     -0.0019808245      0.0111730970      0.0265156210     -0.5047345733
C       2.2255126728     -0.1801216650      0.8256677045      0.0014596991      0.0017301332     -0.0038957301      0.0062083676
C      -2.4585648735      0.0900170103     -0.6647535740      0.0080519426      0.0063226363      0.0001835725      0.0189957637
C      -0.1302531862     -0.3706431554      0.1390358482     -0.0007207985      0.0090194492      0.0093925745      0.5500943412
C       3.5553530975      0.1827042043      0.1881885433      0.0037366068     -0.0048520091     -0.0064292740     -0.2416035694
C      -3.2272679480      0.4100653214      0.6259185805     -0.0107875171     -0.0087880175     -0.0045541486     -0.2246197673
C       0.9063539457      1.4388763488     -0.6165790056      0.0061873026     -0.0104971737     -0.0120888163      0.1926420119
C      -0.4024322193      1.5279826254     -0.9760555578      0.0025293542     -0.0057047269     -0.0032596260      0.2044418871
C       3.7645662662     -0.4819272661     -1.1697009271      0.0106420850      0.0024702040     -0.0023981285     -0.0728260478
C      -3.4571480774     -0.8180796929      1.5015836838     -0.0088019691      0.0024889638      0.0011710260     -0.0789940975
H       2.1515700189     -1.2703752922      0.9610974436      0.0105383015      0.0034304756      0.0024757575      0.1072942748
H       2.0539946264      0.2836388595      1.8142532197      0.0009307900     -0.0082009066     -0.0053314627      0.1387051110
H      -2.5781446914     -0.9689972384     -0.9478336644     -0.0087911089      0.0110598909     -0.0046261810      0.0971043627
H      -2.8148830918      0.6941293176     -1.5120144140      0.0059014468      0.0074773235      0.0005401356      0.0948797213
H      -0.2994156306     -1.3739586839      0.5047976249      0.0005630640      0.0219322456      0.0090015524      0.1073950014
H       3.6501199229      1.2795464468      0.1051660252      0.0039292020     -0.0004877419      0.0028375677      0.0948413026
H       4.3430514313     -0.1304309284      0.8942055982      0.0092789929      0.0073578449      0.0003873707      0.1100887502
H      -2.6429726728      1.1505405665      1.1999898860     -0.0245628520      0.0036324289     -0.0008680278      0.1413854125
H      -4.1903829926      0.8699881570      0.3467405911     -0.0134411159     -0.0141092369     -0.0056982480      0.0743150689
H       1.7209960851      2.1351000536     -0.7581137087      0.0069370389     -0.0049082428     -0.0118884013      0.0436340870
H      -0.9444021408      2.3054407441     -1.4993396228      0.0049898957     -0.0041207784      0.0012883574      0.0243575624
H       2.9781203843     -0.1858805162     -1.8814676287      0.0164403860     -0.0086205398     -0.0112827193      0.0604934950
H       3.7290737531     -1.5790983414     -1.0718303347      0.0091398465      0.0037208677     -0.0126422205      0.0381013548
H       4.7383068947     -0.2094200532     -1.6023527200      0.0032380161     -0.0055229652     -0.0084815601      0.0411118664
H      -2.4938287007     -1.1987014496      1.8759855079     -0.0186705151      0.0021397104      0.0045441215      0.0817994555
H      -3.9962062665     -1.6068169818      0.9499330582     -0.0060327831      0.0035401785      0.0041405147      0.0055061590
H      -4.0503622353     -0.5476243046      2.3878202557     -0.0090432453     -0.0162141538      0.0030940816      0.0486937232
Cl     -0.4291345689      0.2614911254      2.6633453838      0.0010508893     -0.0135995169      0.0099514099     -0.6614996916
