29
Properties=species:S:1:pos:R:3:forces:R:3:charge:R:1 energy=-162.04702721385036 homo_lumo=3.229403890940839 dipole="0.30461175133317037 -0.04698688871187635 -1.4856602677074422" free_energy=-162.04702721385036
N       1.0632813461      0.2214595185      0.0095368001      0.8643710427     -0.2946415048     -0.1923990864     -0.4945020557
N      -1.0166109433      0.3576536034     -0.5567376704     -0.5902190995     -0.1699102064     -0.6384594206     -0.5000987891
C       2.2026016688     -0.1911113963      0.8267757554      0.4059544468      0.4055828443     -0.1165426974      0.0096812469
C      -2.4439865214      0.0799306653     -0.6706667822     -0.0332499319      0.2755544649      0.5065525535      0.0221541433
C      -0.1236831894     -0.3842629892      0.1013156090     -0.1993138212     -0.1821442915      0.5410800355      0.5763770276
C       3.5403913906      0.1827803908      0.2013238532     -0.4142844431     -0.4614774127     -0.4094132336     -0.2330979585
C      -3.1903860858      0.4183107493      0.6323225586     -0.1508067094     -0.4893332130     -0.2024199187     -0.2156786410
C       0.8913481364      1.4390618273     -0.6009859034      0.1311176411      0.2544333480     -0.0264084745      0.1984226904
C      -0.4117327592      1.5209365017     -0.9647593979      0.0720688948      0.2989956578     -0.0566545124      0.2126199721
C       3.7436984846     -0.4821528708     -1.1596139397      0.0543277850      0.2901176467      0.3395572032     -0.0522713975
C      -3.4325724651     -0.8131448609      1.5008916253      0.0029641549      0.2934150980     -0.2521599446     -0.0519775502
H       2.1292121552     -1.2740113602      0.9586453127     -0.0396634996     -0.1905258641      0.0441228769      0.1007996325
H       2.0644304170      0.2873273565      1.8044781188     -0.1779079376     -0.0355251056      0.2288453344      0.1375474726
H      -2.5646251285     -0.9757150297     -0.9331164276     -0.0400587737     -0.1941941296     -0.1041797960      0.0900168746
H      -2.8192844986      0.6877045846     -1.4982503336      0.0289737129      0.0597324779     -0.2324020301      0.0899216471
H      -0.2945773162     -1.3708622347      0.4902131597     -0.0219085027     -0.2310465614      0.0280113078      0.0962584007
H       3.6190567705      1.2689073319      0.1006153820      0.0863557901      0.3019439858      0.0894225478      0.0925870198
H       4.3259333139     -0.1436899305      0.8886903531      0.1789874124      0.0291111458      0.2461077021      0.1039396436
H      -2.6111501027      1.1524286092      1.1976478126      0.2149367748      0.1912695064      0.1473583878      0.1358202256
H      -4.1504540231      0.8700193533      0.3649736253     -0.2671794947      0.1326934695     -0.0939400703      0.0710585440
H       1.6971360646      2.1377614830     -0.7392262891      0.1608327484      0.1199181399     -0.0112744396      0.0345286169
H      -0.9509018947      2.2938346302     -1.4837636922     -0.1284897443      0.1620509816     -0.1063790303      0.0155609942
H       2.9636089788     -0.1745086605     -1.8572617006     -0.2041081041      0.0339569966     -0.2564380547      0.0547434717
H       3.7126858850     -1.5680631174     -1.0618201836     -0.0092786792     -0.3421356319     -0.0155871814      0.0301794108
H       4.7110787922     -0.1972426098     -1.5723470167      0.2903304323      0.0200778882     -0.2265268361      0.0344479722
H      -2.4881581664     -1.2172662878      1.8629881543      0.3069953467     -0.0379993986      0.2204588457      0.0724534264
H      -3.9618452219     -1.5842989749      0.9382254230     -0.2690020168     -0.2352295886     -0.1776099209     -0.0004616357
H      -4.0357983431     -0.5308672796      2.3633267318     -0.1361608342     -0.0331211209      0.3344637601      0.0390908277
Cl     -0.4071403991      0.2650662231      2.5723311629     -0.1165845908      0.0284303778      0.3928140928     -0.6701212331
