53
Properties=species:S:1:pos:R:3:forces:R:3:charge:R:1 energy=-301.10089696122066 homo_lumo=4.06294623363422 dipole="-0.9602267743641891 0.4402672886236726 -0.4218944562416512" free_energy=-301.10089696122066
N       2.8802869490      0.9099311419     -0.6159571483      0.1388495801      0.3936805235      0.0722635436     -0.5092137554
N       2.8018700799     -1.2512404793     -0.7308305638     -0.0724271358     -0.5502233605     -0.3563542475     -0.5169589583
C       1.5475229780      2.9595353349     -0.3647505344      0.0834502017     -0.5549970633      0.3979015158     -0.1495160417
C       2.8697104128      2.2491731483     -0.0532205477     -0.5475003956      0.1142928979     -0.3271104514      0.0218933790
C       1.3861804353     -2.9253579348      0.3868199099     -0.0351443068      0.2752263843     -0.8228208580     -0.1845776560
C       2.6909499527     -2.6558261535     -0.3614152915     -0.3463655165      0.0726479624      0.4773787774      0.0240977193
C       0.3417395108      2.1833188765      0.1736107468      0.0019768673      0.6918848965     -0.4394862212     -0.2133888604
C       0.1609005757     -2.5116764298     -0.4362636445     -0.0341904876     -0.2017860698      0.8418056257     -0.1823865397
C      -0.9733879679      2.9166582897     -0.1050274055      0.0706157533     -0.8075829947      0.4138110811     -0.1447857426
C      -1.1280008932     -2.6146446120      0.3840643976      0.0467720652      0.2700817310     -0.8915678059     -0.1606808889
C       2.6848417273     -0.2109938697      0.1254197674     -0.0434960445     -0.1583172823     -0.2392065603      0.5410933239
C       3.3851999613      0.5495011740     -1.8567481544     -0.0153104408      0.2375936968     -0.0145968253      0.1767752520
C       3.3405645405     -0.7949152836     -1.9242588256     -0.0823709452     -0.2057663213     -0.0356679133      0.2124089393
C      -2.1710887075      2.1046440791      0.3979724119     -0.0897668787      0.6119460938     -0.3527580390     -0.2489329604
C      -2.3415149444     -2.1597589365     -0.4326958074     -0.0718678148     -0.1862036256      0.7116450890     -0.2199706060
C      -3.4918143294      2.8186435683      0.1168092180      0.2784908130     -0.3592394917      0.1608153862     -0.0470934050
C      -3.6244991570     -2.2102966375      0.3950363692      0.2592512809      0.0817227008     -0.3981700460     -0.0531821659
H       1.5794091197      3.9560367282      0.0856978166     -0.0037505983      0.3222229018      0.0853626392      0.0769905374
H       1.4509926804      3.0804856261     -1.4484293662     -0.0412291816      0.0795686584     -0.2967157875      0.0851527766
H       1.3910373369     -2.3867832255      1.3392386839      0.0190689303      0.0723249115      0.3066116047      0.0918663163
H       1.3373433462     -3.9946507214      0.6120856140      0.0185867612     -0.2666828387      0.1620319017      0.0881949740
H       3.7054866068      2.8129909701     -0.4774281772      0.2786129429      0.0367407028      0.0174968196      0.0893788120
H       3.0199837512      2.1539025758      1.0260023640      0.1393377893     -0.0187658126      0.1584838974      0.1111272663
H       3.5564063957     -2.9163565395      0.2584155306      0.3208785923      0.0467995676     -0.0145270397      0.1328796134
H       2.7299497348     -3.2399808920     -1.2850014214     -0.0044167696     -0.0522670564     -0.1979870269      0.0780881308
H       0.4556713503      2.0329818192      1.2527402631      0.0222600825     -0.0723243121      0.3155987770      0.0754896160
H       0.3085209307      1.1961906463     -0.3003413948     -0.0180579401     -0.2348421006     -0.0837550366      0.1517951590
H       0.0855769310     -3.1475663597     -1.3250149922     -0.0115051223     -0.1264507189     -0.2844573510      0.0677508466
H       0.2863856155     -1.4780810522     -0.7783860470      0.0114785948      0.2052203507     -0.1325651432      0.1372097173
H      -0.9595310164      3.8946065448      0.3881062671     -0.0154843090      0.2918548823      0.0900374596      0.0756174446
H      -1.0741771996      3.0872234745     -1.1825009917     -0.0336423509      0.0903380949     -0.2867264327      0.0769171352
H      -1.0376559274     -1.9897069051      1.2795790461      0.0101467346      0.1408819282      0.2739534506      0.0840729117
H      -1.2732616925     -3.6493416685      0.7125372784     -0.0598623924     -0.2673460293      0.1561337489      0.0766582469
H       2.0108932496     -0.2261662570      0.9678845451     -0.0474571197     -0.0195761344      0.2144175224      0.1227987511
H       3.7069978767      1.2880116250     -2.5695324289      0.0923081558      0.1561926879     -0.1738427916      0.0101734051
H       3.6163158182     -1.4732083178     -2.7119527884      0.1055329448     -0.1502889776     -0.1449309230      0.0135144421
H      -2.1764099527      1.1256963441     -0.0940884896      0.0402195496     -0.2591289379     -0.0621693210      0.1509516756
H      -2.0700606131      1.9351409009      1.4753642144      0.0662013027     -0.1121230184      0.2743936739      0.0727632417
H      -2.4496581671     -2.8009576432     -1.3140792633      0.0180355494     -0.1194215208     -0.2795446442      0.0689660408
H      -2.1778298383     -1.1348076522     -0.7844540699      0.0817574744      0.2186526878     -0.1355548514      0.1166625597
H      -3.5154871509      3.7891370792      0.6144742967     -0.0559680008      0.3079650527      0.1296246445      0.0243687321
H      -3.6211194242      2.9752639201     -0.9550885590     -0.0837731885      0.0762831746     -0.3172748466      0.0232210411
H      -4.3258648611      2.2197009504      0.4833865125     -0.3542514839     -0.0956576534      0.0698145399      0.0337326683
H      -4.4720882818     -1.8824279669     -0.2073897039     -0.3578999423      0.0839074762     -0.0847039585      0.0273717297
H      -3.5434583313     -1.5568437090      1.2649959674     -0.0165115465      0.1880386128      0.2861440889      0.0330786350
H      -3.8165303702     -3.2267378309      0.7414661573     -0.1017364073     -0.2939348113      0.1377460779      0.0286464997
C       6.4359029577     -0.3310400446      1.9923221911     -0.4165523800     -0.1907740646     -0.2345894013     -0.0918332399
C       5.2457064555     -0.8131876328      1.1431064783      0.9860195250      0.3806835887      0.7337486629      0.9659366766
O       5.3970004473     -1.7466827894      0.3698574459      0.2864722087     -1.1939738820     -0.9542108983     -0.7782823648
O       4.1793847143     -0.1386614567      1.3537664531     -0.7880305244      0.7911735313      0.8335029574     -0.7769007973
H       7.2163935591     -1.0883626668      1.9970043202      0.2559432932     -0.2116336602     -0.0216095164      0.0382273415
H       6.8213693587      0.5858480991      1.5478635462      0.1677245820      0.3282585774     -0.0744934964      0.0395212710
H       6.1076572276     -0.1172070707      3.0073647193     -0.0514223512      0.1431234637      0.3366739488      0.0323111538
