35
Properties=species:S:1:pos:R:3:forces:R:3:charge:R:1 energy=-203.59971232416092 homo_lumo=3.049846465210955 dipole="-1.6189881837828812 -0.9018566951309089 -0.8634857577059892" free_energy=-203.59971232416092
N       0.8086259108     -1.1912773399     -0.3718372022      0.2457139836     -0.3595591654     -0.2355315563     -0.5089912884
N      -0.4593674945     -0.1660000933      1.0328936676     -0.2073748788      0.1050560685      0.3997999907     -0.5030387700
C       1.9586946993     -1.8898921002     -0.9430365463      0.4890660679      0.2516203859     -0.0384141981      0.0058523093
C       2.9999323213     -0.9226467541     -1.5164844404     -0.5621078271      0.1211623364     -0.2029544618     -0.1905122554
C       2.4388756308      0.0708461930     -2.5347401467      0.5469133070     -0.1344694388      0.1576413113     -0.2511903943
C       0.6687391780     -0.8592369230      0.9098864764      0.0344703645     -0.2647131389      0.3325044487      0.6279664036
C      -0.2565991096     -0.7029535698     -1.0806289085     -0.2523858770      0.0400768809     -0.2571513649      0.2025065424
C      -1.0561859023     -0.0541937368     -0.1942419066     -0.2185282438      0.0831779107     -0.2361865969      0.2132316158
C      -0.9241546059      0.4711118773      2.2643765822     -0.0632435026      0.4192291058      0.0368034029     -0.0490306318
C       3.5609241087      0.9372517462     -3.1064296966     -0.3999422574     -0.1962775126      0.0709427215     -0.0389467981
C      -0.9311620385      1.9863414378      2.1026412192     -0.0103836932     -0.3449831266     -0.0045202769     -0.0677346104
H       2.4151860466     -2.4706967860     -0.1379209658      0.0192319961     -0.1666662024      0.1412768637      0.1203010099
H       1.5803455173     -2.5696236333     -1.7123664886     -0.1498466822     -0.1493181713     -0.1201743840      0.0938398783
H       3.7728737134     -1.5380917652     -1.9865252356      0.2394363319     -0.1954116780     -0.1315078954      0.0720618394
H       3.4602696183     -0.3728922702     -0.6917800295      0.1015608595      0.0173538822      0.2822394951      0.2003438138
H       1.9336302556     -0.4662894821     -3.3463084410     -0.1972679312     -0.1250820013     -0.2561004814      0.0654162997
H       1.7050199463      0.7185957184     -2.0452275634     -0.1823297214      0.1556639636      0.0915275344      0.1351441534
H       1.3600565047     -1.0996809232      1.7023083647      0.3381919393      0.1267664739      0.1315967548      0.1045551078
H      -0.3660433577     -0.8657051860     -2.1381026682      0.0134003510     -0.0119580282     -0.2364164681      0.0390604812
H      -1.9248379663      0.0892895779      2.4900229328     -0.1965089460     -0.1679893472      0.0062416569      0.0988069179
H      -0.2281190472      0.1820505497      3.0545305781      0.1516943633     -0.0485026395      0.0757407059      0.1323833702
H      -1.9878122411      0.4643864267     -0.3367854403     -0.1982404849      0.1341869043     -0.0277194487      0.0326227284
H       4.2972139891      0.3192838018     -3.6221385330      0.2412366251     -0.1580781589     -0.1736058199      0.0189560773
H       4.0605269803      1.4788631446     -2.3036142824      0.1615062886      0.1696907696      0.1987686169      0.0645719408
H       3.1522407384      1.6583858937     -3.8142675453     -0.0282622095      0.2644305123     -0.2408926151      0.0201648414
H       0.0772960315      2.3348819094      1.8841278701      0.3193645348      0.0321441802      0.0138883454      0.1115786432
H      -1.2623487101      2.4370540143      3.0369970823     -0.1301550108      0.1811972105      0.2635919764      0.0405284820
H      -1.6037205241      2.2922784045      1.3018929008     -0.2951472991      0.1372383496     -0.1998012934      0.0243962508
C       2.8470680439      0.8393227966      1.8162167726      0.7360296565      1.4674973562     -0.6523379992      0.9294563032
O       1.8847044467      1.0795877410      2.5439148517     -1.1489034763      0.3803599123      1.0686303109     -0.8148360412
O       3.3321380456     -0.2324441240      1.4510390510      0.8032077462     -1.4753478214     -0.4183630070     -0.8124608405
C       3.4993436237      2.1268105405      1.1114370955     -0.6206069475     -1.0905833867      0.5739400950      1.2914056660
F       4.8329506093      2.0784944349      1.0052461274      1.0925069288     -0.1389387359     -0.0096542026     -0.4608797944
F       3.1827934045      3.2878014202      1.6976884311     -0.2562203243      0.8634494400      0.5520829313     -0.4602465788
F       3.0137705344      2.1936756631     -0.1606958063     -0.4160760309      0.0775769103     -0.9558850919     -0.4872826728
