23
Properties=species:S:1:pos:R:3:forces:R:3:charge:R:1 energy=-135.67835755327079 homo_lumo=2.650717976714121 dipole="-0.19960401579939183 0.10343203164572781 2.466594021637751" free_energy=-135.67835755327079
N       0.1618003819     -0.0870493948     -0.5039903472     -0.0092017295      0.0011683936     -0.0060442638     -0.5032271795
C       1.6311550531     -0.1067580115     -0.7043945185      0.0021714697      0.0006564074     -0.0044473446     -0.0953328169
C      -0.4854156076      1.0953795121     -0.5002402132      0.0024121755      0.0007807048      0.0036293759      0.3093625228
C      -0.5155508960     -1.2483992051     -0.4189359813      0.0022747961     -0.0005352410      0.0038654559      0.3104865238
C       2.3605349821     -0.0087176968      0.6242930428     -0.0071953044     -0.0015317531     -0.0036762295     -0.0555767889
C      -1.8549465738      1.1465806709     -0.3335916119      0.0004598235      0.0102425588     -0.0035851409     -0.0068044570
C      -1.8866305024     -1.2513317870     -0.2480358276      0.0019503967     -0.0119764885     -0.0031646228     -0.0070920409
C      -2.5676376190     -0.0407730366     -0.2079895816      0.0005437628     -0.0003912174      0.0077334806      0.0391508506
H       1.8587380564     -1.0269507217     -1.2583078616      0.0022573737      0.0070544751     -0.0044286564      0.1515350925
H       1.8604927091      0.7185245497     -1.3916096186      0.0032179117     -0.0059734123     -0.0023281917      0.1555973797
H       0.1302693086      1.9790238091     -0.6463522032     -0.0038153175      0.0010376911     -0.0065912920      0.1019868689
H       0.0754957176     -2.1563787478     -0.5032464980     -0.0017670554     -0.0005210181     -0.0061649512      0.1009746555
H       2.1134622537      0.9258866946      1.1501277799     -0.0010791518      0.0012268130      0.0000862206      0.0526401698
H       3.4444297916     -0.0225825789      0.4410621928      0.0070898302     -0.0017378197     -0.0005216091      0.0661268571
H       2.1111502839     -0.8544041503      1.2826321612     -0.0019509745     -0.0038594331     -0.0009308581      0.0524009606
H      -2.3543401725      2.1139480291     -0.3510010463     -0.0018925785      0.0031789265      0.0084359955      0.0571837676
H      -2.4114559922     -2.2039018172     -0.1977170725     -0.0002721654     -0.0038802189      0.0071271746      0.0575362002
H      -3.6537133754     -0.0226585621     -0.1069753007      0.0017661817     -0.0008065101      0.0094089598      0.0590683410
B       0.0178249470     -0.2154881767     -3.7357896680      0.0042771681      0.0010375573      0.0182494660      1.3903805611
F      -0.5432463368     -1.3283488052     -3.0057729665     -0.0015684388      0.0147472771     -0.0123180793     -0.5702933996
F      -0.4022586805      1.0057227858     -3.0850465202      0.0074001779     -0.0089150157     -0.0087421224     -0.5719814537
F      -0.4225598336     -0.2330462535     -5.0586427793      0.0083003900      0.0038139282      0.0059970062     -0.5273952327
F       1.4388606381     -0.2977738887     -3.6401736133     -0.0153787417     -0.0048166049     -0.0015897732     -0.5667273820
