62
Properties=species:S:1:pos:R:3:forces:R:3:charge:R:1 energy=-333.5479035122443 homo_lumo=3.1361401539638982 dipole="-5.368453675699231 4.739279357611328 -0.5248950655303217" free_energy=-333.5479035122443
N      -0.0009134966      0.0028635821      0.0003641258     -0.0805998691      0.0365124283     -0.0204813132     -0.5128449141
C       0.8424038478     -1.0227534743      0.7093798523      1.2378596865     -0.7991646524      1.0751131479     -0.0766536329
C      -0.8722020074      0.6883398685      1.0193357778     -1.1259703779      0.9583500868      0.6700633140     -0.0578653707
C      -0.8250185939     -0.6966736553     -1.0480717319     -1.0843238081     -0.9553576660     -0.7507119684     -0.0616083143
C       0.8524886479      1.0423955938     -0.6770016483      1.1343235090      0.7548626127     -0.9704459629     -0.0595127630
C       1.8860206780     -0.4680684845      1.7136382937     -0.2840733790      0.0640038086     -0.2324807836     -0.2132562040
C      -1.9368482103      1.6654090382      0.4591256958      0.2613791877     -0.2993440937      0.0145099615     -0.2170420373
C      -1.8928136196     -1.6911405067     -0.5239224733      0.2757028101      0.2734331333      0.0213827196     -0.2197441777
C       1.9374496498      0.5069958654     -1.6471459448     -0.2295158190     -0.0430075808      0.3280816603     -0.2253067205
C       2.6478459171     -1.6218843836      2.3734392140     -0.0312814895     -0.1702897882     -0.1726067359     -0.2427116535
C      -2.7353974923      2.2977345396      1.6070881229      0.0818022671     -0.0662406166      0.0644330795     -0.2098135058
C      -2.6425287465     -2.3368973086     -1.6971223597      0.0902754247      0.0708688024     -0.0881366101     -0.2104954798
C       2.7175288035      1.6724475180     -2.2706361239     -0.1013184015      0.0912224150      0.0655300116     -0.2094526532
C       3.6955186537     -1.1165364153      3.3597278130      0.0499991713     -0.0288391044      0.0938946519     -0.0862445816
C      -3.7848320214      3.2734848062      1.0837328846     -0.1120951973      0.0914964276      0.0679855803     -0.0889145369
C      -3.6954535451     -3.3267217942     -1.2076502697     -0.1006415616     -0.0992490925     -0.0487599515     -0.0903535176
C       3.7833538402      1.1734997683     -3.2417990092      0.1319493813      0.0402978313     -0.0762056117     -0.0930224208
H       1.3718308378     -1.6687740232     -0.0263238842     -0.2874531295      0.4534366881      0.0024477843      0.1732667522
H       0.1938954136     -1.7112184301      1.2924558210     -0.1474769544      0.4060474958     -0.3806398124      0.1771609057
H      -0.2456727555      1.2882355025      1.7133169369      0.1890678866     -0.4140534220     -0.4065187922      0.1769721162
H      -1.3880789352     -0.0618408250      1.6593657843      0.3426690442     -0.0203077863     -0.4648038960      0.1537920668
H      -0.1649554764     -1.2860230518     -1.7198956829      0.1645565948      0.3850242741      0.4361161750      0.1829578074
H      -1.3305432873      0.0453520437     -1.7054560570      0.2987296153      0.0303707494      0.4636854339      0.1457572263
H       1.3483555314      1.6922068615      0.0780682993     -0.3057282668     -0.4989214643      0.0283677238      0.1524069775
H       0.2147758801      1.7233871614     -1.2799659113     -0.1884491423     -0.4032759268      0.3637496934      0.1653616975
H       1.3913393623      0.1123864891      2.5176862045      0.0303679940      0.0623481131     -0.2148702659      0.1015535424
H       2.6217493455      0.1848860295      1.2016460807     -0.1792229049     -0.0562561609      0.1055546520      0.1201006303
H      -2.6471513675      1.1398387034     -0.2106172236      0.1783482410      0.1246575440      0.0523571488      0.1245126792
H      -1.4531474352      2.4857917780     -0.1085045398     -0.0961350237     -0.2197474004      0.0038023889      0.1203426942
H      -2.6337857509     -1.1770539243      0.1210768123      0.1810832303     -0.1140262562     -0.0457426396      0.1211844770
H      -1.4159735330     -2.5037840052      0.0605158280     -0.0885222029      0.2335037448     -0.0222725005      0.1349392452
H       1.4727835393     -0.0683061086     -2.4732490821      0.0957976988      0.0079472901      0.2258178518      0.1223462243
H       2.6575416082     -0.1496384191     -1.1180579704     -0.2038627089      0.0488639815     -0.1342593536      0.1543594354
H       3.1542523562     -2.2137743429      1.5869760155     -0.0849886558     -0.1106598378      0.1971263083      0.1982835815
H       1.9372966139     -2.2863183127      2.9123907249      0.1555788192      0.0531252386     -0.2535738512      0.0875352883
H      -2.0456516878      2.8466798394      2.2853770113     -0.1319583151     -0.2491479904     -0.0654204571      0.0991775797
H      -3.2445403652      1.5019545064      2.1933893094      0.2150381759      0.1608154495     -0.0331232637      0.1009501933
H      -1.9221914658     -2.8771577493     -2.3500525897     -0.1380463574      0.2408981932      0.0762905310      0.1055591597
H      -3.1427534476     -1.5496252821     -2.3022344962      0.2072547095     -0.1498009061      0.0366357655      0.0943269483
H       3.2100614635      2.2657518587     -1.4696743411     -0.2031922976     -0.0479358178     -0.1519904166      0.0996801063
H       2.0180649417      2.3388501982     -2.8217436641      0.1119123447     -0.0450104761      0.2361356019      0.0874027143
H       3.2110887883     -0.5328668433      4.1710961495      0.2234325537     -0.0807456758     -0.1498506955      0.0191666662
H       4.4401071124     -0.4781092271      2.8385465308     -0.1486041178     -0.1709965540      0.2359358021      0.0385495539
H       4.2246549163     -1.9822965389      3.8114846223     -0.1039977250      0.3187589883     -0.1558251005      0.0870448392
H      -4.5067089020      2.7463097628      0.4244576339      0.1537498309      0.2573536937      0.1471925704      0.0471725674
H      -3.2986680127      4.0949977153      0.5154300975     -0.2437222398     -0.2036102314      0.1179801106      0.0478521174
H      -4.3396106384      3.7138537059      1.9389237314      0.0844847911     -0.0584374275     -0.3489429975      0.0646866228
H      -4.4468820606     -2.8088820537     -0.5744642136      0.1617820987     -0.2508611592     -0.1379856567      0.0437020820
H      -3.2175441603     -4.1403401052     -0.6212582793     -0.2405896085      0.2065829619     -0.1361098988      0.0570100281
H      -4.2146593641     -3.7764713505     -2.0801529153      0.0791619355      0.0602817085      0.3487810677      0.0643762172
H       3.3138678958      0.5987840040     -4.0685543850      0.2425105963      0.1173079382      0.2170874377      0.0487411869
H       4.5151462645      0.5267558846     -2.7127480229     -0.1759187577      0.1395693346     -0.2689513185      0.0695736714
H       4.3237287280      2.0411493910     -3.6758050083     -0.0899515466     -0.3435246305      0.0648688462      0.0603709184
N       5.8910359719     -5.7548654227      1.2086271444     -0.4300983612      0.1113359432      0.2810003646     -0.8397594016
S       4.5751025691     -4.8684456860      0.8135257074      1.5557586263      3.3640382305      2.5324971326      1.8508106009
S       7.2413584760     -5.7186619635      0.2865348984     -0.3893868900     -4.0064709349     -3.2231451875      1.8382775596
F       3.7770356658     -5.6030439486     -0.4612625691      0.1377085194      0.1602845988      0.4757005687     -0.4480274432
F       8.0346978669     -4.2641319100      0.5280799857     -0.3312313681     -0.4939273703      0.1474209734     -0.4473735512
O       3.6527957763     -4.7856964045      1.9965088796      0.6539364755     -1.3673281722     -2.0259997407     -0.7423298943
O       4.9977367946     -3.4890328872      0.3914832251     -0.9823332443     -1.6177803390     -0.7006648335     -0.7529519689
O       6.8727281237     -5.8370547135     -1.1658217349      0.6218898325      1.4472254677      1.7767163653     -0.7246822929
O       8.1461821619     -6.8526400646      0.6756109210     -1.0074213306      2.6134933610      0.7062571908     -0.7072976441
