27
Properties=species:S:1:pos:R:3:forces:R:3:charge:R:1 energy=-155.74795271336887 homo_lumo=4.609088300763704 dipole="-1.3096192140749194 -1.9454598197710435 0.5004785945364186" free_energy=-155.74795271336887
N       0.7739436626     -0.6169353774     -0.5251550920     -0.0086457688     -0.0001388736      0.0061866215     -0.5156727517
N      -0.8775426382      0.6922526683     -1.0372286854      0.0073939290     -0.0099430204      0.0127532333     -0.5463447825
C       2.1217646619     -1.2102514203     -0.5013188892      0.0013136286     -0.0064972536      0.0045588611     -0.0072938870
C       2.7651303533     -1.0784728608      0.8769311269      0.0003505720      0.0041371643     -0.0051328244     -0.2430352459
C       0.3754984126      0.3497922323     -1.3605955038     -0.0030075150     -0.0038295168     -0.0007102941      0.6186786455
C      -0.2455894899     -0.8891774269      0.3658109854     -0.0014045644     -0.0010048912     -0.0097651112      0.1938448020
C      -1.2809228174     -0.0600755163      0.0469292176     -0.0008946981      0.0047052841      0.0006165527      0.2196755958
C       2.9349484150      0.3712315432      1.3197161217      0.0031086931     -0.0113227918      0.0078260229     -0.0928742756
C      -1.5848038245      1.8478683913     -1.5850185143     -0.0002827611      0.0029792956     -0.0009061151      0.0896317584
H       2.7057768244     -0.6557141084     -1.2493465050      0.0030241482      0.0064586132     -0.0066929434      0.1504567349
H       2.0305621490     -2.2643249653     -0.8092905892     -0.0018904811      0.0115068730     -0.0076070524      0.1058749901
H       2.1786567853     -1.6527943245      1.6172498961      0.0038343663     -0.0058549479     -0.0065525662      0.0863723971
H       3.7448164859     -1.5838634770      0.8114317908     -0.0059031066      0.0004233247      0.0024725752      0.1028703405
H       0.9857135260      0.8342432699     -2.1173881683      0.0018358665     -0.0008616984      0.0092528121      0.1383510862
H      -0.1493667474     -1.6367077821      1.1420819322     -0.0024384828     -0.0029244643     -0.0034948025      0.0476452937
H      -2.2574311396      0.0640679430      0.4983920439     -0.0012732408     -0.0062406247     -0.0068979918      0.0391702013
H       1.9728644151      0.9036234648      1.3529747282      0.0045320610     -0.0063033296      0.0128406189      0.0879519298
H       3.5658746068      0.9243561324      0.6097242346     -0.0049215796      0.0030890675      0.0030216488      0.0887157096
H       3.3937321467      0.4170565471      2.3182653924     -0.0013724803     -0.0044804698      0.0036536559      0.0321779609
H      -1.2662988512      2.7374416334     -1.0262897241     -0.0083406895      0.0032705974     -0.0011820633      0.1033866922
H      -1.3008131470      1.9745767672     -2.6342465357      0.0062581763      0.0083818867      0.0043992011      0.0839616404
H      -2.6630508116      1.6718303716     -1.4961821147     -0.0002318121      0.0020343209     -0.0007652321      0.0617739032
B       1.9758346207      2.9465085682     -1.3924483678      0.0032256683      0.0048632598      0.0006467472      1.4230336578
F       2.7145483230      4.1159494512     -1.2613721613     -0.0056452650      0.0010023391     -0.0121988415     -0.5264701798
F       2.8400027875      1.8028814901     -1.5716172328      0.0014695776      0.0045447613     -0.0035659853     -0.5830038352
F       1.0973890428      2.9864471631     -2.5298323931      0.0001297368     -0.0081817329     -0.0032767550     -0.5776033434
F       1.1640921894      2.7128825437     -0.2291084625      0.0097760213      0.0101868272      0.0005200276     -0.5812750381
