46
Properties=species:S:1:pos:R:3:forces:R:3:charge:R:1 energy=-257.3960093966135 homo_lumo=2.159998913418234 dipole="-3.6490581524120245 2.2876389974541755 0.8455640303508041" free_energy=-257.3960093966135
N       1.8393499744     -0.8489082327     -0.1716141224      0.5074612914      0.8798304207     -0.8297101810     -0.5053497307
N       3.0379837313      1.0180855949     -0.0423421335     -0.6811644442     -0.4370741464     -0.7609306163     -0.5375762709
C      -0.4132092777     -1.8568359708     -0.0660767752      0.0772048857      0.3727969940     -0.0906961088     -0.1849944111
C      -1.1130828516     -0.5190814446     -0.3463654486     -0.0579109722     -0.3697397899      0.2589594319     -0.1895191348
C       0.9830818148     -1.9099205278     -0.6993479489     -0.5036679351     -0.7890570092     -0.2260449155     -0.0277498406
C      -2.5252872038     -0.4933689522      0.2472085848      0.2165998756      0.3910786723     -0.2386589621     -0.1650993564
C      -3.1799020321      0.8763933452      0.0325450691     -0.1838167769     -0.1712713565      0.1348597241     -0.2072455764
C       2.2996758298      0.2252820260     -0.8422263976     -0.1894452797      0.0960284019     -1.3196902384      0.5881235129
C       2.3039417965     -0.7320308969      1.0890328114      0.6685436996      0.4434460510      1.4618583062      0.2370455571
C      -4.5851190782      0.9175695063      0.6239511822     -0.1584489804      0.2437908308     -0.0335890438     -0.0844495412
C       3.0474591551      0.4281026383      1.1688799486     -0.1812849414     -1.0256867852      1.4478603282      0.2582499551
C       3.6981892838      2.2648053184     -0.4060135095      0.3008767297      0.4822254470     -0.2116165415      0.0564963087
H      -0.3264494729     -2.0144842687      1.0311702777     -0.1027306457     -0.0340841404     -0.2422519014      0.1075829386
H      -1.0225175014     -2.6873355356     -0.4848705491      0.2617195757      0.1323202537      0.1431283245      0.1146712967
H      -1.1724592401     -0.3557602741     -1.4450673096      0.0649447686      0.0405906147      0.2181385496      0.0893543716
H      -0.5201081983      0.3083497983      0.1010226656     -0.1203220762     -0.1142998632     -0.1741573754      0.1181516428
H       0.8907918032     -1.8126324199     -1.8036151372      0.3511201886      0.1463004202      0.4296317578      0.1333794632
H       1.4496179087     -2.8959761009     -0.4866254553      0.1812826643      0.4494211023     -0.1226426963      0.1519979253
H      -3.1432757277     -1.2804670824     -0.2387103882      0.1084416370      0.1335106501      0.2146603193      0.0931801135
H      -2.4714981746     -0.7072611023      1.3376601989     -0.0750821989     -0.0382019762     -0.2477977286      0.0917474337
H      -2.5647246502      1.6654382171      0.5182336921     -0.0339159493     -0.1653757762     -0.2201377960      0.0845937641
H      -3.2400134761      1.0975482191     -1.0555982737      0.1474130930      0.0036792078      0.2297876830      0.0891551704
H       2.0970263294      0.4272738722     -1.8869847103      0.0967102367     -0.0839242332     -0.0182087117      0.1020127851
H       2.1131789774     -1.4351090886      1.8896830972     -0.0494277666     -0.1643632134     -0.1373067890      0.0602342105
H       3.5576569409      0.8115971495      2.0430849091      0.1551524239      0.1349120985     -0.1153662198      0.0585642454
H      -4.5497385929      0.7210651739      1.7167855374     -0.1240451127      0.0267612786     -0.3006046770      0.0412284973
H      -5.0271758738      1.9226914725      0.4585362994     -0.0460753987     -0.3231826983      0.1261350423      0.0475943095
H      -5.2319729023      0.1589374080      0.1340716270      0.0999990315      0.2225094793      0.2275924658      0.0433160459
H       4.7941547146      2.1618547374     -0.2621517867     -0.3853114590     -0.1323093199     -0.0813380546      0.1109067721
H       3.4965714346      2.5164205750     -1.4691634419      0.0409547649     -0.2630063785      0.4641168823      0.0843156885
H       3.3195871629      3.0879013262      0.2356523507      0.0581351848     -0.3391343844     -0.1915524185      0.0869281669
N       6.3479525739     -3.0502951337     -1.8871250345     -0.6751064434      0.2057205926     -0.4716435610     -0.8525654174
S       5.3701553778     -1.7346713421     -1.9096254192     -3.0417239205     -3.7498448561      4.8393333606      1.5773802541
S       7.3481319819     -3.3833370822     -0.6323085153      5.5035366480      3.8234184739     -2.7452646225      1.5665127462
C       6.0794135408     -0.4889827924     -2.9642673626      1.5405651205      0.7680824964     -1.2771997544      1.1637420888
C       6.4506557859     -4.2688539272      0.6271673677     -1.0500496144     -1.0345206256      1.2201483761      1.1512511641
O       4.0279149153     -2.1277063564     -2.4592438218      1.7609136703      0.8839790255     -0.6715746110     -0.7606864438
O       5.2056682280     -1.1734577918     -0.5253034451      0.4900495788      0.7915994049     -1.7367668507     -0.7637252504
O       7.8959303064     -2.1091407858     -0.0510038798     -1.4825020865     -1.7603825610      0.3222004934     -0.7298348577
O       8.4817342415     -4.2422627088     -1.1176330366     -2.6709367027      0.0361599496      0.7714058123     -0.7125830020
F       5.2418710043      0.6092556644     -3.0100927138      0.5629610666     -0.4562465004     -0.1079027384     -0.4536298142
F       6.2387499580     -0.9966181777     -4.2394548812     -0.0946163519      0.7751895145      0.9495630108     -0.4229064971
F       7.3100546879     -0.1046597573     -2.4670234630     -1.2200169839     -0.0987566421     -0.6987264348     -0.4168163685
F       7.2924014546     -4.5421801292      1.6884844454     -0.9172859852      0.1572086350     -0.8385459928     -0.4262498118
F       5.9727985107     -5.4559120902      0.1058280627      0.1752770185      0.7799759016      0.7053689336     -0.4299309182
F       5.3885128577     -3.5066336934      1.0734944445      0.6750248716     -0.8700736610     -0.0548232604     -0.4368041846
