46
Properties=species:S:1:pos:R:3:forces:R:3:charge:R:1 energy=-259.28168428295885 homo_lumo=3.845039868505409 dipole="-2.6004469091558557 1.0270878507709436 1.1057869601251307" free_energy=-259.28168428295885
N       2.9334522812      1.3372085310      1.0522388392     -0.0005952665     -0.0004021471      0.0012181332     -0.5082731876
N       3.1229930127      3.2822781749      0.1179311198      0.0010110797      0.0004707704      0.0000196205     -0.5495394411
C       1.5082951399     -0.6541010719      1.4218855663     -0.0009321382      0.0046265425     -0.0014451371     -0.1699361059
C       0.5754512026     -0.3320560687      0.2582980135     -0.0046833729      0.0030464230      0.0003124932     -0.1923625337
C       2.9219402385     -0.1219603047      1.2212035373     -0.0052318933      0.0025779745      0.0011031571     -0.0433522106
C      -0.8382203017     -0.8696377367      0.4657023020     -0.0015916067      0.0038041592     -0.0034925792     -0.1593978626
C      -1.7818468144     -0.5202728001     -0.6828297355     -0.0033511110     -0.0009741229     -0.0008818537     -0.2047933333
C       3.1615803821      1.9630963916     -0.1058450862      0.0020782543      0.0003133837      0.0022536104      0.5851299226
C       2.7521788540      2.2762240153      2.0446744268     -0.0044478464      0.0014987507     -0.0000308315      0.2051781471
C      -3.2017298859     -1.0315442965     -0.4547588750     -0.0037390556      0.0007879706     -0.0023355373     -0.0662550120
C       2.8788855915      3.5025421714      1.4595071594     -0.0037509703      0.0006138105      0.0002270223      0.2151450210
C       3.5077091845      4.2944359756     -0.8600520330      0.0021916788      0.0008774760      0.0014046194      0.0835267221
H       1.0869741252     -0.2577495113      2.3640227566     -0.0038023766      0.0092734858     -0.0017964567      0.0902626113
H       1.5894175352     -1.7475118743      1.5518447830     -0.0041221729      0.0047239988      0.0033070283      0.1041934384
H       0.9990150573     -0.7467695981     -0.6756582847     -0.0003106977      0.0030087664     -0.0017778610      0.0996674920
H       0.5213535946      0.7636766174      0.1198867529     -0.0029678587      0.0028694220     -0.0016208043      0.1157831201
H       3.3908962116     -0.5350969134      0.3171983499     -0.0009208170      0.0015993786      0.0012542624      0.1808230747
H       3.5806214355     -0.3507595601      2.0712522906     -0.0055925340     -0.0000515677      0.0039267811      0.1283978941
H      -0.8010463124     -1.9680440939      0.5897526810     -0.0001006344      0.0011824920     -0.0018399062      0.0897035628
H      -1.2478206380     -0.4636639115      1.4104201053     -0.0022964524      0.0005808704     -0.0015585149      0.0841319432
H      -1.7982957759      0.5773248397     -0.8149502698     -0.0047874105      0.0017688930     -0.0023297921      0.0817403391
H      -1.3789494582     -0.9398618557     -1.6227231551     -0.0037127687      0.0007732606     -0.0019676502      0.0898113642
H       3.4400951000      1.4640583091     -1.0316761439      0.0069487910     -0.0006123007      0.0032008568      0.1857603134
H       2.5622671036      1.9968571300      3.0732841946     -0.0043655432      0.0014196402      0.0002920548      0.0473489249
H       2.8331338706      4.5000250211      1.8783702432     -0.0055773897      0.0004507812     -0.0015361696      0.0450498035
H      -3.6312126919     -0.6000349385      0.4641418647     -0.0050255106     -0.0019376777     -0.0046101355      0.0332129294
H      -3.8646579192     -0.7694592066     -1.2930648056     -0.0034273393     -0.0003810852     -0.0042286997      0.0402785607
H      -3.2122879738     -2.1278341326     -0.3453232417     -0.0034585408     -0.0010733950     -0.0048199907      0.0371587078
H       4.5726264540      4.5271642226     -0.7278201743      0.0025213097      0.0030431620      0.0041578557      0.0933868459
H       3.3472262398      3.8925074185     -1.8660598989      0.0056429813      0.0007319036      0.0017422189      0.0874089006
H       2.8889816140      5.1883027425     -0.7157837163      0.0024337094     -0.0014947086      0.0006444826      0.0674454621
N       7.1989449306      0.5224451592     -1.2724807993      0.0048134573     -0.0083457789      0.0029245923     -0.8348270085
S       7.0544453037      1.1930283718      0.1828861129     -0.0094740211     -0.0031358004      0.0001463767      1.6327323408
S       5.9747299230      0.2495657350     -2.2609306407      0.0008936413      0.0043752208      0.0083642807      1.6355479396
C       6.9180690909     -0.3062673333      1.3241265194      0.0050444146     -0.0074358630     -0.0032892854      1.1733116895
C       5.7554342969      1.9165007555     -3.1940510408      0.0058664596      0.0018294528      0.0035130394      1.1553629056
O       8.3250775995      1.7891529534      0.5532317246      0.0077953996      0.0112141068      0.0056780109     -0.7108046622
O       5.8101654538      1.9320148529      0.4330631249      0.0032951253     -0.0063498929     -0.0018452363     -0.7799415027
O       4.6550503707      0.0487683296     -1.6356160472      0.0055803925     -0.0016280475      0.0014767196     -0.7959044001
O       6.3947819355     -0.6748755947     -3.2970232781      0.0119120483     -0.0044959567     -0.0025856773     -0.7059633291
F       8.0354536929     -1.0554021501      1.2872997232      0.0165711577      0.0010174663     -0.0045923251     -0.4263937882
F       5.8628188943     -1.0978294528      0.9906278714      0.0132215737     -0.0132278318     -0.0166249704     -0.4574816884
F       6.7228710581      0.1260658650      2.6000370170     -0.0064935038     -0.0174371737     -0.0035694269     -0.4480567551
F       4.4268361353      2.1285421031     -3.4580827631     -0.0004677628     -0.0078375319     -0.0014624407     -0.4631535690
F       6.4147719931      1.9059237426     -4.3652733251      0.0075654088      0.0052580962      0.0130674569     -0.4227370426
F       6.1908748606      2.9724652150     -2.4616029729     -0.0101602877      0.0030832232      0.0100066089     -0.4483265437
