43
Properties=species:S:1:pos:R:3:forces:R:3:charge:R:1 energy=-231.59050131424388 homo_lumo=3.762835132711817 dipole="-0.03658164193038665 -2.0781518159206174 0.9011428754746301" free_energy=-231.59050131424388
N      -0.3371884714      0.4806926714     -0.0278678030      0.1164812979      0.0083061988     -0.0105805020     -0.4945724177
C      -1.2959260622      0.5391028081     -1.1862848639     -0.6963238571     -0.3857847113     -0.1342066934     -0.0179144516
C      -0.7253413187      1.5396225784      0.9706774349     -0.4119138603      0.0699765712      0.6286364592     -0.0265098828
C       1.0154300969      0.8308616163     -0.5954877268      0.6841284803     -0.1158926714      0.4213910874     -0.0556811818
C      -0.3271273163     -0.8584290418      0.6451807401      0.0872018446     -0.3933239890     -0.4113329627     -0.0194522472
C      -2.7511157056      0.3985696587     -0.7664751860      0.2978044937      0.3665787249      0.1511389258     -0.1575482267
C      -2.1775827268      1.4437726154      1.4190964609      0.1115941979      0.0245783544     -0.4774718694     -0.1465887178
C      -3.1178823510      1.5068763644      0.2181526557      0.1057663155     -0.3643928626      0.1459865819     -0.1473242503
C       2.1804235162      0.7546160930      0.3879014213     -0.0587044442     -0.0752430233     -0.4616251357     -0.1984360070
C       0.0857843091     -2.0277365730     -0.2464904473     -0.1741321499      0.0725020847      0.6558679635     -0.2102001453
C       3.3981044731      1.4851630623     -0.1999415686     -0.3046416961      0.2426517375      0.3179614613     -0.1885681294
C       0.0789211538     -3.3215231614      0.5776096198      0.1330949897      0.0784256832     -0.6029433800     -0.1945490127
C       3.2500180348      3.0057433122     -0.1520420945      0.0903037329     -0.4609153623     -0.1368690486     -0.0632126673
C       0.4878097494     -4.5192956647     -0.2769058414     -0.1344425284      0.2575409983      0.3743208801     -0.0477803557
H      -1.0126188570     -0.2386781119     -1.8968984884      0.1958813769     -0.1960131210     -0.1123686645      0.1016452952
H      -1.1453304003      1.5228450833     -1.6472051840      0.2112621958      0.4413161537     -0.0623818662      0.1929677189
H      -0.5597813132      2.5016983705      0.4713458281      0.1023120750      0.3110243109     -0.3498291170      0.1935416986
H      -0.0580263556      1.4510216223      1.8297508361      0.2110070780     -0.1217151646      0.1358571780      0.1011237743
H       0.9098306075      1.8517735976     -0.9769151940     -0.2827162543      0.3616603303     -0.1860011144      0.2363900146
H       1.1957655107      0.1648689186     -1.4421905189     -0.0361264829     -0.1766055174     -0.1994243369      0.0976630674
H      -1.3306102577     -1.0395605126      1.0345433916     -0.1585549139      0.0220525311      0.0905050336      0.1623895346
H       0.3560416058     -0.7813166861      1.4948186334      0.1273777986      0.0878269237      0.1896310074      0.1336114489
H      -2.9476380801     -0.5855003931     -0.3285836498     -0.1407070239     -0.3063639291      0.0874400339      0.0693563010
H      -3.3588595765      0.4886693253     -1.6706300569     -0.1321249263     -0.0662233524     -0.2743210312      0.0929323824
H      -2.3633405767      2.2937414906      2.0809618809      0.0094100916      0.1923002558      0.2447565634      0.0965602258
H      -2.3569347243      0.5298768327      1.9948910830     -0.1062549762     -0.2175676787      0.2318439519      0.0643756036
H      -3.0145022706      2.4780706476     -0.2744812142      0.0862193597      0.2691148218     -0.1545672735      0.1188503828
H      -4.1533419069      1.3907148788      0.5466005365     -0.3107002321      0.0121448253      0.0781450641      0.0628509589
H       2.4484805592     -0.2888528490      0.5811554205      0.0715154192     -0.3108515615      0.1373038387      0.0747286631
H       1.9199109837      1.2170142759      1.3432922628     -0.0309427973      0.1392271968      0.2400383835      0.1045170735
H       1.0873568555     -1.8683332198     -0.6531868806      0.2502989795      0.0396620382     -0.1312335636      0.1176678492
H      -0.6079948257     -2.1346107092     -1.0841974548     -0.1567125493     -0.0410235327     -0.2339546169      0.1113703459
H       3.5516337196      1.1591850377     -1.2341386871      0.0963207389     -0.1273429189     -0.2636040363      0.0756021673
H       4.2840697476      1.1934084719      0.3733264351      0.2350634208     -0.1521512196      0.0818230783      0.0731132752
H      -0.9238162835     -3.4876621601      0.9851810385     -0.2360661111     -0.0274567410      0.1703818048      0.0838105025
H       0.7711357530     -3.2196551516      1.4200148503      0.1266094253      0.0377612986      0.2634411531      0.0872275598
H       3.1046193899      3.3402484639      0.8761475697     -0.0467932356      0.1416847160      0.3019683793      0.0149989939
H       2.4026485863      3.3427241128     -0.7485178554     -0.3309694739      0.2170093049     -0.1511254159      0.0898661282
H       4.1538245023      3.4721002697     -0.5438130525      0.2668385456      0.2400861118     -0.1050443073      0.0278097466
H       1.4927865032     -4.3783651738     -0.6764064320      0.2981470598     -0.0044414661     -0.1476543809      0.0333716903
H      -0.2033927141     -4.6478260066     -1.1106737499     -0.1790198525     -0.0847329152     -0.2741313320      0.0330173860
H       0.4772521191     -5.4263075303      0.3271345728      0.0329235778     -0.3449717191      0.0846787695      0.0392327536
Cl     -0.3642397540      3.6517011084     -1.4511423954     -0.0197151293      0.3395822853     -0.1524469500     -0.7222548490
