28
Properties=species:S:1:pos:R:3:forces:R:3:charge:R:1 energy=-158.18771967626034 homo_lumo=3.2350290692559422 dipole="-2.4346944366558145 0.9514670158569103 1.2336305481129874" free_energy=-158.18771967626034
N       0.9035639877      0.4350633502     -0.0737645016      0.0412166713      0.2112661422      0.0867035096     -0.5053940300
C       2.0661447460      0.7903566826      0.7520742671      0.1896700889     -0.3130659742      0.5554012852     -0.0228932922
C       2.1957573814     -0.1405435476      1.9587149318      0.2582235070      0.3684826548     -0.0899427409     -0.2338140010
C       3.5003204126      0.1475162808      2.6967849513     -0.3598118347     -0.0957919095     -0.1974765508     -0.0591607443
C      -0.0971840722      1.3127118138     -0.2452441461     -0.3659450289      0.1778841776     -0.1467174469      0.2874724978
C       0.9071101002     -0.7440111790     -0.7118843566     -0.0982985810     -0.3853700266     -0.1295283931      0.3002978943
C      -1.1472143511      1.0203988477     -1.0881209129     -0.0379407428      0.0181986785     -0.0237203297     -0.0327123538
C      -0.1161239530     -1.0773567943     -1.5778268382     -0.1712426940      0.0744814882      0.0135294380      0.0009263103
C      -1.1584963195     -0.1877847307     -1.7780105602      0.1584019081      0.0328061441      0.1398732428      0.0440570019
H       2.9458344343      0.6997863669      0.1089177932      0.0819964955      0.0135289992     -0.1266679702      0.2159740203
H       1.9550039228      1.8294055147      1.0698755067     -0.1214624126      0.2127748956      0.0173661248      0.0903780317
H       2.1997586742     -1.1781239762      1.6159991202     -0.0077494174     -0.2438795491     -0.0832753248      0.1295639606
H       1.3380605463     -0.0005633132      2.6244920636     -0.2759027438      0.0058861874      0.1532124289      0.0859381204
H       4.3487284256     -0.0342061100      2.0370786161      0.2692666193     -0.0594575726     -0.1778571786      0.0730240173
H       3.5841470641     -0.5070190721      3.5634194999      0.0844083355     -0.1477343905      0.2879282387      0.0425503011
H       3.5326126801      1.1838005716      3.0352602876      0.0556153015      0.3074639067      0.1574974439      0.0260443867
H      -0.0308253046      2.2499924321      0.2941073249      0.0816687932      0.1084591979      0.1018877977      0.0860882061
H       1.7486352931     -1.4010649468     -0.5404678260      0.1395691089     -0.0632861456      0.1024607251      0.1790048543
H      -1.9421547887      1.7440029490     -1.2160443416     -0.1706442195      0.1891424730     -0.0012309953      0.0526027481
H      -0.0661623001     -2.0226384636     -2.1028166014      0.0765152499     -0.2219893957     -0.1011715793      0.0621051608
H      -1.9656964956     -0.4200847533     -2.4619351707     -0.2017035631     -0.0684205189     -0.1723789277      0.0527100452
P       4.0363370406     -1.0892717429     -2.0520857113     -0.0307563475      0.0571520381     -0.0045571872      2.1961088143
F       2.8022776259     -2.1826760524     -2.2853341122     -0.0757759357     -0.1616974910     -0.0458972045     -0.5237766927
F       2.8622727795      0.1302379446     -2.0172894026      0.1163444098      0.1034797477     -0.2003032017     -0.5292932166
F       3.7995764883     -1.2671875128     -0.3838704987      0.0630556319     -0.1168159905      0.0204442738     -0.5384924769
F       5.1774367283      0.0361537978     -1.7432491345      0.1371216061      0.1522573408      0.0636089021     -0.5002864617
F       5.1267490933     -2.2888094799     -2.0247026017      0.1535559006     -0.1834855735      0.0170312904     -0.4888297470
F       4.1902661172     -0.8891893857     -3.6559661573      0.0106038935      0.0277304657     -0.2162196703     -0.4901933550
