46
Properties=species:S:1:pos:R:3:forces:R:3:charge:R:1 energy=-256.8148378052618 homo_lumo=1.0981002822877397 dipole="-5.840103398992528 -2.2144692973996722 0.048578793140935134" free_energy=-256.8148378052618
N       1.9081245404     -0.9519675342     -0.2225378653      0.4428385791      0.6850479686     -0.8067316447     -0.5181333084
N       3.1124133267      0.9110429281     -0.1154020310     -0.7064451548     -0.5376302382     -0.7405666136     -0.5456280061
C      -0.3774819372     -1.8789723441     -0.0751906665      0.0370337529      0.3434788835     -0.0680001575     -0.1947369457
C      -1.0305799899     -0.5113699152     -0.3296625800     -0.0242833341     -0.3519278305      0.2356150226     -0.1930835237
C       1.0076305036     -1.9865141287     -0.7265321141     -0.5610313479     -0.7564570588     -0.1834192124     -0.0216327397
C      -2.4437406751     -0.4568907907      0.2616125546      0.2093203220      0.3575349967     -0.2229018402     -0.1667404655
C      -3.0853473361      0.9167860875      0.0319465242     -0.1780744212     -0.1512458641      0.1349329029     -0.2100739919
C       2.3542398755      0.1231477357     -0.8998434082     -0.3158387229      0.3515513031     -1.2570598518      0.5792723501
C       2.4074850516     -0.8442129745      1.0258770993      0.6546940600      0.3967279237      1.4984019620      0.2206057692
C      -4.5003091947      0.9665201735      0.6022173875     -0.1415211591      0.2269601103     -0.0332523686     -0.0868112793
C       3.1561353352      0.3141867178      1.0917047882     -0.1697887724     -0.9668666599      1.4167612720      0.2670983691
C       3.7431564841      2.1693327540     -0.4858134217      0.4112171207      0.7108020337     -0.3190475044      0.0297480125
H      -0.2862164297     -2.0534814062      1.0190117107     -0.0813738445     -0.0346385856     -0.2490781920      0.1141726395
H      -1.0235034004     -2.6795792308     -0.4968532386      0.2533221459      0.1142253148      0.1426794762      0.1185718465
H      -1.0799812829     -0.3224622617     -1.4247797485      0.0459122005      0.0309071439      0.2120488242      0.0912962777
H      -0.4138946289      0.2871602414      0.1379943706     -0.1246759666     -0.1082552508     -0.1828527951      0.1223317008
H       0.9035498498     -1.8952085057     -1.8302156751      0.2763752683      0.1673559100      0.3965919771      0.1248249387
H       1.4421802699     -2.9867311210     -0.5120868737      0.1255743207      0.3972980068     -0.0769008866      0.1380064297
H      -3.0715793597     -1.2415657164     -0.2150202838      0.1092757935      0.1280158444      0.2001767830      0.0953930908
H      -2.3927235537     -0.6595662191      1.3542852863     -0.0795831078     -0.0456906274     -0.2488836399      0.0950900986
H      -2.4718429733      1.7039726855      0.5224620436     -0.0426278743     -0.1642952014     -0.2172932851      0.0896333865
H      -3.1288458513      1.1340019543     -1.0576633428      0.1413647137     -0.0016970158      0.2262910158      0.0909133907
H       2.1120579494      0.3390166557     -1.9332087358      0.0382773345     -0.0141945319     -0.0239595780      0.1026101736
H       2.2293359477     -1.5470549826      1.8294983362     -0.0857818662     -0.1639740583     -0.1081896783      0.0629535031
H       3.6822030248      0.6987696233      1.9561441227      0.2057556538      0.1953430306     -0.1029204657      0.0808923967
H      -4.4830770066      0.7752373493      1.6963853359     -0.1143367778      0.0331930127     -0.3022811747      0.0440628513
H      -4.9387941478      1.9711523561      0.4246515343     -0.0248189923     -0.3265684981      0.1268000886      0.0527172993
H      -5.1426901196      0.2069625160      0.1077417161      0.1045502580      0.2235194244      0.2184626348      0.0439920202
H       4.8386540769      2.0785992683     -0.3605032036     -0.1234792384      0.0246092801      0.0791088979      0.1864197899
H       3.5216036436      2.4199025855     -1.5452825691      0.0226600036     -0.2634912129      0.4585270925      0.0757374802
H       3.3657611866      2.9850793523      0.1655696720      0.1000586925     -0.3691992383     -0.1728299102      0.0876520558
N       9.0655489720      3.1445415945     -0.5435463616      0.0607846898      0.1996692630     -0.0314083750     -0.8563967314
S       8.2921801076      3.3677773346      0.8841607028     -5.2189257566      2.1043568460     -3.7207844053      1.5728068385
S       8.9126778346      1.7790145550     -1.4373748520      4.5228544793     -3.4325344363      4.7315879226      1.5560912966
C       9.3441265114      2.8337066703      2.2170767156      1.4938098078     -0.7904264886      1.2132130075      1.1574600133
C       7.7503938453      2.0683657539     -2.7549127440     -0.7098653361      0.6126358785     -1.3656137165      1.1540098350
O       7.9921515049      4.8297036155      1.0564550924      1.7185169778     -1.8272154751      0.3250103910     -0.7258144708
O       7.0111587830      2.5837462084      0.9249128308      1.4411059831     -0.0464593938      0.8674646981     -0.7839950456
O       8.4352749355      0.6325332099     -0.5895301840     -0.7371703189      1.3507737089     -1.6923667186     -0.7401235271
O      10.2455841085      1.4366844629     -2.0399582435     -2.2156717911      1.4268162632     -0.3677769218     -0.7161507804
F       8.7021132041      3.0444298951      3.4225653002      0.6538629367     -0.2369540053     -0.8437964316     -0.4329582869
F      10.5229665290      3.5541928224      2.1931502780     -0.8695991768     -0.7172332101      0.2953325932     -0.4258922605
F       9.6263760197      1.4880606505      2.0783949846     -0.0981848146      1.2123195087      0.4231303530     -0.4229047805
F       7.5988027884      0.9136462768     -3.4984857925     -0.1276987043      1.0576781382      0.4515650395     -0.4321807206
F       8.2172135093      3.0815689623     -3.5702102952     -0.7402777860     -0.8409442993      0.3896162164     -0.4262665647
F       6.5288601637      2.4361763730     -2.2279233641      0.4218891703     -0.2029206136     -0.7054028034     -0.4548404251
