64
Properties=species:S:1:pos:R:3:forces:R:3:charge:R:1 energy=-345.3159995814427 homo_lumo=5.219011664590156 dipole="-0.9513454750648261 -2.15535749135989 -2.4303993992671113" free_energy=-345.3159995814427
N      -2.1121353472      0.6664616522      0.0098897559     -0.1151898439      0.0504742795     -0.2883998595     -0.4967685404
C      -2.3608766779     -0.7247428837     -0.4834232138     -0.0817214745     -0.4684620191      0.1684651379      0.0158242882
C      -3.2282482853      0.8865507367      0.9905838260     -0.3058440192     -0.1105220667      0.3967257411     -0.0199351255
C      -0.7964952165      0.7622065927      0.7368385237      0.5484963145      0.0053694088     -0.3701010261     -0.1088332516
C      -2.8183912156     -1.5083009632      0.7423387388      0.0393877138      0.0635353869     -0.1489957370     -0.1449076380
C      -3.4476539646     -0.4615552748      1.6736667877      0.0501893288      0.0407546812     -0.0368765546     -0.1403828689
C      -2.1955410303      1.6334756095     -1.1346302702      0.1375836175      0.6114212300     -0.0175321354     -0.0425973267
C       0.4416530968      0.5482103293     -0.1274653898     -0.2510466298      0.0412527120      0.5880045285     -0.2168093586
C      -1.9782984487      3.0829316532     -0.7328100214     -0.0180120356     -0.5606016729     -0.1533261729     -0.1172560126
C       1.6845580995      0.6142866889      0.7707605575      0.0304122984     -0.0077932029     -0.7627625450     -0.1800224582
C       2.9663342281      0.4511620988     -0.0493669560     -0.0799039398      0.0615878539      0.8358292708     -0.1543374265
C       4.2038769202      0.5489164919      0.8484839557      0.0568907682     -0.0978569307     -0.7322676728     -0.1990722245
C       5.4913476272      0.3951631953      0.0410852336     -0.2790013098      0.0487605699      0.3767771719     -0.0432669433
H      -1.4597663076     -1.1231293959     -0.9474627206      0.1933284370     -0.0068693216     -0.1726669713      0.1331460083
H      -3.1558324341     -0.6725366024     -1.2313613889     -0.1723445470      0.1169386904     -0.1711850479      0.1145951942
H      -4.1116594586      1.1898892869      0.4243264751     -0.1407083774      0.0652037081     -0.2432812835      0.1054254184
H      -2.9523627164      1.6757057166      1.6869700683      0.0911680331      0.2300801482      0.0823563193      0.2128741059
H      -0.8265332287      0.0275376432      1.5431494174     -0.0631383395     -0.0963521751      0.2073514547      0.1713655630
H      -0.7592036425      1.7530274368      1.1847029497     -0.0992079903      0.0602879945      0.1810627592      0.3021391659
H      -1.9717114647     -1.9996280371      1.2256995304      0.1767353761     -0.1755030367      0.0972428862      0.0857163612
H      -3.5360652129     -2.2767974823      0.4509657801     -0.0887361879     -0.2596936887     -0.0803410415      0.0924999317
H      -4.5153500843     -0.6396223578      1.8116249354     -0.2398786379     -0.0062762643      0.0979627023      0.0877340870
H      -2.9709456910     -0.4798777147      2.6542652130     -0.0060537528      0.0058703962      0.2077694126      0.1227711211
H      -1.4534137905      1.3219836829     -1.8736418305      0.1321899799     -0.1523789274     -0.1567894560      0.1353200605
H      -3.1897265232      1.5102197843     -1.5734029686     -0.2161261070     -0.1690330921     -0.0507220451      0.1131678936
H       0.4100875767     -0.4221380111     -0.6326120098      0.0636773149     -0.2550596304     -0.1801161125      0.0813164969
H       0.5127006677      1.3268701550     -0.8916250009      0.0516172672      0.2028569937     -0.2135787543      0.0995638475
H      -2.1803311992      3.7058071591     -1.6037943690     -0.0486877620      0.2096983645     -0.2637959257      0.0506619203
H      -2.6494640267      3.3812993105      0.0691982178     -0.1437427434      0.1495939055      0.2170742380      0.0864651029
H      -0.9542141468      3.2629709778     -0.4151751520      0.2044434509      0.1088254483      0.1078709453      0.1104546729
H       1.6263832633     -0.1734482903      1.5287585406      0.0000349962     -0.1701131301      0.2523774992      0.0759777428
H       1.7018897054      1.5764330389      1.2885952701     -0.0056360947      0.1124186958      0.1681822836      0.1763204287
H       3.0089181845      1.2321212341     -0.8164860752      0.0302098047      0.2008837931     -0.2393018672      0.0787316614
H       2.9566712020     -0.5186966783     -0.5600480054      0.0396099397     -0.2525796743     -0.1950276567      0.0671835892
H       4.2058626750      1.5183334783      1.3568196858     -0.0540633740      0.2135330594      0.1971370239      0.0948691015
H       4.1587867788     -0.2313282375      1.6155941687     -0.0515384059     -0.1562780660      0.2513925875      0.0817708975
H       5.5640238452      1.1776467830     -0.7156201582      0.0674036759      0.2217949116     -0.2504812233      0.0267884180
H       6.3560788689      0.4689276450      0.7007210515      0.3616430133      0.0054267712      0.1047081567      0.0326512643
H       5.5172200068     -0.5744385828     -0.4588114122      0.0554923020     -0.2855546572     -0.1817887423      0.0219778388
P      -0.6384248842      3.5763347430      3.5792178560     -0.0121308890     -0.4634956021      0.3588198531      1.7105824696
F       0.3219285731      2.2913439255      3.0308007618      0.0809536643      0.0620342178      0.1323543043     -0.5449564705
F      -1.8026733800      3.2928061282      2.3349477724      0.0859414211      0.0819303281      0.2503544535     -0.5514061237
F       0.4653941727      3.8448604524      4.7940062023     -0.1308135734      0.0071103444     -0.1331839957     -0.5140926669
C      -1.5475402259      2.1383152511      4.5702811735      0.9441284248      0.6567356143     -0.0601599569      0.5251338941
C       0.3822058716      4.6321054902      2.2230300495     -1.0472803430      0.1832518187      0.4256078800      0.5378638415
C      -1.6608040823      5.1638085163      4.2274870072      0.2933247535     -0.9737345534      0.1568126076      0.5385390239
C      -0.8303023088      1.4549712810      5.7635856065     -0.0430525561      0.5947389271     -0.6524393236      1.3935975030
C      -0.1717503875      5.8530767467      1.4274784169     -0.0923489134     -0.5901204221      0.3533829437      1.3984783570
C      -2.5355920835      5.2419975492      5.5108100573      0.5510366065     -0.4502174361     -0.5267696059      1.4133098910
F      -1.7870688033      1.1263352533      3.6880019465     -0.2100641052     -1.0432603970     -0.5265074979     -0.4823215580
F      -2.7562969307      2.5395132190      4.9963357756     -1.1927929327      0.1499898541      0.4561040307     -0.4574739961
F       0.6459005563      3.7564830167      1.2105695097      0.3230524327     -0.6389647642     -1.1049744053     -0.4750300666
F       1.5632669399      5.0004410731      2.7321221945      1.1346150115      0.4849803701      0.4968697942     -0.4354642924
F      -2.4372337423      5.6166490396      3.2227247954     -0.9870049667      0.4489380708     -0.7305062426     -0.4551581098
F      -0.6803456383      6.0740835662      4.4101245758      0.8125399955      0.8912993388      0.5187600075     -0.4463268677
F      -1.5895708155      0.4559951372      6.2294390920     -0.8647550246     -0.9404133094      0.4011432757     -0.4593735758
F      -0.6043766455      2.2953970374      6.7626773698      0.1224933091      0.7019016733      0.8912994781     -0.4428702807
F       0.3296100095      0.9307453688      5.3780143295      1.0213540914     -0.4828581621     -0.3611346206     -0.4472629939
F       0.6932626673      6.1370562122      0.4461906607      0.9574531602      0.3158130748     -0.9114136128     -0.4572165540
F      -1.3329304594      5.5396571928      0.8409291706     -0.8884090658     -0.1611683671     -0.5212908579     -0.4645410302
F      -0.3406209564      6.9550981196      2.1360210263     -0.0076575169      0.9743932841      0.5732577645     -0.4436379627
F      -3.7741992736      4.8178888918      5.2752172661     -1.1910810696     -0.2623445589     -0.2820731708     -0.4516042611
F      -2.6154946225      6.5033514370      5.9318199492     -0.0546731667      1.2595147804      0.2852634368     -0.4490598281
F      -2.0156161394      4.5165734839      6.4978296233      0.5252391929     -0.4016955708      0.8814711721     -0.4528313487
