28
Properties=species:S:1:pos:R:3:forces:R:3:charge:R:1 energy=-159.87364518861617 homo_lumo=3.5109741631692595 dipole="2.350249548737994 0.5629217340091932 -2.2022937038230372" free_energy=-159.87364518861617
N      -1.3240729875      0.4658075267     -0.6502246450      0.0059129831      0.0010595105      0.0002542675     -0.5115219655
N      -0.0102738276      0.6755916166      1.0658064536     -0.0143151102     -0.0030350418      0.0018908450     -0.5488936907
C      -2.2783563925     -0.1291408776     -1.6028247520     -0.0056513460      0.0010523574      0.0067471570     -0.0594851343
C      -0.6863208509     -0.2038254911      0.3165739182     -0.0094967191     -0.0055501150      0.0027433213      0.6310253416
C      -1.0702178742      1.8134039181     -0.4970492531      0.0072172890     -0.0037760870     -0.0107578743      0.2201631588
C      -0.2421794909      1.9437616489      0.5783424817     -0.0008645011      0.0044383759     -0.0039172091      0.2367695890
C      -3.6916609768     -0.1224009623     -1.0498789869     -0.0080152597      0.0008493683     -0.0043931298     -0.1077058758
C       0.7495690504      0.3500828403      2.2706518894      0.0009550485     -0.0022937371      0.0117848381      0.0655296104
H      -2.1878126733      0.4486329149     -2.5352114262      0.0017943156     -0.0043701692      0.0005833792      0.1117387477
H      -1.9256794761     -1.1503118032     -1.8108675083      0.0082213520      0.0006412036      0.0069925831      0.1127644711
H      -0.7590855835     -1.2664790165      0.5041631806      0.0045104410      0.0048326113     -0.0055157193      0.1105783345
H      -1.5145055004      2.5592054121     -1.1440506257      0.0047088644     -0.0157491904     -0.0080486386      0.0497706390
H       0.1736979209      2.8238882668      1.0525199714      0.0079703050     -0.0038353630      0.0032798465      0.0522014706
H      -4.3705628748     -0.5674581873     -1.7925302061      0.0009237784      0.0032168481      0.0151109778      0.0551775625
H      -4.0268112456      0.9021665717     -0.8351691823     -0.0081496313     -0.0067453859      0.0068033143      0.0663015588
H      -3.7629882724     -0.6962361757     -0.1159791049     -0.0140945602      0.0086707439      0.0046799976      0.1423697762
H       0.6287010189     -0.7183053195      2.4774693840     -0.0012392014      0.0083588551     -0.0053419629      0.0821033926
H       1.8076901126      0.5971967175      2.1133920727     -0.0123184609      0.0064010394      0.0030472588      0.0776808751
H       0.3172693210      0.9107329704      3.1099974851     -0.0069364651      0.0001392215      0.0061072750      0.1147350695
N      -4.1544168387      0.0804902738      3.8287353493      0.0246950381      0.0026970664     -0.0072131130     -0.8527307216
S      -5.2169225079     -0.9628992008      3.1789046418      0.0072687646      0.0109267472      0.0036665851      1.9223672454
S      -2.7452217096      0.2735470561      3.1466731062     -0.0005547064      0.0152154382     -0.0214329864      1.9521376500
F      -4.5662532358     -2.4193220438      3.6086096333     -0.0128031354     -0.0044283277     -0.0042119591     -0.4591670792
F      -3.0740154825      1.2319359264      1.7961586248      0.0158614510     -0.0130808876      0.0113855089     -0.4869189215
O      -6.4443376861     -0.8693807090      3.9332393172      0.0035941061      0.0200333654      0.0013065191     -0.7021272003
O      -5.2302488854     -1.0009777156      1.7253946660     -0.0078904565     -0.0034921342     -0.0120213679     -0.7485883243
O      -2.1305443704     -0.9087635946      2.5365381887      0.0038846650     -0.0036936720      0.0145539583     -0.7761813909
O      -1.9118537669      1.1494995299      3.9556252768      0.0048111516     -0.0184826416     -0.0180836722     -0.7500941887
