28
Properties=species:S:1:pos:R:3:forces:R:3:charge:R:1 energy=-158.1961917551536 homo_lumo=1.9616503405302317 dipole="-0.33772426379515 -4.370514269673609 -1.9852077662934806" free_energy=-158.1961917551536
N      -0.5431890502      0.1052062228     -0.3399670765      1.0475218476     -0.7474997384     -0.3927982922     -0.5170976480
N       1.6470713998     -0.1485671026     -0.0573799463     -0.8496740816     -0.6173764165     -0.2824855069     -0.5568402679
C      -1.9425326499     -0.1844536517     -0.6440997503     -0.8906069323     -0.2937736442     -0.0217617637     -0.0696144023
C       0.4932946571     -0.7538885699     -0.3995185965     -0.1712963969     -1.5646429794     -0.3938691627      0.5661209242
C      -0.0261426269      1.2903016447      0.0437092407      0.7923550506      1.4176143307      0.4953695710      0.2327608349
C       1.3332814531      1.1315523827      0.2211860010     -0.6510591760      1.6601517358      0.3329032679      0.2497280785
C      -2.7848606315     -0.1352346157      0.6254785730     -0.0387841425      0.0913018050      0.2734807853     -0.1245800648
C       2.9720703106     -0.7511606866      0.0091724112      0.5730938831     -0.3294544287      0.0058246690      0.0612178800
H      -2.3246676062      0.5572681255     -1.3781991044      0.3910690694     -0.1697343914      0.1333481129      0.1421099875
H      -2.0327468122     -1.1963217624     -1.0963807398      0.3783818197      0.3881177698      0.0293042048      0.1210061559
H       0.4085252298     -1.7966562036     -0.6801529555      0.0039116000      0.0007646965     -0.0082848748      0.0907938658
H      -0.5943652720      2.2008839796      0.1798842122     -0.1693655066      0.1797877253      0.1011966565      0.1157225813
H       2.0391948975      1.8912184438      0.5293949584      0.2274299438      0.0944512805      0.0076367377      0.1102842969
H      -2.4099569746     -0.8814067751      1.3580222469     -0.1501679987      0.2630679730     -0.1675817248      0.0743737763
H      -3.8420093885     -0.3714775059      0.3817359120      0.3426731821      0.0984006580      0.0693007521      0.0764831827
H      -2.7403077081      0.8773380356      1.0794290094     -0.0708980676     -0.3191209744     -0.0413776124      0.1116146922
H       2.9262457371     -1.8251049328     -0.2714719923     -0.1238689876      0.4874226497      0.1006907622      0.0801191650
H       3.6567590119     -0.2258808552     -0.6892414690     -0.3128738732     -0.1253411349      0.2316506836      0.1012576886
H       3.3682446200     -0.6669674493      1.0429164443     -0.2125382941      0.0267373359     -0.3509847059      0.1026435692
N       0.5727165051      4.5109870344      1.3981836166     -0.0753226129     -0.4845912466     -0.3237017882     -0.8921134148
S       2.1453638107      4.8669301695      1.6755000836      0.3576311723      5.0510689972     -1.8274641652      1.8464787924
S      -0.5768297331      4.7990488294      2.5266274474     -0.0448917842     -3.7068790685      2.9546714958      1.8569307361
F       2.7477792951      3.8386953764      2.8516061133     -0.2365151266      0.0092439532     -0.5349912559     -0.4487815670
F      -0.9126390226      6.4388273333      2.5640654246      0.1537341179     -0.8706388910     -0.2806393979     -0.4332950375
O       2.9316226202      4.6928793713      0.4077853005     -1.1867246131     -1.6262128237      1.9097115424     -0.7280987804
O       2.2699248079      6.2844083464      2.1583082119     -0.0179098006     -2.5589335467      0.4385788604     -0.7089215878
O      -0.0882820176      4.3706841907      3.8816952108     -0.4698063006      1.7292303750     -1.6640538648     -0.7144239125
O      -1.8264312807      4.0433353461      2.1757682745      1.4045020086      1.9168379989     -0.7936739860     -0.7458795243
