26
Properties=species:S:1:pos:R:3:forces:R:3:charge:R:1 energy=-152.59957334731246 homo_lumo=4.209659907441286 dipole="-0.31682242005823325 0.7322803618446226 0.2518404037412332" free_energy=-152.59957334731246
N      -0.4591912641      0.1243017705     -0.2423995972     -0.3403429567      0.3185761886     -0.3253750346     -0.5246916956
N       1.6522964015     -0.1389680092      0.2127993373      0.4923929000      0.0871986287      0.1418779602     -0.5460578978
C      -1.7721457218     -0.1858553169     -0.7922721677     -0.0803548108     -0.2491461250      0.5767468806     -0.0229088980
C       0.5312114588     -0.8146058494     -0.1650347762     -0.0902782110     -0.2807086550      0.3695352997      0.5628146955
C       0.1280555964      1.3890614443     -0.2436505054     -0.2533846304      0.0076809467     -0.1161533337      0.1902965020
C       1.4326097593      1.2266802896      0.0338853188      0.2740277426     -0.0606099682      0.1046008774      0.1857297468
C      -2.6480826936     -0.8547847844      0.2630930417      0.1347756199      0.2056853549     -0.3283459551     -0.0610366800
C       2.9663143500     -0.7551011829      0.2772828369     -0.2384579367      0.1508517314      0.1396198759      0.1035415656
H      -2.2293726767      0.7488891869     -1.1276463658     -0.0033556853      0.1798873286     -0.1001155027      0.0857708575
H      -1.6353389562     -0.8459665853     -1.6558600613      0.0624308950     -0.0104116235     -0.2210602443      0.1167881701
H       0.3387817985     -1.8099436442      0.2141458042      0.0297085224     -0.2140650751      0.0203956606      0.1182227971
H      -0.4582278348      2.2770039563     -0.4030689518     -0.1117737673      0.2116747628     -0.0431421088      0.0066474678
H       2.2239130711      1.9428925731      0.1691672078      0.1623488077      0.1760355601      0.0310964805      0.0081822261
H      -2.1987738001     -1.7912374211      0.5924758686      0.0793396671     -0.3072388056      0.1104614514      0.0501706054
H      -3.6303179612     -1.0660677988     -0.1582872201     -0.3372182242     -0.1382201339     -0.0771687285      0.0343324805
H      -2.7661118659     -0.2007230864      1.1270420989     -0.0389396522      0.1750834670      0.2713966074      0.0435191962
H       2.8380988420     -1.8158394770      0.4882539056      0.0133156833     -0.2113326946     -0.0379111461      0.0833132848
H       3.4851901219     -0.6377882254     -0.6776864153      0.1071522101     -0.0477740356     -0.2465001582      0.0418072054
H       3.5482369579     -0.2836181177      1.0701267148      0.1343835728      0.1284746950      0.2108745566      0.0511210288
C       1.4189745228     -3.0304995193     -3.4437292842     -0.0202894447      0.1038690193      0.4601429315     -0.0839668200
C       1.3063337966     -2.5307608025     -2.0016910957     -0.0818829593     -0.2850321939     -1.2566919918      0.9500962421
O       1.7135093622     -3.2053138944     -1.0710206883      0.5627745129     -1.0013441612      1.2863923711     -0.7728447607
O       0.7567671701     -1.3708749392     -1.9108685302     -0.4794880561      1.1114792651     -0.4822302685     -0.7507606318
H       1.7807450978     -4.0557809523     -3.4526144117      0.1183404371     -0.2952407500     -0.0014694178      0.0435584959
H       0.4456452081     -2.9698494662     -3.9268222025     -0.2739999736      0.0468228261     -0.2376368081      0.0413776457
H       2.1144706133     -2.3890471786     -3.9828545041      0.1787757371      0.1978044473     -0.2493402547      0.0449771707
