31
Properties=species:S:1:pos:R:3:forces:R:3:charge:R:1 energy=-176.2501830484835 homo_lumo=3.9199906631547834 dipole="-2.2887719371092095 -1.2029733923632813 0.773318745458502" free_energy=-176.2501830484835
N       2.3038691800     -0.0888615072      0.2760567647      0.2622295785     -0.4675655054      0.0088820984     -0.5413617513
N       1.1819980297      1.6418637883     -0.3324578014     -0.3265421275      0.2746346466     -0.2600908040     -0.5452481780
C       1.8745639286      0.5975407102     -0.7783032583     -0.1465880606     -0.0814214157     -0.1565128543      0.6351150329
C       1.8982959021      0.5418483875      1.4202770661     -0.1968914625      0.0929899900      0.2252125301      0.2280651375
C       1.1942381570      1.6382912753      1.0358471872     -0.0780260155     -0.0415262281      0.2658271708      0.2422195982
C       3.2203440363     -1.2152720063      0.2115164838      0.0204698690     -0.0083653198      0.0803167923      0.0972229219
C       0.7098896633      2.7393099583     -1.1596049497      0.0301319910      0.0453915749      0.0151716279      0.0997413224
H       2.0606350579      0.3524287405     -1.8086052672      0.1016242978      0.0125053165     -0.1078438647      0.1268198640
H       2.1566587142      0.1752450984      2.3978911828      0.0673529033     -0.0779343486      0.2234036258      0.0380564569
H       0.7179048709      2.4110471196      1.6127315662     -0.0702803878      0.1966723103      0.1334236735      0.0369069483
H       3.2380498625     -1.5953580817     -0.8074814033      0.0266558206     -0.0995859376     -0.1750975863      0.0675418021
H       4.2168522291     -0.8617592632      0.4789423396      0.1758951638      0.0379246927     -0.0313482343      0.1081565727
H       2.8970666639     -1.9902921200      0.9050648671     -0.1655708138     -0.1972305352      0.1392722937      0.0616937729
H      -0.2249141620      3.1227773531     -0.7541146653     -0.2678050074      0.0133892307      0.0823382820      0.0599854250
H       1.4730540348      3.5203661482     -1.1495106767      0.1539737572      0.1231997905      0.0042872962      0.1102450726
H       0.5643567736      2.3814669350     -2.1768806879     -0.0790694169     -0.0475688519     -0.1843057708      0.0593813908
N       5.7188931166      2.9184248737     -1.4154134099     -0.2139462233     -0.1158370562      0.0396273782     -0.8238800792
S       4.9443067646      3.2552646551     -0.0531146772     -0.0361993862      0.3187212071     -0.2214359257      1.6300991089
S       5.1322312002      1.7314052245     -2.3036029905      0.2879832771     -0.0215857192     -0.0348772312      1.6311331479
C       5.5945643405      2.0201538757      1.2160520079     -0.2169735874      0.4345147072     -0.6865746784      1.1985449394
C       3.7850747830      2.5123549777     -3.3741604099      0.6573023866     -0.0839025832      0.6273125127      1.1934648449
O       5.4119990373      4.5267096491      0.4182490493      0.5340166438      1.0389535030      0.4792551577     -0.7216379798
O       3.5087283894      3.0191225838     -0.0661777383     -0.6813416530     -0.2159879817      0.0263483623     -0.7909611861
O       4.4234004777      0.6832784682     -1.5787329927     -0.3336885816     -0.4770810560      0.4238379037     -0.7975772081
O       6.1327144835      1.3304348454     -3.2493261052      0.8168908982     -0.2938688531     -0.9212756222     -0.7191487801
F       6.0158951243      2.6536158414      2.2956498789      0.4168233285      0.6809585196      1.1184196604     -0.4300335934
F       6.5870499721      1.3017606285      0.7217544222      1.0972672880     -0.7761547920     -0.4812632220     -0.4360783238
F       4.6188310829      1.1819239403      1.5831293874     -0.8204138105     -0.7840492318      0.4931055043     -0.4690465200
F       2.7305739421      1.6857119874     -3.4476094719     -1.0461980751     -0.8950877227     -0.2909503602     -0.4766368770
F       4.2225988966      2.7325077787     -4.5972065025      0.4525994146      0.2037539341     -1.2402048878     -0.4246296663
F       3.3532534222      3.6562256142     -2.8606780762     -0.4216820090      1.2111437147      0.4057391718     -0.4481532160
