46
Properties=species:S:1:pos:R:3:forces:R:3:charge:R:1 energy=-246.4935107815727 homo_lumo=4.958159058474262 dipole="-2.928093107743227 1.9367006835932639 -0.4305613271446174" free_energy=-246.4935107815727
N       1.7331363582     -0.8203528901      0.2479343556      0.0608816255      0.4050083172     -0.1846647822     -0.5612404199
C       0.4712130824     -0.7000044018      1.0420411531     -0.3291641860     -0.2627888435      0.2987957375      0.0258790161
C       1.6129388740     -2.1661058940     -0.4041706146     -0.0978572465     -0.5671978810     -0.0370269846     -0.0098441816
C       0.2419539939     -2.0969609787      1.6146267648     -0.0136805468      0.1807707971     -0.0336595054     -0.1500757779
C       0.9302032698     -3.0562704146      0.6307612077      0.0623967603      0.0156175981     -0.0510942861     -0.1647783951
C       2.9119686858     -0.7540747166      1.1549597297      0.1282649140      0.0195881768      0.1517483432      0.0254466553
C       1.8551318885      0.2514316305     -0.7691812732      0.0197913809      0.0818627314     -0.0538333331      0.0863413110
H      -0.3293984348     -0.4163487573      0.3545146775     -0.1297580291      0.0697429125     -0.2260542580      0.1183783075
H       0.5899714918      0.0741169821      1.8005432741      0.0381518571      0.2548937020      0.1149065690      0.1095634679
H       2.5999825531     -2.5183675098     -0.6967523863      0.1536580738     -0.0442619404     -0.0329585711      0.2248099541
H       0.9908552696     -2.0422071239     -1.2937049735     -0.1744760755      0.1762040722     -0.1778818203      0.1003122068
H      -0.8268880855     -2.2984890621      1.6990650406     -0.2589581386      0.0001486808      0.1171279966      0.0926098939
H       0.6854256174     -2.1832671239      2.6083188422      0.0340833864     -0.0310650309      0.2435782535      0.1040833058
H       1.6632921271     -3.6776258644      1.1460070072      0.1113027021     -0.1309515896      0.0144421559      0.1730225626
H       0.2092381253     -3.7122237665      0.1405477045     -0.1284007948     -0.1835742598     -0.1345332269      0.0796913728
H       2.9161168324      0.2144489588      1.6517499953     -0.1012601702      0.3207412935      0.1122220221      0.0455326331
H       2.8465873103     -1.5506758019      1.8884020613      0.0562113201     -0.1720194284      0.0944131620      0.1745731791
H       3.8175958127     -0.8760897467      0.5683636572      0.1787196970     -0.1040047027     -0.0115894877      0.1706888677
H       0.9925532021      0.2208579424     -1.4321263231     -0.2495395880     -0.0318583667     -0.1525305657      0.0619096218
H       1.9025931614      1.2141285923     -0.2633950864      0.0220409796      0.2660848369      0.1465415230      0.0801613534
H       2.7683289660      0.0823027649     -1.3365148935      0.1984166533      0.0036388512     -0.1400214854      0.1269855330
P       5.6006266796     -3.6245869656      0.8911461253     -0.8334733527      0.0779673024     -0.0269883385      1.6751835608
F       3.8869240357     -3.4120829495      0.7704548999      0.2761405486     -0.0985572764     -0.0518192564     -0.5736006043
F       5.7124449970     -1.9288567369      0.9893289220      0.2418483627     -0.1888444169      0.0772249630     -0.5402325735
F       5.4272498692     -5.2842194077      0.7654830368      0.0486196303      0.1590424965     -0.0595454561     -0.5211304700
C       5.2663440055     -3.7539328506      2.8245029006     -0.2306355913     -0.2463926860     -1.0429143073      0.5386242362
C       5.5651432012     -3.5252230946     -1.0789866689      0.2626304605      0.6569190826      0.8862785680      0.5543796727
C       7.5671164702     -3.7110206146      1.0570884445     -0.8759128743     -0.5891955591     -0.1977835539      0.5853588582
C       3.8670353794     -4.2438639369      3.2976775919      0.4497460063      0.2240595458     -0.6141138179      1.4000778474
C       5.5850731523     -2.1441022239     -1.7873960758     -0.0110398029     -0.4990989983      0.6377483662      1.3912355563
C       8.3396400891     -5.0597193400      1.0269277654     -0.8065330707      0.4465179773     -0.0225798389      1.3960438896
F       5.4480201788     -2.5680628725      3.4356705498      0.0875896283      1.2139517970      0.7259337290     -0.4482780137
F       6.1528450798     -4.6171634140      3.3477947984      0.6141997775     -0.9669586148      0.6802726962     -0.4475323289
F       4.4257695130     -4.1051179979     -1.5189975004     -1.0781866530     -0.6149875107     -0.5888325656     -0.4544577944
F       6.5813261659     -4.2366471903     -1.5887498787      0.8880337914     -0.5787608928     -0.7412712586     -0.4447393520
F       7.9039849444     -3.0940909618      2.2039059397      0.4972687190      0.5655522143      1.1276638685     -0.4479764740
F       8.0692972621     -2.9652971277      0.0510056316      0.7579903233      0.6340305433     -0.8330068827     -0.4527782103
F       3.9060345373     -4.6020854016      4.5782486341      0.1752644305     -0.2790777753      1.2462736610     -0.4476098756
F       3.4037678581     -5.2709229322      2.5991306229     -0.3185010287     -0.9888458400     -0.5005575801     -0.4492741692
F       2.9600849675     -3.2482649048      3.2008214650     -0.7484180778      0.8170814602      0.1955571886     -0.4927493302
F       5.5724021448     -2.2974188204     -3.1099840535      0.0144180086     -0.2853968643     -1.2569802769     -0.4494420602
F       4.4585592871     -1.4558574879     -1.4718012739     -0.8228918362      0.5308787867      0.1124169207     -0.5015228491
F       6.6151238814     -1.3825436162     -1.4698651602      0.9475421654      0.5801913646      0.1841524096     -0.4369842398
F       9.6480903966     -4.8338443050      1.1578935880      1.2481088512      0.3887459070      0.1444264858     -0.4527387990
F       8.1485252118     -5.6977242853     -0.1230782247     -0.1087506279     -0.5449710425     -1.0232229864     -0.4474245342
F       7.9626074217     -5.8639173688      2.0146062763     -0.2558823630     -0.6804309269      0.8837398068     -0.4464824103
