46
Properties=species:S:1:pos:R:3:forces:R:3:charge:R:1 energy=-243.24378070460534 homo_lumo=2.7511108141617298 dipole="6.411678464357531 -5.04830817657384 -0.6173514821415546" free_energy=-243.24378070460534
N       0.5811124290      0.0005875501      0.0003717262      0.8627035494     -0.0201646321     -0.0012550649     -0.5785934038
C      -0.3079297388      1.0714205590     -0.5279561597     -1.2096784041      1.9236838265     -1.1737352677      0.0089666960
C      -0.3130272784     -1.0675939264      0.5252981086     -1.1815224346     -1.9135645756      1.1499290157      0.0076182663
C      -1.7269896025      0.7514849834     -0.0940236857     -0.4348370295      0.5739781025      0.5242371961     -0.1796564441
C      -1.7293986629     -0.7444452848      0.0842988113     -0.3969558108     -0.5432206957     -0.5009341152     -0.1561353218
C       1.4419751815      0.5315755904      1.0837235452      0.8670686369      0.5579600709      1.1403345410      0.0119966747
C       1.4445170742     -0.5331046754     -1.0796377532      0.8612101565     -0.5634779974     -1.1085491480      0.0150614517
H      -0.2941206612      1.1137557098     -1.6424002542      0.4377384923     -0.3335121098      0.4594679371      0.1493609010
H      -0.0239537134      2.0893606548     -0.1732698199      0.2756617613     -0.5929471588     -0.0767642091      0.1576263763
H      -0.3047569177     -1.1087428543      1.6398907899      0.4293796628      0.3468675928     -0.4630242566      0.1516836067
H      -0.0293924311     -2.0865997214      0.1733801177      0.3197738605      0.6014340000      0.0779086618      0.1415881703
H      -2.4759197286      1.0745627491     -0.8500442521      0.2573595639      0.1302206617      0.4568182258      0.1485439022
H      -1.9416724454      1.2450926180      0.8794736173     -0.1297360170     -0.0199040626     -0.3982204316      0.1374506406
H      -2.4822313866     -1.0647971962      0.8375245428      0.2688036373     -0.0543515383     -0.3957564364      0.1255655423
H      -1.9424849019     -1.2387851989     -0.8894584504     -0.0685577812      0.0387425777      0.3336779857      0.1063944385
H       2.1229562024      1.3237085922      0.6989002961     -0.3708060781     -0.3624735733     -0.0572260757      0.1236428366
H       0.8266954529      0.9767720747      1.8980812429      0.0542103906     -0.2516137668     -0.4869860811      0.1278202420
H       2.0666206734     -0.2769866531      1.5255558848     -0.3645519832      0.1832396876     -0.3143315085      0.1208230375
H       0.8310409105     -0.9768224846     -1.8961571821      0.0557542472      0.2731626359      0.4794957107      0.1203687151
H       2.0731089926      0.2735423829     -1.5193103737     -0.3743248689     -0.1839983843      0.3118263410      0.1256121661
H       2.1218494872     -1.3270868775     -0.6921232177     -0.3564010670      0.3681334559      0.0605678034      0.1184616886
P      -6.3887948809      5.2890010824      0.6298653997     -2.7084692630      0.7216143982      0.9125450825      1.6443089762
F      -8.0349133620      4.9755458551      1.0243513523     -1.1404803416     -0.0676604366     -1.1518815844     -0.5237131251
F      -6.1082338487      5.1857202823     -1.0677761841      0.3021354876     -0.7789667877      0.4407078723     -0.5197486030
F      -6.4715957438      5.7226442474      2.2933759068      0.6452618829     -0.3438122826     -0.0148746636     -0.5162863008
C      -7.2314280796      6.9074507119     -0.0270946982      0.3848229655      0.3202724050      0.3056851911      0.5383673299
C      -6.5945407646      3.3639995642      0.6015500504      0.6746932999     -0.2147966962      0.3184772820      0.5726874666
C      -4.5207709174      5.5167453550      1.0700248677     -0.0210440687     -0.1814820930     -0.7009604940      0.5287799315
C      -8.0460387382      7.7575925097      0.9854563108     -0.6420637279      0.1287649836      0.5230954301      1.3337996703
C      -5.3821284797      2.5308572143      0.1340094647     -0.2505616821     -0.4180840224     -0.3396721498      1.3105462766
C      -4.0111492021      6.9609945607      1.2486121313      0.1033172748      0.9203153854      0.2347446452      1.3633677388
F      -8.1130506250      6.5753573543     -1.0486769287      0.2072601640      0.3155262900      0.5019213757     -0.4379016622
F      -6.2723796753      7.7318222278     -0.5814841527     -0.3703702753      0.4189697016     -0.0426794407     -0.4559266752
F      -7.6370366517      3.0220485972     -0.2548473676      0.8761645871     -0.0557101579      0.2847478240     -0.4333746202
F      -6.9201967826      2.9273574981      1.8783212711      0.3026248829     -0.2906502279     -0.4907376549     -0.4391520052
F      -3.7567578522      4.9700572336      0.0539875355      0.6465379411      0.1304982217      0.1174794334     -0.4617100903
F      -4.2243873222      4.8158928901      2.2310895379      0.1710254025      0.3868386138     -0.3922695064     -0.4451471102
F      -8.4154578029      8.9419128859      0.3718973372      0.0946444411     -0.4327532001      0.3856501608     -0.4560130336
F      -7.3182760405      8.0786942763      2.1112011239     -0.9675695636      0.0729384634     -0.9513621069     -0.4432849509
F      -9.2065825916      7.1108242066      1.3712743542      0.9280902200      0.9974271242     -0.1929615810     -0.4369748967
F      -5.7646768427      1.2036497972      0.0456843963      0.5537454238      0.2306385159     -0.0753995372     -0.4628930917
F      -4.9475163772      2.9275848881     -1.1168557378     -0.0204825768     -0.8591445643      1.1113448303     -0.4449654645
F      -4.3398705159      2.5966958766      1.0357758906     -0.4969990578     -0.4282042834     -0.8166076755     -0.4663071206
F      -3.8695739079      7.5846133640      0.0229504114      0.1203418190     -0.4311255935      1.1965847986     -0.4404090948
F      -2.7613265375      6.9244869199      1.8419633138     -0.4186616534      0.1756502662     -0.2814870423     -0.4589945046
F      -4.8384666184      7.7085233426      2.0567927115      1.2237439337     -0.4752581403     -0.8995713130     -0.4332552226
