47
Properties=species:S:1:pos:R:3:forces:R:3:charge:R:1 energy=-257.2953716169591 homo_lumo=4.0737136433261325 dipole="-0.8687447916166822 -2.1721056512709347 -2.09985692827376" free_energy=-257.2953716169591
N      -1.6124622834      0.4598090019     -0.5259280656      0.0069015321      0.0067527432      0.0076641827     -0.4850500894
C      -2.0606252371     -0.9835333068     -0.4977872979     -0.0037878011     -0.0010517993     -0.0125309784      0.0099525250
C      -2.6051916891      1.1272669091      0.4142944934     -0.0019837314      0.0070998981     -0.0007746206     -0.0268921539
C      -0.2164812273      0.6218388578      0.0587703772      0.0098919978     -0.0003098157     -0.0106911832     -0.0938056281
C      -2.3995127252     -1.2601111532      0.9641815168      0.0020536982      0.0042602365      0.0163215409     -0.1584464809
C      -2.7997371499      0.1216031149      1.5512565165     -0.0096458354      0.0053074952      0.0029629687     -0.1586294728
C      -1.7031923649      1.0121597627     -1.9277838752     -0.0086185765      0.0005860841     -0.0017667137     -0.0570147047
C       0.8949711377     -0.0138902031     -0.7507763653     -0.0005943813      0.0044951467     -0.0078408497     -0.2181167685
C      -1.2836253970      2.4625780830     -2.0497177601      0.0047050375      0.0002610915     -0.0051074495     -0.0983434064
C       2.2235920578      0.1654461627     -0.0119474624     -0.0022031704      0.0000625970      0.0122206719     -0.1775854465
C       3.4050068326     -0.4309952564     -0.7696043091     -0.0031093353     -0.0022053948     -0.0056564100     -0.1629286765
C       4.7271195924     -0.2463288985     -0.0274067087     -0.0018111013     -0.0028697237     -0.0100711589     -0.2051349021
C       5.9208263221     -0.8222582770     -0.7837059403     -0.0000831280      0.0023687560      0.0115915754     -0.0654703389
H      -1.2773086702     -1.6200445906     -0.9284491702     -0.0206426208      0.0087630105      0.0113546537      0.1260758143
H      -2.9561591027     -1.0360265200     -1.1370637519      0.0050564862     -0.0010730363      0.0156838163      0.1189432306
H      -3.5253383942      1.2737490852     -0.1733231577      0.0049395068      0.0038404154      0.0079517114      0.1005439538
H      -2.1864336885      2.0935944823      0.7335775564     -0.0103548337      0.0054971588      0.0077861949      0.2117197431
H      -0.2585000180      0.2111727346      1.0762097254     -0.0031884078      0.0025772532      0.0045442663      0.2027075813
H      -0.0749100023      1.7059942944      0.1914945378      0.0051632093      0.0009223127     -0.0009641663      0.2511393428
H      -1.5320774181     -1.6790231325      1.4954212147     -0.0076422213      0.0160198559      0.0030263379      0.0935770156
H      -3.2086630615     -2.0022080987      1.0303595083     -0.0030544980      0.0174000328     -0.0001413606      0.0950193222
H      -3.8455580545      0.1367165351      1.8900580479      0.0071310779      0.0064007201     -0.0034325496      0.0921334219
H      -2.1652190655      0.4029574214      2.4045143663      0.0119115723      0.0004497676      0.0006283406      0.1436630434
H      -1.0865087312      0.3570894021     -2.5619482524     -0.0083468576     -0.0021633110      0.0011226599      0.1354758130
H      -2.7545945711      0.8759665111     -2.2262071191     -0.0104895446      0.0078428574      0.0000644971      0.1177566773
H       0.7209408714     -1.0924570489     -0.9124428964     -0.0067771456     -0.0102391741     -0.0064349826      0.0857690900
H       0.9791610266      0.4562766778     -1.7459905768     -0.0085033890     -0.0024206902     -0.0102293912      0.0962020691
H      -1.4923600687      2.7943030826     -3.0782195158     -0.0010470648     -0.0076307909      0.0113848665      0.0648624350
H      -1.8307742232      3.1139842272     -1.3557174348     -0.0102074277      0.0128954672      0.0146265601      0.0935192887
H      -0.2123541887      2.6045473921     -1.8570182207      0.0054161186     -0.0026054446      0.0050315859      0.0756581174
H       2.1498338917     -0.2978090106      0.9888209587      0.0011224907      0.0022972970     -0.0068393525      0.0953359978
H       2.3962781536      1.2398322127      0.1647499987      0.0004955979     -0.0037696844      0.0019828418      0.1453334543
H       3.4773204574      0.0407600628     -1.7683782809      0.0017234618     -0.0025152290     -0.0013475905      0.0792305596
H       3.2292038134     -1.5098079421     -0.9455775181      0.0022752544     -0.0000848760     -0.0034506525      0.0741632635
H       4.8849279139      0.8309453135      0.1588135782      0.0061133382     -0.0004087259      0.0040010924      0.0961398130
H       4.6493264618     -0.7221628818      0.9667424081      0.0043395202     -0.0040208438      0.0065916033      0.0886623651
H       6.0394078492     -0.3336111251     -1.7643457001     -0.0030982904     -0.0029926089     -0.0063669671      0.0318777118
H       6.8567332224     -0.6806629810     -0.2214166921     -0.0064502965     -0.0062085185     -0.0116631629      0.0407470852
H       5.7936220310     -1.9026081708     -0.9602810193     -0.0058688317     -0.0052588887     -0.0060177188      0.0299465831
S      -0.3116075128      3.4179600642      2.4922259297     -0.0068764391     -0.0196292286     -0.0150475182      1.7330890630
O      -0.9687392113      4.3893347614      3.3649574709      0.0075676764     -0.0243488681     -0.0090657070     -0.7527474138
O      -0.5777225732      3.5824995243      1.0334974316      0.0217708735     -0.0055821206      0.0101005398     -0.8284924223
O      -0.3402724934      2.0036674257      2.9273130771      0.0205017112      0.0022027975     -0.0153133338     -0.8111273293
C       1.5092798141      3.8689058118      2.6197718860      0.0132902107      0.0025989598      0.0027532990      1.1243565565
F       1.9665570404      3.7188498241      3.8888496639     -0.0030821898      0.0019160954     -0.0069328631     -0.4418070566
F       1.7303582413      5.1551278293      2.2438396190     -0.0030466598     -0.0132211569     -0.0054146378     -0.4426141754
F       2.2774643373      3.0695075391      1.8106918450      0.0081434073     -0.0022081194      0.0037055120     -0.4693944715
