34
Properties=species:S:1:pos:R:3:forces:R:3:charge:R:1 energy=-186.6677092469111 homo_lumo=0.14648329089315512 dipole="1.8583142906575658 -0.17643008903258 -4.346126853505872" free_energy=-186.6677092469111
N       0.0201105427      0.0027778371     -0.0054538570     -0.1422468058     -0.0897262158     -0.1162165199     -0.5264808627
C       0.9473943742     -0.8392786268     -0.8214647195      1.0092913364     -1.6052367682     -1.3701604540      0.0002464499
C       0.9121860228      0.8491622768      0.8453142037      0.9818085413      1.6917378224      1.4986422000     -0.0134900111
C       2.3549149537     -0.3014600369     -0.6490872445      0.4731490741      0.2661955371     -0.6695158910     -0.1398753641
C       2.3305760725      0.3274183043      0.7149584452      0.3887951966     -0.2793344724      0.6387688888     -0.1409233500
C      -0.8301555564     -0.8643257764      0.8721385588     -1.3792538897     -1.1442131429      0.8649397848     -0.1223106696
C      -0.8011108320      0.8666758103     -0.9139964138     -1.1888208222      1.1336012926     -0.8005176538     -0.0825144211
C      -1.8151908954     -1.7722265034      0.1135437462      0.2202751636      0.2428613843     -0.2224602632     -0.1183170316
C      -1.8227151404      1.7638245772     -0.1904821176      0.0988573343     -0.2456965890      0.1404252921     -0.1249731456
H       0.6826156419     -0.8637534461     -1.9030435063     -0.3102329793      0.1265242979      0.5580719453      0.1306433527
H       0.9640472015     -1.8995990303     -0.4784834147     -0.5081613188      0.5372850044      0.1585568214      0.1507497596
H       0.6129644810      0.8635323257      1.9182643392     -0.4467521994     -0.1504106569     -0.4826930196      0.1774710517
H       0.9281947508      1.9121386983      0.5107969784     -0.4926079574     -0.5298630844     -0.1729617258      0.1417617470
H       2.5606331164      0.4736164999     -1.4201345589      0.0705086273     -0.2720926998      0.1502546766      0.0954472255
H       3.1193605119     -1.1064054429     -0.7144805140     -0.2933205808      0.2967770437     -0.2252872319      0.0967126371
H       2.5220797175     -0.4454995812      1.4918320379      0.0499079758      0.2949200749     -0.1441666825      0.1103210450
H       3.0836501785      1.1408592168      0.8031638523     -0.3118365871     -0.3180898933      0.2140738491      0.0988646229
H      -0.1819649448     -1.5138645377      1.5043951782      0.1280684254      0.5484502342     -0.3256408039      0.1618270336
H      -1.4170694197     -0.2453041228      1.5838394006      0.3594375737      0.1872534752      0.0463435807      0.2303886072
H      -0.1324638806      1.5249856303     -1.5150462417      0.1854914138     -0.4684740650      0.3965239363      0.1400236207
H      -1.3526866879      0.2474449239     -1.6554802456      0.3800315054     -0.1518746487      0.4342683767      0.1545807120
H      -2.2739520732     -2.4872707930      0.8284766577      0.2129131316      0.3129629063     -0.1227413631      0.1050465749
H      -2.6372877753     -1.1800891942     -0.3367332376      0.1912015044     -0.2171994666      0.0703452831      0.0658909113
H      -1.3092202292     -2.3565629448     -0.6811944326     -0.1966223689      0.0685486486      0.1572626807      0.0465240820
H      -2.2504625373      2.4869683619     -0.9162916071      0.2090771432     -0.2439344283      0.1352201946      0.0752526691
H      -2.6627688389      1.1643971964      0.2149998144      0.2746418761      0.2449347870      0.0363502416      0.0942114871
H      -1.3556506597      2.3388802207      0.6344924500     -0.2260993959     -0.1698874809     -0.1622538018      0.0933175636
C      -2.3137695668      2.3431364048      5.0628265301     -0.1822759940      1.3308585379      0.1491243353     -0.1843833822
C      -2.1797971372      0.8559329726      5.1517824310     -0.1783620205      0.2299259215      1.1107981423      0.8626761525
O      -1.9577326738      0.2031623202      4.1456198464      1.1299450869     -1.3685953593     -5.4846409745     -0.8475859441
O      -2.2915702905      0.2906301083      6.2278507227     -0.5722688050     -0.3100467475      3.8302017210     -0.7670444328
H      -1.3739805742      2.7786904187      4.6634009563     -0.2591523017      0.0306177936     -0.0234319037     -0.0004569766
H      -3.1535587694      2.6024879915      4.3844571867      0.2643399528      0.0665592768      0.0600035048      0.0112592468
H      -2.5141871620      2.7789531753      6.0650083565      0.0602731637     -0.0453383194     -0.3274871665      0.0251390390
