37
Properties=species:S:1:pos:R:3:forces:R:3:charge:R:1 energy=-216.40303150903367 homo_lumo=0.7363975961944967 dipole="1.3970685216836507 -1.9927669900045404 0.8052231908720071" free_energy=-216.40303150903367
N       2.5544460057      0.0695576321     -0.4899769969     -0.0063975764     -0.1785374993     -0.1409505611     -0.5097195056
C      -1.2479652720      0.2745237897     -0.7136391051      0.1532434612      0.0583098474      0.6747773211     -0.1765688769
C       0.1199631512      0.1697305313     -0.0322872578     -0.0648902032     -0.1202910653     -0.5312527706     -0.1908604938
C      -2.3592328912      0.4420702642      0.3256527952     -0.1034241628     -0.0956713080     -0.8064774544     -0.1575054350
C       1.2132301677      0.0373891155     -1.0952096202     -0.5280065026      0.1351214210      0.3802321193     -0.0329506251
C      -3.7261895109      0.5802318958     -0.3514739857      0.0694968317      0.0224820366      0.7118550807     -0.1966656384
C      -4.8418727743      0.7552567913      0.6774686006      0.1906214745     -0.0583907353     -0.4207276041     -0.0423521837
C       3.3472602515     -1.0096271325     -0.5817613947      0.3463283644     -0.2736959409      0.0312592831      0.2878309914
C       2.9753338245      1.1850121134      0.1268224806      0.1908305780      0.2310810312      0.2761659819      0.2656810484
C       4.6204327861     -0.9954369136     -0.0534427613      0.0431053083     -0.0029750791      0.0181477252     -0.0290796039
C       4.2448874669      1.2484213106      0.6661796502      0.0979890918     -0.1769923623      0.0040170229     -0.0093886972
C       5.0877275729      0.1515486255      0.5771625835     -0.1597200215     -0.0009849689     -0.0532613600      0.0397768763
H      -1.4315298694     -0.6231017279     -1.3146411492     -0.1048992846     -0.2765283002     -0.1796837989      0.0527336069
H      -1.2414414520      1.1404165444     -1.3832533246      0.0697436785      0.2338250050     -0.1501908720      0.1623925277
H       0.2928862993      1.0734041192      0.5571357986      0.0124675217      0.2980290881      0.0601496209      0.1468934270
H       0.1569305992     -0.6957076695      0.6379523730      0.0131992134     -0.2987478584      0.1901821171      0.0687927963
H      -2.3680550473     -0.4218640904      1.0005683308     -0.0379934963     -0.2140709827      0.2348972712      0.0643054717
H      -2.1586153680      1.3348579923      0.9268630733      0.0728766986      0.2495387621      0.1707980775      0.0942037492
H       1.1534395081      0.8625832930     -1.8101016755     -0.0534840339      0.1581762515     -0.1693644714      0.2182131598
H       1.1127690077     -0.9053196783     -1.6384324184      0.0776470264     -0.1949911897     -0.1096877551      0.0877959522
H      -3.7114930435      1.4447911157     -1.0226636787      0.0510319453      0.1820640440     -0.2232620492      0.0929713513
H      -3.9255583334     -0.3107386584     -0.9570932730     -0.0260283157     -0.2070453145     -0.2171715331      0.0726926425
H      -4.6714480235      1.6508071683      1.2765684127      0.0109547626      0.2707139095      0.2152366144      0.0288039487
H      -5.8037849333      0.8526570331      0.1734525879     -0.3779099003      0.0462749396     -0.0451151485      0.0265389510
H      -4.8855823541     -0.1060440862      1.3461847907     -0.0545981547     -0.2408207765      0.2347571217      0.0197861954
H       2.9459993712     -1.8760137399     -1.0937501147     -0.1347222939     -0.0815712868     -0.0863208268      0.0881235427
H       2.2848317499      2.0305895423      0.1668764253     -0.3989178426      0.2732568096     -0.0615682354      0.2066551226
H       5.2423407792     -1.8768049131     -0.1456750313      0.1177535586     -0.2253537101     -0.0325032892      0.0523286336
H       4.5651754043      2.1665945710      1.1416924327      0.0107476900      0.2552472654      0.0951775243      0.0537786152
H       6.0902307291      0.1850578230      0.9859086811      0.2556657231      0.0083901001      0.1057928213      0.0512517288
C       0.8708377276      3.1752644558     -1.4550408806      1.8171438157      0.6193927387     -0.7035576621      0.8791682960
O       0.8552269052      3.1902818948     -0.2233653254     -0.1211573914      0.0400138775      1.8878833398     -0.7943166066
O       0.0608086186      2.8258202549     -2.2964616952     -1.2099860205     -0.3901705127     -1.3752861832     -0.7716770929
C       2.3516670117      3.5218114333     -2.0557317455     -1.2119572477     -0.3687128604      0.6394750319      1.2592079647
F       2.9049585156      2.3364362685     -2.4681827718      0.4697568551     -0.8580241889     -0.5130859999     -0.4856289608
F       3.1965808989      3.9846310820     -1.1104472834      0.6843351069      0.5254627515      0.6645705410     -0.4712209259
F       2.4141509192      4.3566677160     -3.0928677230     -0.1608462576      0.6561960612     -0.7759070403     -0.4519919535
