37
Properties=species:S:1:pos:R:3:forces:R:3:charge:R:1 energy=-216.36065293033434 homo_lumo=3.2957027710647524 dipole="-0.7602089700985817 0.06287432720170827 0.6458890264979867" free_energy=-216.36065293033434
N       2.2596165269     -0.0230322161     -0.6899908713      0.1020309664      0.0128258790     -0.0109799227     -0.5416492452
C      -1.5474415079      0.1678936875     -0.6971600138      0.2275012474     -0.2699846853      0.7867423239     -0.1641254327
C      -0.1374810429     -0.0739943955     -0.1518819905     -0.1936606054      0.2693923284     -0.7883441982     -0.1674798056
C      -2.6103610663     -0.0969851860      0.3735682457     -0.1887468374      0.2593516726     -0.8498755015     -0.1537919994
C       0.9204023915      0.2128262664     -1.2242439025     -0.0851522014     -0.2453039340      0.7853485741      0.0160342794
C      -4.0215731255      0.1392296432     -0.1738527566      0.1094773741     -0.2059436754      0.7029260684     -0.1966118826
C      -5.0840688138     -0.1238964556      0.8919738446      0.1634002448      0.1170579039     -0.4311375569     -0.0443284018
C       2.8092175050     -1.3178352060     -0.8674366159      0.5230670843      0.6919323628      0.6506493766      0.2572310652
C       2.9947106861      1.0121526669     -0.1844914766     -0.1854714823     -0.2312983719      0.0042798901      0.2566451634
C       4.0513139376     -1.5412905883     -0.0898210781     -0.6138864135     -0.2557733058     -0.2871671010     -0.0701021548
C       4.2001898857      0.8142685509      0.3946915287      0.3770556672     -0.2067840639      0.1687220238     -0.0646483795
C       4.7185059424     -0.5156906597      0.4684407640     -0.1487481591      0.5903987752      0.0752014080      0.0312021306
H      -1.7221293568     -0.4886811623     -1.5564367869     -0.0789524817     -0.1358182268     -0.2640532591      0.0835474945
H      -1.6297208734      1.2030241797     -1.0461685323     -0.0562561853      0.2690300242     -0.1332676419      0.0821877260
H       0.0453265182      0.5728610844      0.7119465616      0.0895029503      0.1389097646      0.2501470478      0.0984257097
H      -0.0424951759     -1.1123853834      0.1814201407      0.0394871996     -0.2631330249      0.1316018522      0.0976108500
H      -2.5228038421     -1.1308392866      0.7250893390      0.0272501148     -0.2658923061      0.1443583141      0.0825932443
H      -2.4354364573      0.5624120948      1.2306885466      0.0468158087      0.1440952055      0.2701704568      0.0824783494
H       0.8530978755      1.2540242468     -1.5526475065      0.0124231363      0.1945013623     -0.1426915046      0.0947134884
H       0.7710063966     -0.4363255748     -2.0927616844     -0.0059754429     -0.0402968973     -0.2229507582      0.1093272762
H      -4.1069870040      1.1730059115     -0.5255772585     -0.0012462606      0.2491653746     -0.1558922698      0.0806202450
H      -4.1944615942     -0.5205653813     -1.0308419991     -0.0170694021     -0.1196807419     -0.2683664137      0.0804734086
H      -4.9408620057      0.5389608848      1.7465214433      0.0034749955      0.1803622781      0.2939642807      0.0273962231
H      -6.0782698409      0.0503901989      0.4800091811     -0.3746033203      0.0239607767     -0.0069642954      0.0306378152
H      -5.0284288315     -1.1560861378      1.2407033850     -0.0189241847     -0.3069915270      0.1473143869      0.0276325782
H       2.0514386581     -2.0968589246     -0.7138818324     -0.0324401733     -0.0452469759     -0.1923668415      0.1473294509
H       2.5226336970      1.9866114950     -0.2370917896     -0.0950625819      0.1690589465     -0.0576516155      0.0535050087
H       4.4071743164     -2.5625945010     -0.0457803563      0.0911053536     -0.2574412223      0.0764638969      0.0388273652
H       4.7557891471      1.6432080008      0.8091452327      0.0838136831      0.2398294550      0.0671051424      0.0120718820
H       5.6411725915     -0.6902274091      1.0101735561      0.2492197860     -0.0827930010      0.0996303827      0.0260862717
C       3.8700750423     -0.7399651700     -3.0286981251      0.0938577276     -0.4212160646     -0.9976587077      0.9285724338
O       4.4523085633      0.2306956591     -2.6486568001      0.8055116234      1.2569751292      0.2998352389     -0.6685697870
O       3.0833756739     -1.5410380944     -2.3696360073     -0.9194506740     -1.4484759520     -0.2807101516     -0.6898539118
C       3.9592596033     -1.1994841332     -4.5341151625      0.0012396683      0.2007633584      1.1796068735      1.3592112359
F       3.6251904517     -2.4790368839     -4.6928700253     -0.2857048705     -1.2136441748     -0.1571320130     -0.4486550149
F       5.1910852944     -1.0311797530     -5.0085208596      1.0539672149      0.2268111027     -0.2705815008     -0.4442521307
F       3.1246253090     -0.4629221329     -5.2761805037     -0.7988505699      0.7812964512     -0.6162762844     -0.4502925492
