40
Properties=species:S:1:pos:R:3:forces:R:3:charge:R:1 energy=-225.82962353483393 homo_lumo=4.091071284534631 dipole="-2.251816868189216 1.2862560090259099 0.49712277629241414" free_energy=-225.82962353483393
N       2.3421388998     -0.4612018160      0.8911092874     -0.0687975213     -0.4099721921     -0.2037880750     -0.5084119689
N       3.4606064427      1.3643234315      1.0908919844      0.1729215406      0.5516080371     -0.0335762413     -0.5336457185
C       0.2481697859     -1.6902802719      0.4871248119      0.3596265114      0.5687617971     -0.4289603409     -0.1602332862
C      -0.4225113959     -0.5212191426     -0.2412664191     -0.3481035682     -0.5953200420      0.5024678394     -0.1774442086
C       1.7654195065     -1.6700477466      0.3125881010     -0.6309954934     -0.1405082772      0.1499193674     -0.0137544142
C      -1.9435666846     -0.5560208934     -0.0653978828      0.4701034563      0.6595240559     -0.4657195206     -0.1525698246
C      -2.6125108464      0.6161333273     -0.7903030031     -0.3942148323     -0.5050599878      0.3845925812     -0.1975649096
C       3.0003308990      0.4752521694      0.2150560604     -0.1318325035      0.0789003249     -0.1697790920      0.6143886769
C       2.3969593732     -0.1745850231      2.2281594595     -0.1239241342      0.0893303149      0.2220263602      0.2180373369
C      -4.1298534333      0.5854950393     -0.6160607277      0.4334203664      0.1821884975     -0.1487070723     -0.0447466339
C       3.1061683869      0.9767567597      2.3543275617     -0.1700073894      0.0352378114      0.2260999312      0.2458710385
C       4.4067127326      2.4213631711      0.7785652352      0.0342201920      0.0015682254      0.0732951761      0.1067273803
H      -0.0006022804     -1.6567220410      1.5522450394     -0.1269558730     -0.0523626489      0.2970583530      0.0937150949
H      -0.1215477597     -2.6375717101      0.0850178644     -0.0918563850     -0.2925569799     -0.0417029902      0.0969916461
H      -0.1745637983     -0.5677591366     -1.3070834194      0.0852348001      0.0184781115     -0.3052247956      0.0844348227
H      -0.0305137525      0.4239571525      0.1509460610      0.0739537730      0.2804777488      0.0650989056      0.1111335036
H       2.0404212451     -1.6919044474     -0.7435989579      0.1278622865     -0.0238696866     -0.1037994843      0.1354092404
H       2.2307434028     -2.5221495505      0.8152860134      0.2028471653     -0.1172616163     -0.0101642969      0.1395968238
H      -2.3333326059     -1.5006464503     -0.4592482182     -0.1344524146     -0.2720124316     -0.0674749144      0.0855649549
H      -2.1868740592     -0.5136414227      1.0018957875     -0.0968822610     -0.0198463520      0.2933727052      0.0817650540
H      -2.2191668114      1.5595728083     -0.3961509516      0.1594787177      0.2523583925      0.0577723993      0.0785250094
H      -2.3671311966      0.5714965021     -1.8567182114      0.1254024747      0.0304580819     -0.2706523362      0.0825855972
H       3.1512812557      0.4998662376     -0.8496986343      0.0661444455     -0.0554516544     -0.1566745014      0.1105824756
H       1.9512631178     -0.8132592702      2.9699136616     -0.0696815255     -0.1539315489      0.1630239313      0.0410442904
H       3.4046336669      1.5314103325      3.2260842672      0.1161661850      0.0981661895      0.1988897084      0.0369370848
H      -4.3949124161      0.6493084438      0.4401991076     -0.1310389916      0.0183621858      0.3146659524      0.0278919467
H      -4.5828652998      1.4275216839     -1.1395497105     -0.2707145591      0.2328641010     -0.1270449088      0.0328226796
H      -4.5423846481     -0.3390060598     -1.0221047904     -0.1777690591     -0.2729588266     -0.1068487995      0.0299240874
H       5.4082335659      2.0493097639      1.0023868904      0.1904782763     -0.0686242256      0.0168854710      0.1065204752
H       4.3354899249      2.6594648322     -0.2807137007     -0.0215559084      0.1076865994     -0.1935711851      0.0609471176
H       4.1847923013      3.2982624391      1.3847499251     -0.1319120325      0.2274345185      0.1014899119      0.0603026080
N       6.5097163318     -1.7750438440      0.0617332429     -0.1346145930      0.0810877161      0.0305474296     -0.8454964096
S       5.9259090273     -1.5470072329      1.5178948151      0.2860378229     -0.2243615102     -0.0107896847      1.9592500355
S       5.7047771516     -1.1772858908     -1.1576929395      0.3074407320     -0.3743587879     -0.1276153513      1.9515908387
F       4.4448851843     -2.2667917360      1.5084165454     -0.3990187674     -0.3833507522     -0.0181900337     -0.4853187282
F       5.6447062266      0.4547752945     -0.8905913155      0.1413464692      0.5987392810      0.0342855924     -0.4915065224
O       6.6854115189     -2.3191311877      2.4371923604      0.8654205914     -0.9985412686      1.0154040497     -0.7129702141
O       5.6118317653     -0.1861439941      1.8575383051     -0.2953094181      1.1923290748      0.1396004287     -0.7752543513
O       4.3071670301     -1.5175149929     -1.2213374228     -1.2631263496     -0.2638754017      0.0468875838     -0.7829233061
O       6.4878377069     -1.3112944079     -2.3350671063      0.9946577739     -0.0813368744     -1.3431000538     -0.7107193230
