40
Properties=species:S:1:pos:R:3:forces:R:3:charge:R:1 energy=-226.16268291443518 homo_lumo=4.156680539312819 dipole="0.5727680128533663 0.5825495214010095 2.6862569406133243" free_energy=-226.16268291443518
N       1.3141463214     -1.0217181986     -0.5168453955      0.0003456004      0.0053017781      0.0074275122     -0.5124681350
N       2.1032795488      0.9228273586     -1.0606598856      0.0006477497      0.0071729636      0.0071456345     -0.5448849201
C      -0.7340726044     -2.0134606821      0.4831078690     -0.0051601576      0.0046889480      0.0012234967     -0.1719868281
C      -1.6746367465     -0.8738263517      0.0963428396      0.0028642210     -0.0067720552      0.0126686514     -0.2176589901
C       0.4312927272     -2.1978244444     -0.4849882247      0.0032427229      0.0068848743     -0.0045178818     -0.0239729194
C      -2.9072119268     -0.7840176216      0.9934330136      0.0008492990      0.0104359932     -0.0024306306     -0.1553674538
C      -3.8521947021      0.3393924358      0.5696929647     -0.0002253338      0.0065526236     -0.0037261589     -0.2068286652
C       1.1298034389      0.0402785035     -1.3083085702     -0.0016181245      0.0061913093      0.0057492129      0.5814996959
C       2.4367332725     -0.8120533961      0.2588504098      0.0018201670     -0.0004549944      0.0005053645      0.2024736105
C      -5.0878609319      0.4508263318      1.4589785176      0.0043948543     -0.0051533785     -0.0004688377     -0.0654029713
C       2.9394647879      0.4085211329     -0.0886995924     -0.0054031268      0.0087195267     -0.0062275587      0.2102523956
C       2.3106301305      2.1501004418     -1.8231129153     -0.0036878791     -0.0092940473      0.0008747873      0.0752356298
H      -0.3493607489     -1.8637636623      1.5082324640      0.0051523677     -0.0033720309      0.0025968056      0.0858788279
H      -1.2922928276     -2.9659938793      0.4887828103     -0.0021216045     -0.0062152898     -0.0007320205      0.1020020146
H      -1.9909953761     -1.0020431037     -0.9528225951      0.0032750960      0.0014090139     -0.0071610009      0.1438466496
H      -1.1346380910      0.0897789182      0.1452382612      0.0022583285      0.0009858626      0.0011531651      0.1110509586
H       0.0792220539     -2.3462172959     -1.5155893626     -0.0034883547      0.0012778424      0.0028066835      0.1847284706
H       1.0633901096     -3.0550848529     -0.2134506264      0.0002898124     -0.0087213221      0.0077476212      0.1053970557
H      -3.4500765425     -1.7470902176      0.9662143743     -0.0061159057     -0.0032612736     -0.0007727291      0.0864269671
H      -2.5955096286     -0.6296823166      2.0437745317     -0.0030990784     -0.0001843327     -0.0000537697      0.0773763222
H      -3.3002540186      1.2972960968      0.5784656767     -0.0016777487      0.0002055286      0.0005289378      0.0823774089
H      -4.1601058567      0.1708519375     -0.4779812020      0.0038207845      0.0072430975      0.0008976285      0.0970808246
H       0.3384493032      0.1239242858     -2.0469798016     -0.0036260194      0.0041607685      0.0076129707      0.1998907920
H       2.7837464147     -1.5478479000      0.9732966231      0.0133289733     -0.0016223626      0.0006842280      0.0421485143
H       3.8186979459      0.9412683275      0.2514228355     -0.0067929316     -0.0038777135      0.0045083615      0.0425782727
H      -4.8051223270      0.6492501666      2.5056153361     -0.0002775827     -0.0037994985     -0.0032171424      0.0304729301
H      -5.7484790013      1.2665536774      1.1276584698      0.0066785007     -0.0019496381     -0.0023390987      0.0403646211
H      -5.6723762498     -0.4829366630      1.4409745868      0.0065088130      0.0003389689     -0.0026178505      0.0352874794
H       3.2597695793      2.0739831586     -2.3682749283     -0.0039483493     -0.0135132365      0.0014594914      0.0808779532
H       1.4971151996      2.2403437679     -2.5514085715     -0.0010060426      0.0017563745     -0.0023956524      0.1103013088
H       2.3138102916      3.0094241674     -1.1403543947      0.0040876527     -0.0001326177     -0.0121376206      0.0718427463
N       0.5634128504     -1.0465315161     -5.3221487830      0.0028123251      0.0032076172     -0.0042762409     -0.8421334995
S       1.9645770823     -1.3382590694     -4.5962366368     -0.0011840371     -0.0092675866      0.0066189028      1.9316124151
S      -0.6685675360     -0.3939948786     -4.5540888639     -0.0001537642      0.0047053414     -0.0057779200      1.9290380836
F       1.5965805284     -2.5774255751     -3.5339469498     -0.0039760556      0.0056425437     -0.0057059051     -0.4793935650
F      -0.1476909328      1.1741564499     -4.2167476423     -0.0066968385     -0.0044498885     -0.0066413729     -0.4880576375
O       2.8624474258     -1.9360632958     -5.5543670635      0.0052220481     -0.0049822027      0.0123545955     -0.6979029299
O       2.4367375814     -0.2877683178     -3.6993962188      0.0054671557     -0.0012925245     -0.0039572465     -0.7657750305
O      -0.9206789905     -0.9023349451     -3.2014683262     -0.0078287508     -0.0076893281     -0.0096615128     -0.7931482792
O      -1.7698907418     -0.2219038672     -5.4688977316     -0.0049787861      0.0091243458      0.0002540994     -0.6950601239
