40
Properties=species:S:1:pos:R:3:forces:R:3:charge:R:1 energy=-226.22093487009738 homo_lumo=3.9181287810273853 dipole="1.3837254716039065 -2.0966049301333505 -0.4189057162078429" free_energy=-226.22093487009738
N       1.9103908897     -0.1814527540     -0.0262420697     -0.0009615398     -0.0118437453      0.0003140080     -0.5149459221
N       3.3377266967      1.4403317387     -0.2344804756      0.0009968467      0.0127253681     -0.0034058024     -0.5301134561
C      -0.4519459876     -0.9429686423      0.2478125099      0.0009737676     -0.0054780008     -0.0018744140     -0.1857372366
C      -1.2534572216      0.0682188524     -0.5660172442      0.0001996205     -0.0093444276      0.0098862871     -0.2046897534
C       0.9287279968     -1.2361476822     -0.3303808207     -0.0039527828      0.0065258926     -0.0179309570     -0.0044560651
C      -2.5629182894      0.4492648262      0.1220848119     -0.0009395803     -0.0044928308     -0.0141221325     -0.1721553414
C      -3.4651558630      1.3170392633     -0.7516042168     -0.0005543780      0.0013798904     -0.0062702371     -0.2198747235
C       2.4389941821      0.6974017377     -0.8908574023      0.0046389944     -0.0031576475      0.0078175922      0.6051524865
C       2.4681680138      0.0316594728      1.2173739983     -0.0097586759      0.0009723864      0.0011652775      0.2200098793
C      -4.7214732991      1.7756583828     -0.0160753650     -0.0022766733     -0.0052195065     -0.0041456195     -0.0669152319
C       3.3599757803      1.0534048936      1.0863780980     -0.0087226149      0.0065995637      0.0026556138      0.2465255756
C       4.0839045616      2.5645324987     -0.7896976453     -0.0039306988      0.0024349725      0.0040995719      0.0783687748
H      -0.3421140955     -0.5878701367      1.2871454600      0.0006221553     -0.0030789436      0.0003143597      0.1302821068
H      -0.9977165922     -1.9019303560      0.2969636267      0.0004325454      0.0036083093     -0.0043166341      0.0903729477
H      -1.4663565234     -0.3602254376     -1.5645461144      0.0106731383      0.0031338615     -0.0015145258      0.0656527530
H      -0.6644947659      0.9859815644     -0.7254861053      0.0123127848      0.0085836826      0.0084439912      0.1749787495
H       0.8881979851     -1.3298731280     -1.4264454899      0.0012611416     -0.0047790186      0.0085210807      0.1097746560
H       1.3493335524     -2.1709905945      0.0722296102      0.0088132211     -0.0028695313     -0.0054280359      0.1114974919
H      -3.1067422740     -0.4680621608      0.4211481652      0.0000047601     -0.0030805346     -0.0061501455      0.0673921347
H      -2.3214789483      0.9974871805      1.0500639099     -0.0054699621     -0.0028697791      0.0082408553      0.1204610229
H      -2.8917654449      2.1964436765     -1.0860491103     -0.0011641033     -0.0001182480     -0.0047244204      0.1463091213
H      -3.7467585825      0.7516728898     -1.6597101737      0.0024773816     -0.0007006011      0.0001140677      0.0619960697
H       2.1418626222      0.8410895227     -1.9220391309      0.0099846655     -0.0158080514     -0.0105930416      0.1097988403
H       2.1625875037     -0.5362040742      2.0867757766      0.0065727346      0.0032576980     -0.0033064616      0.0513577654
H       3.9606472079      1.5690372632      1.8243999165      0.0021671391      0.0066837130      0.0062439557      0.0569220373
H      -4.4533173641      2.3665083460      0.8743035369      0.0011284838      0.0007803566     -0.0013027615      0.0424003870
H      -5.3520091997      2.4075759699     -0.6601969098     -0.0123955103     -0.0063309451     -0.0006062897      0.0333452864
H      -5.3276025690      0.9172405810      0.3176518314      0.0031734814     -0.0040136632     -0.0029305342      0.0207946921
H       5.1582023318      2.3457704388     -0.7344302437      0.0003843913      0.0006288267      0.0042794788      0.0754337321
H       3.7675062867      2.7168516303     -1.8257613872     -0.0057562495      0.0117212063     -0.0008325448      0.0868957760
H       3.8182763450      3.4578065090     -0.2114134581      0.0052123506      0.0141942307      0.0011064762      0.1068972599
N       1.3624415475      3.4374726388      0.3087613692      0.0098516046     -0.0035998492      0.0048060103     -0.9310399596
S       0.7028069081      3.4480002220      1.7757675030     -0.0047111234      0.0019158327      0.0078086273      1.9404209041
S       0.5336819060      3.8043840627     -1.0142139397     -0.0095979317     -0.0144331587      0.0065283632      1.9701751132
F      -0.0153798117      1.9312487683      1.8171008680     -0.0226412464      0.0033991244      0.0058273070     -0.4866025619
F       0.6352221727      5.4427029660     -1.0664867918      0.0135487584      0.0158835169     -0.0085187016     -0.4564767845
O       1.7931436058      3.3120913158      2.7263230584     -0.0057439009     -0.0201381421     -0.0044227367     -0.7407500505
O      -0.3957281714      4.3600967658      2.0026364246     -0.0026549247      0.0094589683      0.0032533333     -0.6991908556
O      -0.8877013054      3.5230394471     -1.0000060393     -0.0062272964      0.0166233294      0.0051722286     -0.7355551242
O       1.3464971819      3.3656696900     -2.1444543825      0.0120292257     -0.0091541055      0.0057975107     -0.7747124968
