45
Properties=species:S:1:pos:R:3:forces:R:3:charge:R:1 energy=-254.27104098229398 homo_lumo=2.569265661848585 dipole="0.08473926840218832 1.4297090503967798 -2.1890399638135136" free_energy=-254.27104098229398
N       0.0905940636      1.9216328974      0.3726781006      0.0065649562     -0.0039873037     -0.0097622288     -0.4922185269
N      -1.9492550151      1.4018799317     -0.1685334304      0.0048579222     -0.0046769919     -0.0127472882     -0.4914630276
C       1.5612058238      1.9338158212      0.4044262140      0.0017955212      0.0008206762      0.0042628575     -0.0079593002
C       2.1185056170      0.7431157174      1.1784787534     -0.0026100220      0.0014160867      0.0119211536     -0.1919639219
C      -3.0873171366      0.7246434409     -0.8093314976      0.0049802683     -0.0059111725     -0.0010175732     -0.0069848382
C       1.8982050464     -0.5928607856      0.4750879113     -0.0132713114     -0.0028936647     -0.0031178784     -0.2372686109
C      -3.3161142481     -0.6711994544     -0.2312326837      0.0083135628      0.0025008842     -0.0070961214     -0.1967101174
C      -0.6644940185      1.2861602898     -0.5341588355      0.0012595651      0.0002633737      0.0023971811      0.5690546625
C      -0.7286826045      2.4231554991      1.3573716889     -0.0109414503      0.0022341719      0.0013577193      0.2373387834
C      -2.0090347534      2.0982634693      1.0169742890      0.0082336705      0.0104688379      0.0046577989      0.2336289943
C       2.4417384513     -1.7697434086      1.2845922795     -0.0012051151      0.0031767498      0.0102542847     -0.2138712104
C      -2.2785619972     -1.7002758958     -0.6764561678      0.0047898400      0.0008232333      0.0041555310     -0.2583868927
C       2.1131378794     -3.1136563593      0.6406791462      0.0016552599     -0.0095888871      0.0116797771     -0.0875306492
C      -2.4443038033     -3.0279268471      0.0600758368      0.0111488795      0.0042905692      0.0007832824     -0.0933918683
H       1.8523866649      2.8932668244      0.8571468080      0.0137082145     -0.0122191861      0.0111960547      0.1094866046
H       1.9065580774      1.9377715245     -0.6419363141      0.0056373860     -0.0053398374     -0.0006685581      0.0993421885
H       3.1984407332      0.9278716277      1.3230039608     -0.0023911017     -0.0046315956     -0.0032148387      0.0816580352
H       1.6491688018      0.7050341844      2.1785765403      0.0080475350     -0.0000908341     -0.0000799787      0.1786990336
H      -3.9583991476      1.3789633761     -0.6567446794     -0.0043701555     -0.0114983024      0.0015959870      0.1089625392
H      -2.8790806063      0.6893552053     -1.8908597012      0.0016801248     -0.0038151750      0.0024557542      0.1003719740
H       2.3663736350     -0.5775855041     -0.5304315457     -0.0094712098     -0.0037445560      0.0101142632      0.0470265304
H       0.8141297921     -0.7526028658      0.3496063356      0.0072410838     -0.0038926341      0.0152372640      0.1996236755
H      -4.3256524150     -0.9935758427     -0.5435772433      0.0031090011     -0.0017468440     -0.0075803881      0.0845554734
H      -3.3092942946     -0.6045676859      0.8690631326     -0.0014147912     -0.0042502102     -0.0071106097      0.1794392912
H      -0.2997099315      0.7729609088     -1.4138102184      0.0008249814      0.0032663636      0.0055937358      0.0965532188
H      -0.3317747702      2.9107287681      2.2388538414     -0.0095517370     -0.0067978559     -0.0020231659      0.0555678459
H      -2.9413120908      2.2538788682      1.5447862557      0.0107974285     -0.0027655440     -0.0004812383      0.0532460149
H       2.0025602687     -1.7249545520      2.2964348837     -0.0000123881     -0.0049263554     -0.0047383433      0.1395476481
H       3.5357716007     -1.6614116410      1.4039365064     -0.0026653963     -0.0042641512      0.0011260709      0.0657911914
H      -2.3530200057     -1.8477893198     -1.7712867646      0.0080319095      0.0009192691     -0.0006351037      0.0487344450
H      -1.2700080106     -1.3161039364     -0.4539509207      0.0002229689     -0.0046107718      0.0073133009      0.1787939375
H       2.5464455905     -3.1910880622     -0.3705549480     -0.0040675249      0.0015412180     -0.0055785850      0.0116160707
H       1.0219392973     -3.2417144775      0.5591195833     -0.0011992179     -0.0007705762     -0.0000709659      0.0797990354
H       2.5021236998     -3.9513443583      1.2398880058     -0.0015378376      0.0157959116     -0.0060396501      0.0341373947
H      -2.2446748612     -2.8904026637      1.1343916186     -0.0021128483      0.0081898843     -0.0046596335      0.1056294991
H      -1.7414520698     -3.7829942603     -0.3241179333      0.0089945907      0.0045423228     -0.0026345259      0.0341632917
H      -3.4656772450     -3.4245059826     -0.0610384103      0.0107367617     -0.0054645465     -0.0057532488      0.0238923431
S      -0.9303478132     -0.7676237108      3.3330193112     -0.0065066194      0.0008291767      0.0023751660      1.7666955226
O      -1.0774032221     -0.4623504178      1.8899279133     -0.0104913049     -0.0068664392     -0.0017550766     -0.8305327445
O       0.2659406942     -0.1702261814      3.9509086277     -0.0216692802      0.0094186427     -0.0071715719     -0.7941795284
O      -1.2667027919     -2.1437658245      3.7043236847     -0.0052969776      0.0149816765      0.0068159573     -0.7661196059
C      -2.3365108398      0.2302535138      4.1016979894     -0.0088430086      0.0077654718      0.0010189610      1.1157486517
F      -3.5107042137      0.0470484658      3.4148631443     -0.0048192347      0.0016749509      0.0012988345     -0.4656107690
F      -2.0810458132      1.5816269887      4.0785782052     -0.0110530721      0.0063341403     -0.0164510314     -0.4691878277
F      -2.5586785687     -0.1125200132      5.3908776612      0.0028701728      0.0134998236     -0.0072233317     -0.4357244572
