22
Properties=species:S:1:pos:R:3:forces:R:3:charge:R:1 energy=-116.73376337144447 homo_lumo=5.529524851584703 dipole="-0.27518707082041394 -2.7889407250425893 0.8352503568936834" free_energy=-116.73376337144447
N      -0.2977158310      0.4282645729     -0.2480923577     -0.0005108504     -0.0075475430      0.0023472273     -0.6139774589
C      -0.4404267610     -0.9964007215      0.1762143880     -0.0011113772     -0.0066702289      0.0022530368      0.0836355165
C       0.2464846504      1.2373362251      0.8982489899     -0.0009686776      0.0013690665     -0.0051632944      0.0494210122
C      -1.6447025928      0.9632728057     -0.6530853942      0.0054912942      0.0029770918      0.0005662088      0.0488654644
C       0.6490226401      0.5057610577     -1.4152113135     -0.0024989000      0.0036704642      0.0028543532      0.0485654976
H       0.5459797452     -1.3791654613      0.4672530415     -0.0068156942     -0.0149523626      0.0042151752      0.0872774274
H      -1.1307953490     -1.0444731768      1.0277988415      0.0005426781     -0.0158019485      0.0010702984      0.0870167632
H      -0.8374025810     -1.5774176073     -0.6657695900     -0.0003164828     -0.0138678822      0.0089149480      0.0875513833
H       0.3500193148      2.2815625874      0.5732602940     -0.0048729043     -0.0044919860     -0.0130265638      0.2008716739
H      -0.4595176089      1.1550601017      1.7345014568      0.0048133266      0.0153456343     -0.0013164763      0.0647098898
H       1.2204161824      0.8148611799      1.1763075339      0.0018587939      0.0163077991      0.0002339927      0.0650209938
H      -1.5277742500      2.0102417253     -0.9638154104      0.0156821722     -0.0009138964      0.0042041696      0.2017332050
H      -2.0161863360      0.3476313413     -1.4823837919     -0.0033007437      0.0169236435     -0.0034311187      0.0648189097
H      -2.3141065107      0.8835485379      0.2131153841     -0.0013986874      0.0139953164     -0.0060370782      0.0644692275
H       0.7493647067      1.5570738071     -1.7174294509     -0.0089883324      0.0031437736      0.0116802763      0.2012388436
H       1.6151083439      0.0962438098     -1.0933961884      0.0029772254      0.0127643330     -0.0083317154      0.0647594053
H       0.2297061799     -0.0977350030     -2.2304634470      0.0057055522      0.0136286244     -0.0063597074      0.0650522197
B       0.0660294105      4.1101731584     -1.3522068014     -0.0002785628     -0.0022481251     -0.0001596204      1.3860938148
F       0.1884350239      5.4340126203     -1.7514486132     -0.0032063240      0.0065206240     -0.0047818458     -0.5231631326
F       1.3333594721      3.5547516988     -0.9548581081      0.0122702266     -0.0109571439      0.0037782329     -0.5778566640
F      -0.4489296324      3.2820420054     -2.4114745683     -0.0066610116     -0.0188274547     -0.0071644986     -0.5780063922
F      -0.8282422401      3.9742324930     -0.2321038752     -0.0084127208     -0.0103677995      0.0136539999     -0.5780976000
