22
Properties=species:S:1:pos:R:3:forces:R:3:charge:R:1 energy=-115.85783916427863 homo_lumo=3.6427060788074 dipole="-4.292927085894959 0.26046034844469323 -0.08805346122610481" free_energy=-115.85783916427863
N      -0.0043453886     -0.0006247476      0.0029307160     -0.1615345916     -0.0267608227     -0.0167420992     -0.6266744716
C      -0.9141599408     -1.1147497018      0.3495140555     -0.9604936956     -1.1189812679      0.3716139377      0.0449232497
C       0.6597333524      0.4948048503      1.2291616285      0.7618414568      0.5749038129      1.4021554118      0.0291053317
C      -0.7798607950      1.0967695857     -0.6166067052     -0.8156903613      1.1205147058     -0.6110930530      0.0453326829
C       1.0182187780     -0.4788885905     -0.9526117094      1.2108921676     -0.5501038566     -1.1321968827      0.0171712901
H      -0.3551897443     -1.9544868736      0.8201868453     -0.0080473866      0.5036591945     -0.2368914386      0.1216153146
H      -1.6984904802     -0.7815559033      1.0655475789      0.4096863728      0.0775417287     -0.2807473015      0.1031196807
H      -1.4246219022     -1.5097810168     -0.5574064027      0.3439006482      0.3231165153      0.2451119194      0.1067561938
H       1.3533071508      1.3338731872      0.9966749990     -0.2018671820     -0.4896925458     -0.1324655770      0.1436711347
H      -0.0882490370      0.8632791348      1.9666239356      0.0695558560     -0.2104677173     -0.4747947503      0.0945724131
H       1.2519911251     -0.3120032046      1.7164814684     -0.1752132784      0.2490744216     -0.4602484143      0.1433443877
H      -0.1182091929      1.9511573860     -0.8842742073     -0.0736420958     -0.5155996985      0.2070352910      0.1210241562
H      -1.2851341150      0.7521966100     -1.5466994463      0.3173365705     -0.0714007027      0.4199786436      0.1069039426
H      -1.5623442252      1.4750130324      0.0785636767      0.3842269334     -0.3028320096     -0.1135197595      0.1030064284
H       1.7054450097      0.3464376173     -1.2417154277     -0.1388408901     -0.3016277188      0.3544005008      0.1518269757
H       1.6275552541     -1.2980498800     -0.5090773719     -0.1609515661      0.4770198350      0.0350121713      0.1520519603
H       0.5460508540     -0.8682768389     -1.8821982684     -0.0975556483      0.2104024870      0.4785409494      0.0904420728
B       4.8032457738     -0.2863595336      0.1055115552      0.9522992603     -0.0435098407      0.1115314528      1.3121611615
F       6.2218027957     -0.3008729928      0.0409718125     -0.1712135076      0.0049626587     -0.0051464513     -0.5480351048
F       4.3323861191     -1.5729259591      0.4806005372     -0.4787904688     -0.2886293282      0.0635505142     -0.5695692229
F       4.2797326312      0.0579123042     -1.1683614155     -0.5441028729      0.1383780200     -0.4255326455     -0.5727131803
F       4.3815466999      0.6706057609      1.0668093296     -0.4617957205      0.2400321293      0.2004475809     -0.5700363968
