26
Properties=species:S:1:pos:R:3:forces:R:3:charge:R:1 energy=-152.06322261778664 homo_lumo=0.05518748581120895 dipole="-4.129065875691541 -1.5889538824183174 -1.9981400489600911" free_energy=-152.06322261778664
N      -0.5365471955      0.1762397049     -0.3624192786      0.2758301850     -0.5558099304     -0.4432613749     -0.5226386100
N       1.6497822118     -0.0899413050     -0.0679741171     -0.4452373127     -0.5586849994     -0.2447597792     -0.5569977037
C      -1.9375762283     -0.1092551660     -0.6580875194     -0.6440822714     -0.2460654595      0.0305627643     -0.0634829929
C       0.4938318136     -0.6909307662     -0.4096692375     -0.0998237430     -1.8776879649     -0.4248573688      0.5417265865
C      -0.0147351404      1.3608641935      0.0152997207      0.9707700542      1.4054249728      0.5211931253      0.2095455852
C       1.3437657584      1.1950041934      0.1970466728     -0.7027926046      1.6921613793      0.2998725752      0.2630582531
C      -2.7456119437     -0.1900611998      0.6315416897     -0.0974457753     -0.0067778091      0.2446394773     -0.1138059203
C       2.9662904009     -0.7058749042      0.0300655279      0.6187384352     -0.3914515229      0.0266743173      0.0580437817
H      -2.3506750937      0.6884568461     -1.3125489669      0.3714870552     -0.2089978290      0.0886362716      0.1288185571
H      -2.0218929243     -1.0769083563     -1.1986462408      0.3273358212      0.3762647757      0.0515194997      0.1228207189
H       0.4016759173     -1.7380555439     -0.6724898180      0.0081272080      0.0346024469     -0.0079057663      0.0835161561
H      -0.5797262022      2.2750276347      0.1473681390     -0.1729225468     -0.0617926643     -0.0500983321      0.0495688866
H       2.0536988888      1.9524687169      0.5004627707      0.3841652819     -0.0815588148      0.1207686086      0.1019659585
H      -2.3419402246     -0.9953207376      1.2817183843     -0.1629288177      0.2863764204     -0.1331998708      0.0794571714
H      -3.8056765013     -0.4191789125      0.3944991069      0.3094762679      0.0860585390      0.0987469563      0.0727558105
H      -2.7008148123      0.7768726643      1.1757329360     -0.0682836111     -0.3494296155     -0.0823147100      0.0778808717
H       2.9165179447     -1.7790871507     -0.2513183639     -0.1944349473      0.4620561177      0.0453378252      0.0633408933
H       3.6743700985     -0.1866560367     -0.6492183419     -0.2730266781     -0.1231883086      0.3520612096      0.1019004997
H       3.3345922780     -0.6288944606      1.0737868472      0.0202672560      0.2710894279     -0.2631231982      0.1297683445
C       5.7030982433      2.1502182540      2.4213679229      0.8995026463     -0.8023412838      0.3026135095      0.8589627186
O       5.0789296232      1.1561154660      2.0878516233     -3.6831693135     -2.3413724803     -1.7166195049     -0.8006926770
O       6.8392004949      2.0318773299      2.8508933173      2.9663008311      1.6481385331      1.2875999006     -0.7253626578
C       5.0844650768      3.5113961885      2.3091702925      0.4313638005      0.0283111807      0.2163680963      1.2413137243
F       5.0158265673      4.0909881057      3.5623721924     -0.3278217448      0.2938978300     -0.7756190105     -0.4573549050
F       3.8079121099      3.4251805138      1.7829934177      0.0690650549      0.8200382426      0.1031670350     -0.4856692284
F       5.8590597316      4.3036011672      1.4822311482     -0.7804605312      0.2007388161      0.3519977441     -0.4584398226
