31
Properties=species:S:1:pos:R:3:forces:R:3:charge:R:1 energy=-165.55677599034368 homo_lumo=3.698304526213171 dipole="0.7327644857593261 1.4083920834186936 1.588625546362286" free_energy=-165.55677599034368
N       0.2269504442     -0.1796955267     -0.1042126343      0.1343462170     -0.0292192628     -0.0177225678     -0.5043804972
C      -0.6963944271      0.5216515653     -1.0642461858     -0.5072031153      0.6314198950      0.0904896077     -0.0175175103
C      -0.4917926386     -1.3588246288      0.4971542924     -0.4053924018     -0.1589066850      0.6114600076     -0.0222290886
C      -2.0217190108      0.9277232143     -0.4373794657      0.1731945755     -0.4611910248     -0.0218771382     -0.1579838603
C      -1.8267447123     -0.9934617545      1.1327604216      0.1103649628      0.1293399337     -0.4520022340     -0.1456756123
C       0.6936294138      0.7277896349      0.9952030046      0.2148126795      0.4585615520     -0.0794927191     -0.0587524222
C       1.3760780982     -0.6948010441     -0.9367734434      0.7088432964     -0.1793620782      0.2378152769     -0.0738254831
C      -2.7343388002     -0.3034460938      0.1175003954      0.2082332880      0.2162574079      0.2493513683     -0.1463291405
C       1.5151879399      1.9248375634      0.5384187111     -0.2591929422     -0.3968752902      0.0706787704     -0.0781051560
C       2.4685272218     -1.4059921153     -0.1563915731     -0.3882917721      0.3536715841     -0.0501548395     -0.0782597024
H      -0.8861066430     -0.1956564066     -1.8720863975      0.0363352241     -0.4388383968     -0.2505946333      0.1944139546
H      -0.1668872778      1.3872247319     -1.4655981999      0.2452185820      0.1546137736     -0.0574342080      0.1035136134
H       0.1706595312     -1.8084222351      1.2389535932      0.2430190133     -0.0150695283      0.1507914135      0.1032022868
H      -0.6614720187     -2.0613213057     -0.3275140227     -0.0276290127     -0.1621451033     -0.4584190632      0.1891321183
H      -2.6251564578      1.3821171292     -1.2275309963     -0.1015997511      0.1990074054     -0.2135245220      0.0948304707
H      -1.8817836889      1.6777735080      0.3480412819     -0.0342389924      0.2716866058      0.2075443331      0.0663135475
H      -1.6854059304     -0.3575760663      2.0131630846     -0.0374769833      0.1321833889      0.3010459294      0.0640015519
H      -2.2868199226     -1.9267028702      1.4677491065     -0.0487266935     -0.2641943630      0.1557099704      0.0969192939
H      -0.1936089286      1.0815299526      1.5230782913     -0.1632473216     -0.0455970670      0.0943995421      0.1626742273
H       1.2785224723      0.1180477497      1.6878017164      0.0454863095     -0.2044146675      0.1356492261      0.1311189292
H       0.9286958770     -1.3834544889     -1.6634021210     -0.4023335356     -0.1550060429     -0.2783323029      0.1943989225
H       1.7914526098      0.1596720355     -1.4753661539     -0.0114436663      0.2440317399     -0.1195166747      0.1116819721
H      -3.6740595702     -0.0114172446      0.5918887938     -0.2979001718      0.0538584258      0.1137571939      0.0617104628
H      -2.9548213042     -0.9950172007     -0.7011547416      0.0002699942     -0.1961362177     -0.2506933019      0.1218913703
H       1.7865170403      2.4965161758      1.4260394805      0.0950720687      0.2056281347      0.2411337362      0.0595150253
H       2.4318079913      1.6224733117      0.0359660497      0.3004043592     -0.0538778424     -0.1414692553      0.0542006112
H       0.9462305981      2.5751108358     -0.1235640821     -0.1379236820      0.2442572019     -0.1787781502      0.0529465295
H       3.2041863186     -1.7573228328     -0.8799204104      0.2263151917     -0.1328512848     -0.1894843087      0.0688338536
H       2.9739689722     -0.7469583295      0.5488955702      0.2549680610      0.1541425685      0.2438572424      0.0242489431
H       2.0836856551     -2.2721785966      0.3786961270     -0.0577910219     -0.3105718805      0.1117900508      0.0526911718
Cl     -0.9578824888     -2.3315144627     -2.5351276468     -0.1164927594     -0.2444028823     -0.2559777498     -0.7251803829
