54
Properties=species:S:1:pos:R:3:forces:R:3:charge:R:1 energy=-287.16317404426127 homo_lumo=5.2381708480707525 dipole="-3.512135959675864 0.7642164592458426 0.6103068304447374" free_energy=-287.16317404426127
N       1.3995898879     -0.5656534347     -0.3053722500     -0.1438289703      0.0128661947      0.0391805546     -0.4991347351
C       2.3496792403      0.0241528998      0.7093182706      0.2302278382     -0.0744337981      0.4737326080     -0.1415957904
C       0.0439364019     -0.8184436953      0.2953444289     -0.3631676060      0.3656301487      0.2808724854     -0.0713432347
C       1.9506792215     -1.8859349485     -0.7893284701     -0.0525107710     -0.3705057424     -0.5248737781     -0.1594328242
C       1.2549327876      0.4192633313     -1.4391075514      0.3215828210      0.2302040892     -0.4051388000     -0.0767001742
C       2.5390316107     -0.7930434557      1.9756585269     -0.2344820446      0.1215050237     -0.4472920540     -0.1083224240
C      -0.6051593611      0.3771093535      0.9773245038      0.2970049796     -0.2971726145     -0.2237687807     -0.0799834347
C       1.2030049635     -2.5270764322     -1.9460055390      0.0379485708      0.3181332356      0.3853501439     -0.0902278334
C       2.5261209550      0.6943234411     -2.2272456823     -0.3714753831     -0.1554747108      0.3360066555     -0.1178080127
H       3.3118080970      0.1304212514      0.2104072696      0.0612851904     -0.0287455149     -0.1248604132      0.2857781550
H       1.9765283544      1.0211741324      0.9536423006     -0.1346703619      0.2271617466     -0.0458461534      0.1113975926
H      -0.6008214579     -1.1650376563     -0.5151588703     -0.0373087472     -0.1206123382     -0.1779414565      0.1539971827
H       0.1603784248     -1.6328037685      1.0140080497      0.0815807582     -0.2074438260      0.0675155239      0.1436908543
H       2.9844728482     -1.7152689079     -1.0792212853      0.1642892687      0.1003612835      0.1246028377      0.2987920320
H       1.9451365962     -2.5629477097      0.0665549997      0.0364694791     -0.0170599430      0.2099356839      0.1470123371
H       0.4772176504      0.0310860145     -2.1010379169     -0.2200915942     -0.1186344186     -0.0569428638      0.1294611016
H       0.8950587326      1.3518389872     -0.9986984171     -0.1234530773      0.1074826740      0.1460424658      0.1474181619
H       3.2841792408     -0.2739139859      2.5783932381      0.2112951792      0.0881959230      0.1854143808      0.0872946083
H       1.6226297119     -0.8785835640      2.5574868793     -0.2818648833      0.0028265744      0.2513411383      0.0269059251
H       2.9224936503     -1.7870648683      1.7600884568      0.1678498457     -0.1972407590      0.0052131354      0.1036635677
H      -1.5846387426      0.0561466620      1.3320596155     -0.3037120837     -0.0464043808      0.1152426039      0.0723404109
H      -0.0303125288      0.7187388505      1.8355615418      0.1293435491      0.1155633140      0.2831994091      0.0588974290
H      -0.7498548935      1.2101423534      0.2921139797     -0.1174102093      0.2600090242     -0.1677613294      0.0526198556
H       1.7228961827     -3.4584705210     -2.1726146052      0.1410247215     -0.2396350838     -0.1053508762      0.0946087161
H       0.1695882963     -2.7631317666     -1.6969204781     -0.3328717847     -0.1504173569      0.0132239642      0.0324183250
H       1.2250431310     -1.9084933884     -2.8409082142      0.0360735069      0.1209944523     -0.3203273737      0.0476329381
H       2.2697828719      1.4003992321     -3.0170965584     -0.0661694330      0.2309842010     -0.2473502155      0.0487585631
H       3.3000234620      1.1433138060     -1.6092969554      0.2287775221      0.0963379747      0.0655651302      0.0999149290
H       2.9240245449     -0.2039636423     -2.6897001043      0.1718474692     -0.1708611301     -0.1321273506      0.1141156352
P       6.3125950122     -1.5627938611     -1.2231423368     -0.1839935117      0.3174871690     -0.1080607731      1.6691884260
F       6.1181082263     -0.3531681508     -2.3685146775      0.0873482384     -0.0195490844     -0.0419580614     -0.5270940681
F       7.7503494768     -2.0117707844     -1.9110036750     -0.0394957805     -0.0583271952      0.1925988624     -0.5142000713
F       4.7993739694     -1.1390783078     -0.4712114369      0.1799719182     -0.1468991984     -0.2592279808     -0.5656863274
C       7.1332772376     -0.1365163530     -0.1446224245     -0.9968491215     -0.4223225592     -0.4549070299      0.5614221857
C       5.2183261263     -2.6583581558     -2.4542884117      1.0431894731      0.1443945660      0.2623366479      0.5204660467
C       6.5580122221     -3.0446508949      0.1033739165     -0.6627028849      0.8707212577     -0.2752436623      0.6111091670
C       6.2188631860      1.0644269056      0.2485724123      0.0161036904     -0.6766267214     -0.3450299262      1.3902394219
C       5.9062102139     -3.4073463797     -3.6233107307     -0.0354745335      0.5169447686      0.6587332221      1.4079894347
C       5.5731297075     -3.1671496086      1.2947997474      0.2456470565      0.5022270266     -0.7094837684      1.4059791339
F       8.1643165402      0.3734179203     -0.8324574162      1.0114804809      0.6050568932     -0.6833582155     -0.4375260198
F       7.6150996568     -0.5816398043      1.0308286227      0.5176624485     -0.1815179413      1.2432307693     -0.4526609650
F       4.3050621878     -1.8455838692     -3.0442218760     -0.8161695415      0.6526127661     -0.7901749691     -0.4766245910
F       4.4770417265     -3.5579227520     -1.7708595224     -0.7480011273     -1.0015125203      0.4080577396     -0.4715479047
F       7.7929330647     -2.9834184686      0.6285793201      1.1278967522     -0.0573184284      0.5504051165     -0.4446226565
F       6.4948994228     -4.2141615074     -0.5655928902      0.0113218997     -1.2035532376     -0.3419837870     -0.4534775507
F       6.9554222547      2.0947286761      0.6567973004      0.8549513315      0.8936826924      0.3886392559     -0.4485397570
F       5.4071019655      0.7276178433      1.2609898098     -0.5593555303     -0.2106098838      1.0086632872     -0.4752743606
F       5.4379664969      1.4993878605     -0.7430294346     -0.4786773092      0.5212433925     -0.8194417699     -0.4710162641
F       4.9845303167     -4.0552517117     -4.3469734429     -0.9887732192     -0.6175344699     -0.6207443440     -0.4605189395
F       6.5202102845     -2.5451658392     -4.4262854246      0.5010334834      0.8291737005     -0.7024626217     -0.4435676927
F       6.7907749072     -4.2992514559     -3.2006212925      0.7201177021     -0.8238979151      0.4078916651     -0.4430665782
F       5.9256545419     -4.1448829431      2.1240718241      0.4979388971     -1.0070257194      0.6942995722     -0.4477266855
F       4.3267610812     -3.4300128452      0.8719958177     -0.9574815949     -0.4681080819     -0.3242602774     -0.4814508141
F       5.5158977202     -2.0350421283      1.9986092099      0.1187270325      0.8376444813      0.6586237731     -0.4639624266
