44
Properties=species:S:1:pos:R:3:forces:R:3:charge:R:1 energy=-240.95983711661518 homo_lumo=2.587931747589085 dipole="0.20663126127499987 2.6253296316904806 -3.48483007944016" free_energy=-240.95983711661518
N      -0.5081741034      0.0795724442     -0.4185601759      1.0707571511     -0.7585959687     -0.5440564987     -0.5140680546
N       1.7041977217     -0.0859120981     -0.2731550223     -0.8645426058     -0.7053246119     -0.3245471997     -0.5519483750
C      -1.9080272448     -0.2565625393     -0.6699147794     -0.9551807647     -0.3162227718      0.0340904203     -0.0733366247
C       0.5603080323     -0.7244864395     -0.5879593898     -0.0908256811     -1.2815356154     -0.3012551051      0.6018655372
C      -0.0219683121      1.2639090515      0.0065299122      0.8753367067      1.3626571233      0.5584165483      0.2387294118
C       1.3511510532      1.1594780620      0.0995280041     -0.7990712360      1.5359781915      0.4495679136      0.2588409304
C      -2.7017132668     -0.2614307533      0.6322184236      0.0058375801     -0.0292659545      0.3159758632     -0.1359974822
C       3.0564194515     -0.6266095202     -0.3199550903      0.6317513725     -0.3131596079     -0.0165528191      0.0596054417
H      -2.3460856149      0.4839914404     -1.3732360971      0.4076033505     -0.1646591693      0.0769751099      0.1249242838
H      -1.9804947259     -1.2625308784     -1.1381302083      0.3685099358      0.3922090675      0.0765091926      0.1323404328
H       0.5058123246     -1.7520050499     -0.9258410949     -0.0147383201     -0.0563141664      0.1152235607      0.1143832555
H      -0.6195746257      2.1376733508      0.2320059493     -0.1997586323     -0.0911636771     -0.0028301933      0.0630967277
H       2.0388514511      1.9330572278      0.4159818943      0.1957784080     -0.1220789738      0.0318470980      0.0609091820
H      -2.2729982337     -1.0045349495      1.3373062951     -0.1418336197      0.2428395325     -0.1255634770      0.1477293984
H      -3.7577434755     -0.5335926871      0.4236430705      0.3399838325      0.1097978030      0.0470855995      0.0735024014
H      -2.6797460526      0.7445628056      1.1019597895     -0.0671859859     -0.3452332132     -0.0491965841      0.0642945132
H       3.0410179866     -1.6867717527     -0.6514049323     -0.1534552721      0.4696752422      0.2055975686      0.0946360798
H       3.6696658000     -0.0355757965     -1.0320992730     -0.3135041126     -0.1537472842      0.2007346802      0.0853241559
H       3.5152980896     -0.5725472343      0.6893980812     -0.3213135059     -0.0597326542     -0.2732907060      0.1136383069
P       0.2697884383     -3.1085035253      3.9297714005      0.2785759483     -0.9681620924     -2.9610808180      1.6629646314
F       0.5245008481     -3.1541792616      2.2241822345     -1.9634866425      1.3533818228     -2.2368946331     -0.5469566174
F      -1.1464727527     -2.1822811682      4.2566806209      0.6197058715      0.5028485230      0.2975987062     -0.5207937874
F       1.5468447370     -4.2129962004      3.5984145275      0.6585294637     -0.3511881194      2.0579849169     -0.5180730254
C      -1.1851776447     -4.2847583474      3.4436234412      0.1878409621     -0.7792116504      0.6199521748      0.5375835271
C       1.0013023070     -1.3722998752      3.4912083952      0.6982626683     -0.0988317540      1.0675697470      0.5421590778
C       0.9129221550     -3.3847991653      5.7197729986     -0.5653013486      0.6188988456      0.2818880703      0.5379738623
C      -0.7791249875     -5.6903548428      2.9496719774      0.1464647691     -0.6086192527     -0.3917208180      1.3397577855
C       1.0702992659     -0.3164423838      4.6219963556     -0.0481063686      0.6067996318      0.5683880770      1.3380613260
C       0.7790767747     -4.7962381473      6.3217313848      0.2916195987     -1.1034441579      0.4145959112      1.3653383037
F      -1.9182735132     -3.6971230908      2.4190455994      0.1256023961     -0.3148550948      0.2345335657     -0.4532836925
F      -2.0530425820     -4.4464656207      4.5120312945     -0.0705590464     -0.3056405520     -0.6005268797     -0.4433995389
F       0.2379550773     -0.7968523118      2.4830495225      0.2299645056      0.1873697563      0.3492549698     -0.4659268990
F       2.2907872285     -1.5411739602      3.0097502458     -0.0278533603      0.5731325978     -0.0156602585     -0.4576081064
F       0.2366875728     -2.5178866972      6.5594868104      0.2208303796     -0.3017065422      0.2920790567     -0.4433500272
F       2.2602465873     -3.0668550153      5.7670703888     -0.4929337167     -0.2903101068      0.1032398098     -0.4361434161
F      -1.9179715451     -6.3774739209      2.5683023614      0.6125771646      0.1131147247      0.0971357481     -0.4549803833
F      -0.1631277393     -6.4149574064      3.9460920531     -0.6076289097      0.4229444881     -1.1057526405     -0.4438634933
F       0.0627988331     -5.6206926431      1.8549186660     -0.8859318522     -0.5005694938      0.8863659717     -0.4406279098
F       1.4097141656      0.9040209998      4.0638832076     -0.0852919591     -0.1713125825      0.3110881091     -0.4653178786
F      -0.1437564887     -0.1607785271      5.2633658071      1.4214273193      0.2484344497     -0.4875839457     -0.4325294459
F       2.0423776638     -0.6230503845      5.5514275339     -0.9369360545      0.5776413093     -0.7879066419     -0.4387687602
F      -0.5261360877     -5.2374503297      6.3034039331      1.2998854409      0.2680777742      0.2335966322     -0.4408773550
F       1.1854291975     -4.7524208593      7.6439438717     -0.2274545956     -0.1019888489     -0.7235426313     -0.4471040697
F       1.5949384189     -5.6997997384      5.6662523486     -0.8539512346      0.7070730332      1.0206668282     -0.4327036296
