44
Properties=species:S:1:pos:R:3:forces:R:3:charge:R:1 energy=-243.5076920074172 homo_lumo=4.005651175058093 dipole="-1.2406609133870234 -2.539354979067939 1.135811835915695" free_energy=-243.5076920074172
N      -0.7662009742      1.7200134528     -0.4213841547     -0.0008501825     -0.0011340186      0.0029407346     -0.5106326473
N       1.1620367588      1.2472431678      0.4490176061      0.0019062114     -0.0063519887      0.0006453882     -0.5520536130
C      -1.7929321409      2.0778199352     -1.4118759154     -0.0019112042     -0.0080927990      0.0062730164     -0.0915566814
C       0.5239981293      1.5088503764     -0.6978873471     -0.0011974755      0.0053577223      0.0010041414      0.6172957109
C      -0.9577051888      1.6013346417      0.9385536348     -0.0033282110     -0.0096752666     -0.0006863382      0.2135065731
C       0.2545812046      1.3015350031      1.4870491117     -0.0045246093     -0.0137587651     -0.0012617759      0.2263869739
C      -2.7798837389      0.9417675420     -1.6187653745      0.0015831635     -0.0050443338      0.0044284987     -0.0763326633
C       2.5946302234      0.9939613416      0.5748149439     -0.0006150270      0.0078172810      0.0004268683      0.0786750467
H      -2.2748349147      2.9982942050     -1.0511773047     -0.0018002651      0.0009402976      0.0080732396      0.1321079113
H      -1.2597718239      2.3395067109     -2.3343005403      0.0047757094     -0.0022670398      0.0050928298      0.1805484932
H       0.9872169726      1.6260987371     -1.6694744710      0.0014825904      0.0123520022     -0.0011668607      0.1474733617
H      -1.9215322606      1.7711467114      1.4013244650     -0.0058705472     -0.0188528116     -0.0047713604      0.0509977900
H       0.5524865171      1.1526073055      2.5170343970      0.0048268016     -0.0007219970      0.0051232910      0.0481644562
H      -2.2644790803      0.0363165378     -1.9714132679      0.0023693281      0.0016636749     -0.0014165379      0.0587210775
H      -3.5209570823      1.2353808084     -2.3759127612     -0.0005368594      0.0067487004     -0.0011380280      0.0689928063
H      -3.3186094421      0.6974279490     -0.6912191476     -0.0050841760     -0.0014087133     -0.0018693334      0.0515356001
H       2.7715922634     -0.0855819348      0.6698609544      0.0048331686      0.0070021099      0.0080090844      0.0738920986
H       3.0976819170      1.3960698174     -0.3109048695     -0.0112934857      0.0112443715     -0.0003427929      0.1052334284
H       2.9678110998      1.5280173119      1.4553752446     -0.0088175872      0.0118626663      0.0045432673      0.0860532034
P       1.6710513464      4.9083222688     -1.7255348823      0.0160973756     -0.0076677860      0.0069676597      1.7527391709
F       0.1744756819      4.2143090053     -1.3651901198      0.0019332758      0.0075494392     -0.0058180450     -0.5421211645
F       2.4816466688      3.4343032781     -1.4886008706     -0.0082550931      0.0056872056      0.0081555932     -0.5405908436
F       0.9007934940      6.3442946106     -1.9979116613      0.0103917537      0.0063425797     -0.0024066149     -0.5059776882
C       1.2610653938      4.2482660489     -3.5518249756     -0.0075621964      0.0066289965      0.0000035237      0.4966458484
C       1.7772241758      5.2044358939      0.2918330464      0.0038303746     -0.0102656391      0.0017826603      0.5115628425
C       3.4068162013      5.8667897791     -2.0293567293      0.0033561664     -0.0020446540     -0.0096148918      0.5248115960
C       0.1121069036      4.9187423739     -4.3656677333     -0.0079603508     -0.0170431850      0.0020877292      1.3720149352
C       3.0664132331      5.1457053069      1.1864274127     -0.0152141869     -0.0161501553     -0.0002240507      1.3704553741
C       3.9889790718      6.3464670919     -3.3984829196     -0.0099739728     -0.0163835378      0.0129300096      1.3909433352
F       0.8597258546      2.9031886979     -3.4716755031     -0.0010670486     -0.0103104239     -0.0005679918     -0.4758460547
F       2.3543053872      4.2379044850     -4.3742955825      0.0098835072     -0.0036973118     -0.0195664225     -0.4439854656
F       1.0163521495      4.1912821709      0.8821956482      0.0029867171     -0.0128392093     -0.0112724817     -0.4601596835
F       1.1654213578      6.3883428992      0.6121449388     -0.0154796348      0.0086402745      0.0174850698     -0.4320077439
F       4.4374002009      5.1514595412     -1.4538048931      0.0028810167     -0.0002011283      0.0134739814     -0.4494468408
F       3.2630414025      7.0352006814     -1.3107332888     -0.0077104480      0.0165882183      0.0031249385     -0.4392493052
F      -0.0692121139      4.2253107474     -5.5291550219     -0.0000125782      0.0081128383     -0.0115006725     -0.4531076114
F       0.3957293999      6.1937532032     -4.6876599679      0.0118444717      0.0148942444     -0.0031161666     -0.4369477697
F      -1.0660266514      4.8871927458     -3.6926463508      0.0151573383     -0.0043127547     -0.0116202644     -0.4532893289
F       2.6739802032      5.1494016218      2.4985033573      0.0087233664      0.0052245997      0.0045838178     -0.4544967298
F       3.7545056062      3.9866494596      0.9850157200     -0.0005746619      0.0070697128     -0.0054390778     -0.4645406573
F       3.9068890285      6.1792540140      1.0291784035     -0.0029575853      0.0256203375     -0.0035062689     -0.4362680294
F       4.6135627445      5.3450677645     -4.0605323544      0.0029567199     -0.0104642687     -0.0001895698     -0.4462004124
F       4.9237936051      7.3083584985     -3.1630312307      0.0164095552      0.0039753209     -0.0162976662     -0.4464664800
F       3.0349384926      6.8843393609     -4.1897461597     -0.0056312250     -0.0026348063     -0.0033621308     -0.4474802196
