59
Properties=species:S:1:pos:R:3:forces:R:3:charge:R:1 energy=-325.6635483021292 homo_lumo=3.6025134585623264 dipole="0.9298214763865212 -2.8864358027325836 1.0648251848576042" free_energy=-325.6635483021292
N      -1.3894971168     -0.5105030289     -1.9156935484     -0.3286440448     -0.3051226766      0.1048258999     -0.5024645650
N       0.5599153695      0.3837046951     -2.1247193505      0.4381018111     -0.0131427316     -0.0143306507     -0.5001061591
C      -2.5408748261     -1.1979014298     -1.3377664428     -0.3679755201      0.3694150482      0.2668142223      0.0021757576
C       1.8960290208      0.8726029796     -1.7951396386      0.0485942924      0.5773840778      0.0896834617     -0.0023383547
C      -3.3628745157     -0.2668958787     -0.4404052233      0.5619380523     -0.1920868614      0.1259036248     -0.2035069674
C       1.8504397027      2.3264631529     -1.3127594455     -0.2940189677     -0.4450232595      0.2661515742     -0.2041077414
C      -0.2238134379     -0.3088474879     -1.2992018833      0.0989456375     -0.1641403888      0.1888251482      0.5614202206
C      -1.3526703064      0.0828773016     -3.1475902458      0.0939598869     -0.0879133409     -0.2949888227      0.2315160082
C      -0.1227809851      0.6459521069     -3.2787970447     -0.0242610947     -0.1000574603     -0.3373143852      0.2473495818
C      -2.5936918171      0.1879238442      0.8023944600     -0.5065326130      0.1130954273     -0.1908178759     -0.2793845129
C       0.9414793380      2.5194979949     -0.0963918958      0.2977301942      0.3069905231     -0.2982179347     -0.2844611168
C      -3.4864443118      0.9941415978      1.7427738645      0.3621401263     -0.1624283845     -0.1620757230     -0.0538278183
C       0.9802036503      3.9674576514      0.3875702687     -0.0877907960     -0.4121757707     -0.0458819183     -0.0544728869
H      -3.1535858752     -1.5592092093     -2.1669688443     -0.0186877749     -0.1462539548     -0.2074710131      0.1098844015
H      -2.1692269410     -2.0554543118     -0.7684700966      0.0742004850     -0.2016812590      0.0484208335      0.1002751445
H       2.3053966872      0.2165789300     -1.0213260612      0.0716151392     -0.1813597457      0.1084097754      0.0942972845
H       2.5105016288      0.7914593461     -2.6953983678      0.1219830390     -0.1491430736     -0.1812486620      0.1104540761
H      -4.2562411936     -0.8219569383     -0.1390856738     -0.2718825630     -0.1513521904      0.0782432046      0.0838896009
H      -3.6835117227      0.6023483574     -1.0179006242     -0.1115179528      0.1126116764     -0.1080424935      0.1864767887
H       1.5085036669      2.9637983441     -2.1296762755     -0.0204506949      0.1476810918     -0.1076520410      0.2043256077
H       2.8763571791      2.6143507635     -1.0644088625      0.3217526736      0.0826038884      0.0492205232      0.0785975672
H       0.0526363782     -0.6759110624     -0.3266517108      0.0263182292     -0.0334073946      0.2031552733      0.0931752916
H      -2.1951241926      0.0702885719     -3.8160576738     -0.1502588399      0.0183135553     -0.1327533652      0.0428101083
H       0.3076949328      1.2173831900     -4.0811743155      0.0278905934      0.1491949956     -0.1379519102      0.0838733847
H      -2.1974640260     -0.6882781824      1.3289300517      0.1445609063     -0.2677244341      0.1513529421      0.0598602944
H      -1.7476968931      0.8107891461      0.4955070560      0.1877337556      0.1398933589     -0.0130590667      0.1757760540
H      -0.0863959239      2.2654089950     -0.3705546878     -0.1987202751     -0.0077318431     -0.0604496021      0.1917380481
H       1.2546613011      1.8457197285      0.7102494291      0.0967819597     -0.2217165602      0.2647805636      0.0550122581
H      -4.3471194375      0.4027253821      2.0571692204     -0.2694036607     -0.1547211123      0.1274179415      0.0183273691
H      -3.8426384529      1.8942436386      1.2443392972     -0.0986633499      0.2351647901     -0.0773613635      0.0862752563
H      -2.9208899666      1.2860394045      2.6276423620      0.0818674353      0.1338358132      0.3130217994      0.0259442990
H       0.6801992699      4.6404728191     -0.4146844019     -0.1433169039      0.1851307082     -0.1849721161      0.0943938533
H       1.9851471800      4.2376893446      0.7148513292      0.3090331856      0.1092200384      0.1247393920      0.0083745839
H       0.2931669941      4.0947505908      1.2238899271     -0.1837283266      0.1538652450      0.2609929450      0.0245046720
P      -1.8007505305      4.2628753901     -3.1678969133      0.4044841372     -0.1011745232     -0.3652869084      1.7659645957
F      -0.7107395769      3.0801712014     -2.5995317453     -0.1183489721      0.1279299729      0.0476738836     -0.5571204389
F      -1.6351340902      5.1601076668     -1.7657186774     -0.0586090412     -0.0131949069     -0.1455077071     -0.5200278984
F      -1.9904127621      3.3244680158     -4.5634977521     -0.0701332080      0.1371343205      0.1818617462     -0.5328802658
C      -0.1516902311      5.1045975715     -3.8385008387     -0.8314281747     -0.8896434137     -0.1420341317      0.5450778175
C      -3.1311334739      3.1316018000     -2.1836386858      0.0143924321      0.9240245465     -0.3072136573      0.5049555534
C      -3.1246413234      5.5453803287     -3.9291102972      0.9625916602     -0.5355827962     -0.0464307590      0.5506119132
C       0.6959646751      4.4076710944     -4.9382901826     -0.6740672770      0.0788000196      0.4912175920      1.3957653911
C      -4.5521765256      3.5637870078     -1.7052079736      0.6162959639      0.0007605460     -0.2411931069      1.4073980805
C      -2.9620486943      6.2477476497     -5.3140568293      0.3356698069     -0.5138784259      0.5064293513      1.4068454073
F       0.6974413173      5.2335546472     -2.7954854452      0.9869212004      0.2079708133      0.9011046188     -0.4594826339
F      -0.4185912728      6.3479786298     -4.2753444481     -0.0283189159      1.2015521802     -0.4086123981     -0.4551179261
F      -2.4989144149      2.7734520707     -1.0392728397      0.4879166671     -0.1546016290      1.1793516333     -0.4674097195
F      -3.3259574261      1.9755995442     -2.8657642304     -0.4041652162     -0.9395299660     -0.7117784936     -0.4719636050
F      -3.4140856024      6.5105784838     -3.0445470321     -0.2108966416      1.0641105581      0.7038169002     -0.4408294564
F      -4.2283545013      4.7720498148     -4.0552858957     -1.0334174912     -0.5898398786     -0.4590672783     -0.4599601537
F       1.7669886409      5.1460639122     -5.2289243475      0.9857544068      0.8121995305     -0.1789720413     -0.4500481622
F       0.0342384275      4.1861620286     -6.0629385604     -0.5059324998     -0.1052971841     -0.9620017533     -0.4433351282
F       1.1486097599      3.2194875782     -4.4950693231      0.5049324313     -0.9643115201      0.2941840253     -0.4875107395
F      -4.8572256874      2.8812168567     -0.5868566986     -0.3769515520     -0.6286799653      0.9718489073     -0.4769148335
F      -4.6257220095      4.8527596131     -1.4115513093      0.0224533455      1.0520163182      0.3726794666     -0.4437026379
F      -5.4890947316      3.2626912876     -2.5961424794     -0.8905320202     -0.3862632849     -0.7821433545     -0.4455817559
F      -2.4991670786      7.4841669975     -5.1762021854      0.3262771437      1.2127170017      0.1380551327     -0.4457101189
F      -4.1397044376      6.3232106919     -5.9331868671     -1.1984854997      0.1186874463     -0.4966799836     -0.4504919346
F      -2.1335295352      5.5734161906     -6.1103983529      0.4643032900     -0.5531235558     -0.7586718650     -0.4545887397
