59
Properties=species:S:1:pos:R:3:forces:R:3:charge:R:1 energy=-326.15339328076834 homo_lumo=3.81999826771205 dipole="-0.3944183469193759 0.31859129492995436 -3.2755465144965257" free_energy=-326.15339328076834
N      -0.9320710556     -2.1952293801      0.5630371559     -0.3573917553     -0.1807750828      0.2128187652     -0.5091829815
N       1.1393997185     -1.8908405896      0.0627713214      0.4192090126     -0.0620825447      0.0147818008     -0.5119128952
C      -2.1679804619     -2.2906358690      1.3370649089     -0.4112984186      0.4042596041      0.0116995619     -0.0361017801
C       2.5628688204     -1.5970323781      0.2049641019      0.1708188446      0.4697327374     -0.2577776463     -0.0211688287
C      -2.8735386409     -0.9328211769      1.4034126672      0.5763481055     -0.0996236159      0.3183219113     -0.1767690904
C       2.8543560306     -0.1458311814     -0.1872021487     -0.3311302940     -0.1306164501      0.5846403401     -0.1743107670
C       0.2627831448     -1.8930619993      1.0624790985      0.1479472487      0.0062435762      0.2427273046      0.5333697344
C      -0.8204308890     -2.3679775466     -0.7900270294     -0.0708164574     -0.0272927769     -0.2971610317      0.2139592753
C       0.4883105710     -2.1769826745     -1.1067126586     -0.0337180091     -0.0123170556     -0.3174797342      0.2063738943
C      -2.0738202180      0.1069377063      2.1936987882     -0.5790065853      0.0485588433     -0.2051158256     -0.2931674576
C       2.2263074133      0.8572206483      0.7849881360      0.3742504232      0.1011558997     -0.4923295374     -0.2896588131
C      -2.8304776576      1.4293705786      2.2900972032      0.3382551474     -0.3193868783     -0.0459328368     -0.0447255915
C       2.5050577930      2.2949857518      0.3540312219     -0.1939327169     -0.3892555823      0.1859723040     -0.0468579797
H      -2.8068333888     -3.0289751860      0.8465427301     -0.0270837920     -0.2414396364     -0.1138981545      0.0939285423
H      -1.9099960535     -2.6439674438      2.3377082155      0.0618900953     -0.0979934939      0.1210644852      0.2048603141
H       2.8348072796     -1.7858242434      1.2460391319      0.0299493889     -0.0801277937      0.1088566235      0.1711617804
H       3.1107168219     -2.2857260616     -0.4431374881      0.0547804943     -0.2621200851     -0.0693668383      0.0999497433
H      -3.8407044413     -1.0957663441      1.8874547282     -0.2988322030     -0.0461006170      0.1039752311      0.0995529985
H      -3.0601737747     -0.5732625056      0.3861126114     -0.1373253535      0.1045283005     -0.2941958437      0.0829213228
H       2.4865046629      0.0322068415     -1.2029139001     -0.0318937551      0.0687122832     -0.3211050511      0.0908232536
H       3.9407212187     -0.0193700848     -0.1948367855      0.3094243813      0.0392468261     -0.0586769582      0.0954994911
H       0.4895413951     -1.7094962476      2.0956204106     -0.1172927722      0.0017186304      0.2344864294      0.2534396623
H      -1.6649481758     -2.6198750755     -1.4073783033     -0.2056863549     -0.0724418706     -0.1275736336      0.0343829973
H       1.0005659249     -2.2304157386     -2.0513537394      0.1314965830     -0.0210326750     -0.2152005976      0.0340049516
H      -1.8758127186     -0.2745874365      3.1988491554      0.1530163921     -0.1113992905      0.1883310372      0.1612318463
H      -1.1099408132      0.2771803903      1.7025479668      0.2242604971      0.0659316736     -0.0412590965      0.1505515238
H       1.1442798088      0.6941878545      0.8297316545     -0.2362042925     -0.0095205522      0.0785152184      0.1461497904
H       2.6314067251      0.6924594923      1.7870939612     -0.0105662781     -0.0676883538      0.1773244086      0.1546675340
H      -3.7850557365      1.2873062231      2.7977797362     -0.3003841292      0.0045464195      0.1586595739      0.0304097225
H      -3.0210596933      1.8379750422      1.2964001042     -0.1044419157      0.1845812625     -0.2821587690      0.0161765204
H      -2.2398557821      2.1492621982      2.8559043760      0.0997383465      0.2948331857      0.1744150602      0.0449702413
H       2.0858626415      2.4889405554     -0.6344402118     -0.1028072546      0.1249630823     -0.3041241775      0.0192807256
H       3.5787871328      2.4824757428      0.3203589412      0.3198635805      0.1104414863     -0.0217991533      0.0298696475
H       2.0539181915      2.9855449932      1.0659303670     -0.0946728800      0.2978126324      0.1659913497      0.0465994328
P       0.6230321916     -2.0822296697      5.1896970663      0.2207998704      0.3215048304      0.1946335727      1.6972999683
F      -0.2196475851     -0.7657620509      5.7779978744     -0.0549225044     -0.0013653623     -0.0698468016     -0.5223606382
F      -0.4502508614     -2.1221254714      3.8395516259      0.2964990578     -0.0174004297      0.0342515936     -0.5583733785
F       1.7083694961     -2.0832050709      6.4578531202     -0.2173956321     -0.0796543218     -0.0971676032     -0.5218832053
C       1.6939417368     -0.6872636267      4.2731579976     -0.3705218504     -0.3449071030      0.9479834604      0.4957123810
C      -0.6045724472     -3.1747315285      6.2554089424      0.0307883381      0.4006787772     -1.0626195525      0.5639775331
C       1.5250489591     -3.6427932323      4.2917005056      0.0109457772      0.6736724102      0.8426609723      0.5751273007
C       2.4464730315      0.3695028755      5.1284971886     -0.4755314637     -0.6188645892     -0.0429413246      1.4125158468
C      -2.0067439380     -3.4681756884      5.6545165454      0.8109953913      0.2928650075      0.0108700882      1.3848538763
C       2.8750855745     -4.1752424941      4.8324897827     -0.7132151888      0.6063071679      0.0177366526      1.4104163651
F       0.8560699525      0.0159924242      3.4707393349     -0.7315562944      0.8288729398     -0.5677218333     -0.4706142140
F       2.6489910577     -1.1818030262      3.4478333779      1.1425548586     -0.2619683878     -0.6259093650     -0.4837547007
F      -0.8273228928     -2.5289476199      7.4112447629     -0.3328642295      0.5858208281      1.1680786834     -0.4383691875
F      -0.0423434281     -4.3513231089      6.5783632897      0.3788316917     -1.2167260094      0.4653760892     -0.4493989761
F       1.7417160561     -3.3470486969      2.9771117678      0.2956890567     -0.0440460809     -1.1194443152     -0.4812572480
F       0.6648085009     -4.6770080728      4.2704654649     -0.5384219176     -1.0754172013     -0.1476623912     -0.4506944211
F       2.9469743253      1.3017058164      4.3015643765      0.4607181856      0.8772914282     -0.8689237585     -0.4687763173
F       3.4665270919     -0.1810238928      5.7744190332      0.9464862300     -0.5480738971      0.5016888626     -0.4423810160
F       1.6677912827      0.9859331543      6.0029078368     -0.6793550538      0.5584575900      0.6933273406     -0.4390738346
F      -2.7506974521     -4.1651638794      6.5108187129     -0.5990351265     -0.7027690808      0.9318653325     -0.4497070563
F      -2.6505394871     -2.3323004099      5.3837939014     -0.6296524065      1.0536043069     -0.1067643905     -0.4577279532
F      -1.9336306318     -4.1700564561      4.5202348406      0.0402458729     -0.7636629565     -0.8669157783     -0.4661755311
F       3.3586856465     -5.1282300522      4.0307153759      0.3354391227     -0.9435747367     -0.8580860555     -0.4569032157
F       2.7409617654     -4.6870874580      6.0478132037     -0.2078361496     -0.5070158188      1.0343479885     -0.4408414228
F       3.7745337535     -3.1930750212      4.8818317804      0.8135510404      0.8303186011     -0.0262439870     -0.4518897162
