25
Properties=species:S:1:pos:R:3:forces:R:3:charge:R:1 energy=-143.47615217720784 homo_lumo=3.855024834059116 dipole="2.365457763452525 0.7576193091582685 1.5844165538808932" free_energy=-143.47615217720784
N      -0.4505816858      0.1701640237     -1.1286621274     -0.0024783271     -0.0012976934     -0.0017163639     -0.5462105564
N      -1.7938955512      0.1460856469      0.5739197307      0.0001212139      0.0007554773     -0.0020410060     -0.5515273520
C      -1.4275582470     -0.5224748990     -0.5276667303     -0.0071940104      0.0004078729     -0.0056094660      0.6238953655
C      -0.2107055881      1.3224745349     -0.4104849406      0.0061609083     -0.0025372960      0.0013484461      0.2217584846
C      -1.0527514970      1.3062890893      0.6616250404      0.0053170286     -0.0023531251      0.0031899200      0.2192384043
C       0.1202798096     -0.1342141867     -2.4376741457     -0.0049368107     -0.0064235367     -0.0007273000      0.0829724342
C      -2.8786489197     -0.2312358339      1.4799558110     -0.0003728216     -0.0003086571     -0.0079440799      0.0809900638
H      -1.9064711654     -1.4237053670     -0.8981290211     -0.0175803989      0.0158275845     -0.0150231314      0.1521107508
H       0.5279912382      2.0499641701     -0.7232962703      0.0078284819     -0.0078158380      0.0005395574      0.0465326989
H      -1.1864901625      2.0111870863      1.4725230283      0.0060073757     -0.0040561478      0.0004255161      0.0464968256
H      -0.0404942182     -1.1933020436     -2.6605284024     -0.0150037039     -0.0034951860      0.0007191838      0.0852176470
H      -0.3972822921      0.4732289180     -3.1913663098     -0.0006603540     -0.0044646448      0.0009990167      0.1001873199
H       1.1943305593      0.0886839510     -2.4173646725     -0.0049005942     -0.0110226668      0.0090410087      0.0742409769
H      -2.5545668622     -0.0461004703      2.5112077470      0.0031559779     -0.0034735359     -0.0068346533      0.0673561070
H      -3.7693189851      0.3585839627      1.2289497533     -0.0000141661      0.0028503811     -0.0059363386      0.1053025226
H      -3.1108171746     -1.2900852272      1.3323020305     -0.0079633071      0.0008129318     -0.0139593937      0.0978906225
N      -4.9938816228     -0.9396857495     -3.0038810018      0.0039121800     -0.0055447017      0.0063100477     -0.8435400640
S      -3.5935209869     -0.3264323283     -3.4533504680     -0.0056974771      0.0249391920      0.0032804980      1.9218400658
S      -5.2397335281     -1.3496375938     -1.4763242791      0.0076580674     -0.0108983590      0.0085355208      1.9335897405
F      -2.5352047803     -1.6404967022     -3.3155210426      0.0125587263     -0.0002542125     -0.0050250753     -0.4923632172
F      -5.3672421944      0.1226743880     -0.6965121608      0.0002292926      0.0033312716      0.0041862731     -0.4764537444
O      -3.6193912011     -0.0570260229     -4.8718653209      0.0012872610      0.0139257376     -0.0042996305     -0.7032515918
O      -2.9872135696      0.6367192129     -2.5358262179      0.0078263838      0.0097882109      0.0135033393     -0.7625524076
O      -4.0940445217     -1.9609238883     -0.7997784759      0.0058506673     -0.0035586154      0.0102585682     -0.7861529963
O      -6.5506513817     -1.9379675259     -1.3516741003     -0.0011115937     -0.0051344435      0.0067795429     -0.6975681005
