47
Properties=species:S:1:pos:R:3:forces:R:3:charge:R:1 energy=-254.25985352234107 homo_lumo=1.3279994633490637 dipole="-3.945124634415474 -0.25251608156175936 -3.212566061739334" free_energy=-254.25985352234107
N      -1.8958680944      0.1288614212     -0.0380312244      0.0037026580      0.1119814165     -0.0759099821     -0.5242320225
C      -2.1152922735     -1.0766968026     -0.8941717392      0.1939988491     -1.8168672709     -1.4712508885     -0.0049863436
C      -3.0019821189      0.0955674998      0.9680989863     -1.6206143101      0.5272694172      1.6896849981     -0.0086243161
C      -0.5763980067      0.0309946262      0.6673805294      1.8964624111      0.0574701177      0.4473458101     -0.0700635172
C      -3.4863347211     -1.6415681862     -0.5785531353     -0.6056143280     -0.0497553810     -0.6084948124     -0.1400622493
C      -3.7164534763     -1.2373592968      0.8503644945     -0.0522990494     -0.5405016304      0.6580432378     -0.1424090556
C      -2.0026676914      1.3650023999     -0.8798547373     -0.0256805686      1.6572647962     -0.7436104478     -0.0830022504
C       0.6589723782      0.0605926198     -0.2664887321     -0.4320292687      0.0061338877      0.0887848222     -0.2078185392
C      -1.7606410057      2.6804429802     -0.1166744370      0.1309247914     -0.2610930233      0.1131745195     -0.1246946366
C       1.9471022651     -0.1601069547      0.5350953223     -0.1195515459      0.0664326746     -0.0134413056     -0.1908097190
C       3.1808912600     -0.1737143192     -0.3765793372     -0.0711700485     -0.0356697998      0.3920938856     -0.1629610318
C       4.4648507651     -0.3427884138      0.4445969937      0.1165553654      0.0511888557     -0.1468553566     -0.2119994243
C       5.7010639879     -0.3523069620     -0.4487931541      0.1616481664     -0.0301094048      0.0443769830     -0.0729968654
H      -1.3793870484     -1.8851233352     -0.6778144679      0.0479768473      0.7599918584      0.1787368194      0.1606217465
H      -2.0366191709     -0.8628933085     -1.9847771627      0.2369733143      0.2761748986      0.5869732857      0.1374978376
H      -3.7654182503      0.8860733735      0.7830479872      0.6817285251     -0.0488975272     -0.2744655430      0.1440103927
H      -2.6496690275      0.2418282140      2.0150233695      0.2712094636      0.1365430631     -0.6394126950      0.1623386731
H      -0.5434363021     -0.9116892297      1.2622445620     -0.3564015859      0.2971348688     -0.2918115347      0.1725434560
H      -0.4713635518      0.8510337568      1.4121848903     -0.3090123015     -0.2103029896     -0.3024792304      0.1964487297
H      -3.5185124959     -2.7464135990     -0.7002280662     -0.0223414887      0.4490548972     -0.2006763721      0.1033385406
H      -4.2510253021     -1.1696986854     -1.2345111717      0.1433450173     -0.2610327895      0.1202228939      0.0970501413
H      -4.8008416477     -1.1492693398      1.0797847481      0.4662595221     -0.0516784712      0.1557048363      0.0999929409
H      -3.2478667514     -1.9793058175      1.5342225652     -0.2537796083      0.1917675955     -0.1212889798      0.1153015046
H      -1.2915837313      1.3268311309     -1.7336677772     -0.0743359716     -0.3964113135      0.4658292468      0.1614124317
H      -3.0144791992      1.4206844585     -1.3435440996      0.2258191285     -0.4765554273      0.3525069241      0.1436028836
H       0.5789576509     -0.7264760318     -1.0452605451     -0.0485369002      0.1666228321      0.0424296365      0.0919188842
H       0.7342895439      1.0456591834     -0.7715453640     -0.0902462550     -0.1889656832     -0.0129425981      0.1080288524
H      -2.0047386997      3.5362446423     -0.7806101022      0.0291858761     -0.3335938236      0.1425557406      0.0848544991
H      -2.3982332630      2.7549356302      0.7875004341      0.2095268188      0.0435004962     -0.2294612244      0.0753421941
H      -0.6964179070      2.7825068129      0.1775992839     -0.3339203991     -0.0057584624     -0.0019523639      0.0999706238
H       1.8837358443     -1.1297070297      1.0763401233      0.0790809363      0.3990261683      0.0883326603      0.1182813395
H       2.0512002136      0.6576244766      1.2815660016      0.0373785896     -0.4240770491      0.0448380088      0.1734367180
H       3.2313642385      0.7809630097     -0.9450413372     -0.0030474818     -0.1991733982     -0.0111462367      0.0618641023
H       3.0933847480     -1.0137398268     -1.1004961505      0.0282171364      0.1993902741     -0.0132652267      0.0554389871
H       4.5561733811      0.4932535625      1.1720555997     -0.1951859895     -0.4051373302      0.0023682283      0.1386364422
H       4.4250391060     -1.3003812389      1.0078616330     -0.1014764215      0.4195414528      0.0662391086      0.1121548190
H       5.7749026123      0.5993827222     -1.0165916008      0.0776213434     -0.2775363651      0.0434459573      0.0217285911
H       6.6105835039     -0.4618896544      0.1792196013     -0.1607844062      0.0371939975     -0.2925601953      0.0458989653
H       5.6562333689     -1.2042826066     -1.1599818225      0.1206643027      0.2522436680      0.0645856532      0.0171958626
S       2.8172896697      0.3156601969      4.4660934266     -3.1524712404      1.0802653932     -9.9338583692      1.5922516992
O       3.3641389641     -0.7190325832      3.4733078743      0.6989637797      0.0000221832      3.0817818178     -0.7874112943
O       1.2966927933      0.2103237711      4.2745623048      1.2024080018     -0.2711399654      2.7071360516     -0.7997287887
O       3.1645066660      1.6558528710      3.8001342248      0.7244847458     -0.8154014929      2.9500294127     -0.7801607162
C       3.4085500092      0.1133738146      6.1709446007      0.3241057470     -0.0792187944      0.8235663528      1.1142473425
F       4.7781826055      0.2943442438      6.2080342875     -1.0640230890     -0.2060537370      0.3294394760     -0.4293979398
F       3.1018427778     -1.1583019431      6.6166320872      0.3550179465      1.0075404062      0.0001489806     -0.4319779218
F       2.7987935966      1.0467233382      6.9870866016      0.6292629742     -0.8088240887     -0.2954919852     -0.4320725689
