47
Properties=species:S:1:pos:R:3:forces:R:3:charge:R:1 energy=-257.1227148211565 homo_lumo=4.489957594941158 dipole="-0.5116281850828545 1.639620530407079 -2.1919192803545604" free_energy=-257.1227148211565
N      -1.6767422281     -0.0814440269      0.3592548617      0.2049871534      0.0822683180     -0.0509608030     -0.5008148700
C      -1.8297253490     -1.3792655476     -0.3917919924     -0.2879433757     -0.4393799065     -0.2726938526     -0.0032868040
C      -2.6972453631     -0.1409966535      1.4801470165     -0.4702432621     -0.1254196930      0.3105711778     -0.0044969350
C      -0.2949900012      0.0245033537      0.9391120230      0.5796701048      0.0900636570     -0.4671158197     -0.0733348319
C      -3.2859088661     -1.7696930938     -0.2093578194      0.1951605785      0.1307909625      0.1353348388     -0.1309738535
C      -3.5508337827     -1.3852230453      1.2425790730     -0.0320686664      0.0599041956     -0.0659901170     -0.1441078340
C      -1.9839713549      1.0540873915     -0.5713442782      0.0476655764      0.5549466558      0.0993715397     -0.0587434096
C       0.8210266564      0.0834623702     -0.0991438951     -0.1412408127     -0.0086118625      0.6104566557     -0.1985993817
C      -1.7825367566      2.4354809052      0.0366380681     -0.0294938282     -0.4681739050     -0.1612428933     -0.0758906633
C       2.1569090148     -0.1693237925      0.6119993258     -0.1262161266      0.1312312147     -0.7950683625     -0.1772994960
C       3.3379298700     -0.0549268481     -0.3540511124      0.0520169316     -0.1865156023      0.8529034270     -0.1534983181
C       4.6557976460     -0.3787237607      0.3578658650     -0.0275953064      0.2006527309     -0.7443203908     -0.1986100005
C       5.8463203492     -0.2592878988     -0.5919631314     -0.2348093175     -0.0701385713      0.4169163345     -0.0438574978
H      -1.1847210515     -2.1147706477      0.0926918654      0.1008878832     -0.0709329322      0.2173242974      0.1938261153
H      -1.5324707411     -1.2434653883     -1.4311644351      0.0914615422      0.1214778769     -0.2337733666      0.0914934271
H      -3.2951731260      0.7699238301      1.4551975057     -0.0719360135      0.2373318658     -0.1180518869      0.1064416293
H      -2.1651520944     -0.1961198628      2.4312377897      0.2168695101     -0.0237457797      0.2132973951      0.1919871299
H      -0.1642967729     -0.8594307342      1.5627763174     -0.1488097512     -0.1143821911      0.1459736033      0.2763139961
H      -0.2722636296      0.9037492680      1.5849183419     -0.0581926090      0.1505253272      0.1930490365      0.1272498615
H      -3.4235593669     -2.8375051011     -0.3822397026     -0.0595472853     -0.2669043161     -0.1076610495      0.0879281393
H      -3.9337956754     -1.2148210977     -0.8940956174     -0.1808849302      0.1002285703     -0.2185157375      0.0682073294
H      -4.6053852397     -1.1796851371      1.4302866909     -0.2835780497      0.0317305256      0.0837892253      0.0567227698
H      -3.2208641166     -2.1891490795      1.9040670280      0.0868475649     -0.1386647309      0.1202071233      0.1605251845
H      -1.3402539678      0.9429107351     -1.4471317734      0.1170473940     -0.1043772986     -0.1747372198      0.1371852390
H      -3.0226550367      0.9297700749     -0.8867796741     -0.2186293806     -0.1250275579     -0.0773653569      0.1406317251
H       0.6732491418     -0.6832155635     -0.8641407875     -0.0011637300     -0.2130701795     -0.2228975383      0.0975484831
H       0.8440436929      1.0588021594     -0.5955749607      0.0514396962      0.2472296512     -0.2072188675      0.0831803093
H      -2.1625821888      3.1710176208     -0.6722084096     -0.1123074582      0.2576691992     -0.1824017341      0.0614762208
H      -2.3238181661      2.5513995310      0.9736228689     -0.1753083846      0.0947353624      0.2910894236      0.0557817430
H      -0.7287146399      2.6437329112      0.2112591790      0.2990168180      0.0971591167      0.0681855226      0.0608680654
H       2.1385730559     -1.1709832137      1.0517947129     -0.0137819272     -0.1596753837      0.1480364624      0.1421047640
H       2.2775578293      0.5509876706      1.4276196532      0.0438567776      0.1360288107      0.2691009101      0.0884065926
H       3.3813281959      0.9603805785     -0.7644472931      0.0297454836      0.2646997257     -0.1652897328      0.0712160502
H       3.1940868513     -0.7476473462     -1.1907230318     -0.0265156051     -0.1631033260     -0.2574752539      0.0763996255
H       4.7910108745      0.3074598541      1.2004089870     -0.0053870867      0.1255888376      0.2712414905      0.0838959022
H       4.6100657056     -1.3961837305      0.7590162425     -0.0558053666     -0.2384524072      0.1820910559      0.0898925824
H       5.9216221765      0.7552263530     -0.9863592817      0.0672661173      0.2993569969     -0.1522324101      0.0236728976
H       6.7700737606     -0.4960247634     -0.0638429961      0.3639751084     -0.0548992570      0.0551675407      0.0324746639
H       5.7381076377     -0.9499767359     -1.4295246033      0.0084164252     -0.1928969716     -0.2796878840      0.0259026460
S      -0.8040625181     -2.4786394796      3.5131583721      0.1808155165     -0.0172009475      0.0443794236      1.7529327968
O      -0.7876719926     -1.0361476174      3.7388115240      0.1972931048      1.2238552196      0.3302636147     -0.8170366200
O      -0.9122447937     -2.8266143584      2.0942151051      0.1180087204     -0.4304922268     -1.2161256616     -0.8389912002
O      -1.6617283585     -3.2314445466      4.3887013116     -0.7431492655     -0.9402484400      0.9849218865     -0.7673633480
C       0.9295712704     -2.9868278954      3.9187248734     -0.9584580283      0.3948780501     -0.3118067498      1.1581163182
F       1.2508280969     -2.6998127525      5.1718345922      0.2873167238      0.3158736803      1.3825658219     -0.4419778303
F       1.7748625343     -2.3256394514      3.1152552432      0.9556051132      0.6456149613     -0.7500106181     -0.4700913040
F       1.1125286093     -4.2852839772      3.7214608739      0.1676957232     -1.4415280260     -0.1935945006     -0.4434080094
