33
Properties=species:S:1:pos:R:3:forces:R:3:charge:R:1 energy=-190.04067436360108 homo_lumo=2.4554742237903047 dipole="-2.2384262335829574 0.8277481329853392 -0.6155998090114112" free_energy=-190.04067436360108
N       1.8633676654      0.4399507735     -0.0303705900      0.0012495800      0.0058042211     -0.0007683187     -0.5107620516
C       2.4553830327      1.7780765277     -0.3225036525     -0.0048319018     -0.0097608434     -0.0063536052     -0.0817580387
C       0.8993166944      0.3296587898      0.9152484977     -0.0026508162      0.0006792323     -0.0075354524      0.2685587259
C       2.3164900693     -0.6491392826     -0.6890209265     -0.0000723678     -0.0032035328      0.0007121298      0.3000584435
C       3.0761419465      2.4265285013      0.9012927032      0.0026622500     -0.0037312254      0.0040168465     -0.1170542673
C       0.3456411932     -0.8940516011      1.2145754033     -0.0076704187     -0.0026871803      0.0003984297     -0.0217175023
C       1.7644432327     -1.8957143801     -0.4396799872     -0.0007697304     -0.0081232809      0.0014612361      0.0005575088
C       0.7844889859     -2.0290543003      0.5288588042     -0.0029734984     -0.0061305727     -0.0007100213      0.0526471793
H       3.2253793111      1.6075542782     -1.0856789956     -0.0003186855     -0.0067210958      0.0000871922      0.1593033115
H       1.6462741043      2.3895641421     -0.7536060544     -0.0003428176     -0.0069240463     -0.0006709214      0.1142781007
H       0.6135814511      1.2486243117      1.4205000894     -0.0145500595      0.0060124676     -0.0144355498      0.1079532851
H       3.1248251187     -0.4817892563     -1.3970676018      0.0026805187     -0.0052253138     -0.0013803548      0.1385332936
H       2.3406842636      2.6322517769      1.6921502066     -0.0057053405     -0.0067428669     -0.0020176411      0.0379676078
H       3.5121434732      3.3875177655      0.5910994388      0.0020701029     -0.0040161500      0.0057319867      0.0672040379
H       3.8828896201      1.8045234490      1.3107846056     -0.0015824497     -0.0039360823      0.0034157201      0.1417371143
H      -0.4092162122     -0.9591156098      1.9975801107     -0.0102549125      0.0002590445     -0.0057628133      0.0557328911
H       2.1683676669     -2.7596911188     -0.9648751148      0.0059097403     -0.0058257476      0.0102125348      0.0687816615
H       0.3824735641     -3.0127919830      0.7738246350     -0.0006612562      0.0066064349     -0.0020759877      0.0661752797
N       4.5540049819     -1.2939204544      0.6291452018     -0.0009663643      0.0021020872      0.0033397003     -0.8900251988
S       5.7272588879     -0.2559892006      0.2467949249     -0.0037170594      0.0116995078     -0.0035761464      1.6180348393
S       4.4806213414     -2.1930083520      1.9663332743      0.0048293860     -0.0086831452      0.0020984209      1.6465584524
C       7.2716946027     -1.2660351867     -0.2000074474     -0.0071915550     -0.0018070597      0.0148343941      1.1838408605
C       3.9561787294     -1.0396852529      3.3812482704      0.0251352012      0.0180690000     -0.0031528850      1.1719007117
O       5.3116730171      0.3284000647     -1.0347962010      0.0002598824     -0.0104942901      0.0057162805     -0.7764673054
O       6.1537377167      0.6253120311      1.3286036286      0.0127279590     -0.0091191654     -0.0135799735     -0.7279136592
O       5.7452071436     -2.7542193595      2.4128789600     -0.0100395887      0.0194168691      0.0078593142     -0.7104749440
O       3.3004163771     -3.0412200948      1.8066422998      0.0159466310      0.0122559584      0.0025704554     -0.7499007463
F       8.0715544991     -0.4882340072     -0.9676126028      0.0087709278      0.0084545988     -0.0206169166     -0.4332665038
F       6.9338475130     -2.3698824861     -0.9047813687     -0.0072359387     -0.0167326489     -0.0101742412     -0.4349258606
F       7.9490529419     -1.6311111937      0.9000493960      0.0121746391      0.0001252058     -0.0022804769     -0.4208032396
F       3.3961879693     -1.7843069098      4.3633387659     -0.0022711056     -0.0008086809      0.0240686166     -0.4351019108
F       3.0180670271     -0.1402132094      2.9551613014     -0.0126232650      0.0165301499      0.0042296908     -0.4650053168
F       4.9933542421     -0.3581570820      3.8959833721      0.0020123131      0.0126581513      0.0043383566     -0.4246467595
