23
Properties=species:S:1:pos:R:3:forces:R:3:charge:R:1 energy=-129.29261941169315 homo_lumo=3.3327035780262904 dipole="0.01534888710786678 1.5381153727636034 -0.2200280018609618" free_energy=-129.29261941169315
N       1.0676506344      0.4575675574     -0.5226576175      0.0216368322     -0.0000724520     -0.0050268524     -0.5030298007
N      -1.1102614669      0.4558188654     -0.5164211901     -0.0217443760     -0.0001676723     -0.0056958460     -0.5017687799
C      -0.0222714726     -0.1415557322     -1.0482820722      0.0001059784      0.0006647763     -0.0158335017      0.5682439353
C       2.4436263706      0.0173010026     -0.7588083365      0.0056976818      0.0024264636     -0.0036179792     -0.0450438343
C      -2.4849668930      0.0051846569     -0.7420650985     -0.0057214631      0.0025794364     -0.0031000958     -0.0446018100
C       0.6608001212      1.3374609488      0.4678204835     -0.0025869636      0.0102179511      0.0059975652      0.1988586878
C      -0.6994028355      1.3366859785      0.4711250820      0.0022049411      0.0104375798      0.0060157347      0.1998958500
C       2.9622639086     -0.8412243577      0.3855900753     -0.0017195859      0.0065464865      0.0000331525     -0.0889066346
C      -3.0174291572     -0.7817859178      0.4466464869      0.0019787714      0.0046295323     -0.0015444502     -0.0894600753
H      -0.0237504289     -0.7893230789     -1.9121283793      0.0004798903      0.0237354052     -0.0097990959      0.0994238993
H       2.4288028886     -0.5576703032     -1.6957646536      0.0005867907     -0.0059724293      0.0047473917      0.1159876217
H       3.0560286246      0.9192812304     -0.9208831873      0.0046865785     -0.0065616839     -0.0093199439      0.0979185608
H      -3.0954510042      0.8944876616     -0.9687302666     -0.0053540116     -0.0059953885     -0.0059310437      0.0981091391
H      -2.4563764246     -0.6308465381     -1.6381680449     -0.0021753588     -0.0029507411      0.0033409604      0.1178007906
H       1.3713956825      1.8913183136      1.0676353695     -0.0035448077     -0.0045737057      0.0053249640      0.0306296645
H      -1.4068429967      1.8899730169      1.0750055836      0.0025490489     -0.0058514312      0.0053532405      0.0317414840
H       3.0035751099     -0.2673588959      1.3233093971      0.0072300842      0.0060532001      0.0024529467      0.0313399246
H       3.9778480383     -1.1897010121      0.1468269721      0.0062782469     -0.0106049733      0.0102563500      0.0355075301
H       2.2895602716     -1.7051108113      0.5168689878     -0.0008007297      0.0036108317      0.0038311384      0.1223507602
H      -2.3426108245     -1.6322393587      0.6385019741      0.0001104830      0.0000079254     -0.0006678575      0.1207047238
H      -4.0263944889     -1.1527964307      0.2141900533     -0.0064006882     -0.0082489282      0.0091044793      0.0374817184
H      -3.0799062011     -0.1509097395      1.3459526077     -0.0039202011      0.0013443870      0.0028178093      0.0295737151
Cl     -0.0501887717     -2.5847006592     -0.1708151788      0.0004228581     -0.0212545699      0.0012609337     -0.6627570705
