45
Properties=species:S:1:pos:R:3:forces:R:3:charge:R:1 energy=-245.6492571780942 homo_lumo=5.541095658179232 dipole="-2.4050542174191865 -0.19580549165184274 1.0934925393534973" free_energy=-245.6492571780942
C       3.2217186782      0.3398010959      2.8364290390     -0.1209541852      0.0818650030     -0.1267115065     -0.1460836498
C       2.6698220529      1.2391890850      1.7438591736      0.4517191061      0.0193118439      0.4506331282     -0.0320816432
H       2.9763835415     -1.0904472033      0.0462587014      0.0445218538     -0.0410917847     -0.1771587351      0.2566571732
H       1.5970270418     -1.7445616016      0.9558782487     -0.2317487848     -0.0997073546     -0.0577116949      0.0937456308
H       4.2906723287     -1.2967928839      1.8983166569      0.1972181084     -0.0399018032     -0.1305329666      0.1252163170
H       2.9187198312     -1.8168783470      2.8909533033     -0.0395053759     -0.2143315160      0.1928422747      0.0667977563
H       2.5799620390      0.3480268860      3.7206265003     -0.1563378583      0.0218977497      0.2484693906      0.0604704794
H       4.2184868372      0.6805701608      3.1213368146      0.1710281060      0.1397904216      0.0791016812      0.1312163605
H       2.1234472471      2.1078488864      2.1114523620     -0.1859494477      0.2451851645      0.0130102790      0.0775434375
H       3.4717437736      1.5612555048      1.0807902287      0.0186197708     -0.0440486469     -0.0225221289      0.2634923354
H      -0.2216405469     -0.3843622167      1.0806461168     -0.1543691502     -0.1864990976     -0.1432594576      0.0987511350
C       0.4165808021      0.3296998264      1.5954295597     -0.0223304854     -0.0381505776     -0.0094502167      0.0729462891
H       0.5501664875      0.0169562826      2.6288958375      0.0717491269     -0.0961046375      0.2907740125      0.1095139932
H      -0.0317004378      1.3212973773      1.5627440175     -0.1220741974      0.2811467215     -0.0032667743      0.0716160962
C       1.6461720788      0.9730762809     -0.4475359086     -0.4705195859     -0.0436417389     -0.5023124979     -0.0666523004
H       1.4714617686      2.0417915823     -0.2966317003      0.0246701542      0.2556707045      0.1185492150      0.1147871823
H       2.6270027537      0.8479308179     -0.9102551858      0.0840661467      0.0255811768      0.0417209342      0.2492274979
H      -0.4346259968      0.5833105912     -0.9159671191     -0.3120612795      0.1190192522      0.0214920797      0.0756857081
H      -0.1418847064     -2.4203922941     -3.2021869404     -0.0441491017     -0.3181351440     -0.1696068403      0.0378104015
C       0.7132076318     -1.0359181388     -1.7889554468     -0.3655311751      0.3852258315     -0.2572736832     -0.2655657945
H       1.7368342639     -1.2076248562     -2.1303579719      0.2650797857     -0.0729689989      0.0412881905      0.1654932972
H       0.5195334255     -1.6992599377     -0.9402062032      0.0283237082     -0.2150357340      0.1815263227      0.0957023822
C      -0.2596797365     -1.3754613759     -2.9166488721      0.2609915847     -0.0382276128      0.4013923509     -0.0422440020
H      -0.0631347597     -0.7526041186     -3.7896591559      0.0338688241      0.1717387007     -0.2921069507      0.0335401197
N       1.7443105946      0.3759270558      0.9337841465     -0.2974810032      0.1854307775     -0.1010386635     -0.5349508138
C       2.3810087390     -0.9876622853      0.9522901876      0.3240996588     -0.4757359205      0.1043312224     -0.0326851219
C       3.2695489176     -1.0511407767      2.1969805269     -0.0762876992     -0.0317437665     -0.0074340310     -0.1269561006
H      -1.2908038430     -1.2146080092     -2.5980871599     -0.3612655100      0.0302186700      0.0251466848      0.0186317325
C       0.5528048071      0.4264424997     -1.3612714893      0.4880746193     -0.4303231178      0.3472381844     -0.1813596161
H       0.6024797551      1.0547675036     -2.2571005561     -0.0108994630      0.1944423039     -0.2070669598      0.1216170363
N       4.9842453745      0.2191473901     -0.2520384779      0.3072409310      0.0944456184     -0.3191797342     -0.9036732934
S       5.9894662807      1.4126374176      0.1371052026      0.0104824983     -0.0866357060      0.4549258820      1.6347400267
S       4.8631620575     -0.1944952479     -1.8031500823     -0.4052332356     -0.2317909630      0.1665196946      1.5957277963
C       5.3386081403      3.0082900797     -0.6129976656     -0.0015628752     -0.8815767616      0.2513973762      1.1954275790
C       6.4986784205     -0.8393523461     -2.4604843269     -0.6564762720      0.3793727513      0.5269140977      1.2118589610
O       5.7936980142      1.6208907199      1.5550118446     -0.2635834570      0.2945059720      1.0357768248     -0.7743820933
O       7.3294243905      1.2707873167     -0.3635404726      0.9633894277     -0.0017230813     -0.6129023827     -0.7290752498
O       4.4902481226      0.9024667857     -2.6681189441     -0.0047206505      0.7624906736     -0.6981605763     -0.7396446530
O       3.9988042699     -1.3597833004     -1.8082665382     -0.4291287421     -1.0012685874      0.0010526865     -0.7895495378
F       5.6765036315      4.0213899047      0.1673854732      0.4711209190      1.0725067445      0.8458944900     -0.4346403333
F       3.9989108328      2.9541581999     -0.6533599431     -1.2304920802      0.1601217604     -0.0885835264     -0.4677121389
F       5.7965111008      3.2229065274     -1.8242882058      0.5596983211      0.2666075479     -1.2626352872     -0.4231199949
F       6.2345899788     -1.6994415006     -3.4301011923     -0.3563514892     -0.9154425900     -1.1148028817     -0.4328823038
F       7.1542720264     -1.4641020576     -1.4998948287      0.7267040046     -0.7319685070      1.0522516473     -0.4313795072
F       7.2311637176      0.1406351706     -2.9415258009      0.8163464489      1.0494782586     -0.5885311545     -0.4235785768
