31
Properties=species:S:1:pos:R:3:forces:R:3:charge:R:1 energy=-174.601706246155 homo_lumo=1.6141168331014648 dipole="1.4162680455181638 2.1696856776123243 4.058083485983736" free_energy=-174.601706246155
N       1.1156591461      0.0424903429      0.0183069586     -0.7858397119     -0.7915060728      0.0706603863     -0.5582948082
N      -1.1057896325      0.0407420003      0.0382758995      0.8997032373     -0.8262768230      0.0686749263     -0.5492590254
C       0.0061025826     -0.7189472854      0.0671632821     -0.1514797034     -1.4370994168      0.0170237338      0.6194154556
C       0.6936574277      1.3209424759     -0.0374012774     -0.8289625821      1.6867029568     -0.0893768381      0.2385637558
C      -0.6864176461      1.3198234239     -0.0254964969      0.8549428406      1.5272710849     -0.0950588511      0.2530209282
C       2.4981272157     -0.4166457700      0.0116037154      0.6032373151     -0.2775982148      0.0152014083      0.0638066732
C      -2.4882486028     -0.4187463854      0.0601004813     -0.7815653747     -0.3443035248      0.0356563824      0.0489431204
H       0.0089089890     -1.8003535715      0.1247071680     -0.0820275648     -0.0795841225     -0.2006206650      0.1230663122
H       1.3395770958      2.1880520588     -0.0869845090      0.2043467153     -0.0955639529     -0.0203959780      0.0573176724
H      -1.3340776449      2.1861851231     -0.0633528144     -0.2133319090     -0.1030947135     -0.0260115690      0.0600277227
H       2.5399163863     -1.5266348607      0.0340312926     -0.1776718865      0.4914109981     -0.0388351607      0.0990300658
H       3.0048120831     -0.0578884205     -0.9087891106     -0.2779614714     -0.1323174855      0.2880569249      0.1006551128
H       3.0274844407     -0.0181317388      0.9021355588     -0.2573281557     -0.1146666190     -0.2772847420      0.0857370103
H      -3.0042500690     -0.0058405068      0.9517882288      0.3104044934     -0.0663679977     -0.2265277481      0.0849692064
H      -3.0094295920     -0.0743274805     -0.8575039722      0.3544321223     -0.2206946565      0.1677225929      0.1188230767
H      -2.5303498645     -1.5279514854      0.1016908429      0.2102689380      0.4774991313     -0.1800380721      0.1104605138
N      -1.0661357108     -3.2372421670     -4.5226589512      0.0501429049     -0.2413176743      0.7761390081     -0.8593440832
S      -1.9651478927     -2.7336536171     -3.2475239016      4.6327280409      4.8558963555     -0.2483821856      1.5786885532
S      -1.1439987346     -2.5275555399     -5.9986441556     -6.1796371106     -3.3815525508     -1.9394442060      1.5650968508
C      -3.4747554513     -3.6762782184     -3.1822826922     -1.6725447965     -1.3506063189     -0.5982208974      1.1629851110
C       0.1453935317     -1.3057373166     -6.1316349912      1.3886662372      1.2005627795     -0.0145798455      1.1498096713
O      -1.1965056985     -2.9713888273     -1.9795577803     -1.1979439310     -0.9948004591     -0.9224736343     -0.7890158789
O      -2.2919128290     -1.2713949489     -3.3741480440     -0.8702237158     -1.7901937337      0.3535253785     -0.7513109680
O      -2.4800959807     -1.8679393196     -6.2002057060      2.3337566932      0.3356698197      0.4249747330     -0.7261807115
O      -0.9327602168     -3.5702501817     -7.0598249302      1.2593110256      1.5998025442      1.8007468364     -0.7137986402
F      -4.2456398590     -3.2448417952     -2.1194765538      0.3967708326     -0.4152935939     -0.7135278377     -0.4416080025
F      -3.1757904897     -5.0151915822     -3.0160400762     -0.5520482973      0.9937309044     -0.0516044915     -0.4262936593
F      -4.1808663462     -3.5080270293     -4.3576269884      0.5064092869     -0.3072997472      1.3885036796     -0.4134392221
F       0.1021568096     -0.7202240220     -7.3827101176      0.2065366245     -0.4212330639      1.2006283054     -0.4249412267
F       1.3752753166     -1.9097186578     -5.9521858503     -0.6521465863      0.7485846002     -0.1432532390     -0.4335619088
F      -0.0322291423     -0.3340725852     -5.1656575383      0.4690554893     -0.5257604331     -0.8218783349     -0.4333686777
