42
Properties=species:S:1:pos:R:3:forces:R:3:charge:R:1 energy=-237.86786061525737 homo_lumo=3.253123313091144 dipole="-2.3735117837454025 0.8286514181970344 0.37699814781090785" free_energy=-237.86786061525737
N       0.0688476871      0.8878159432     -0.5681168788     -0.0046763607      0.0063488231      0.0107973566     -0.5121848146
N      -0.6628314913     -1.0444346727     -1.2212519570     -0.0065822966      0.0045725882      0.0135709212     -0.5192035539
C       1.4991181731      2.1696338210      0.9929857668      0.0050550069     -0.0107129799     -0.0021794696     -0.1845879784
C       2.3950360345      0.9969793601      1.3825678515     -0.0124439312      0.0105980448      0.0189392759     -0.2166291946
C       0.9504878932      2.0582966726     -0.4248589876      0.0055071992      0.0006513509      0.0055220248     -0.0064582432
C       2.8289411049      1.0680067036      2.8466423620     -0.0083595890     -0.0116231851     -0.0078752598     -0.1535914616
C       3.8504770450     -0.0074507502      3.2301182873     -0.0084667832     -0.0083928535      0.0083882147     -0.1995810106
C       0.3096111358     -0.1387512240     -1.3955956934      0.0051881594      0.0041206533      0.0034162307      0.5744059755
C      -1.0753050072      0.6297857516      0.1606550186      0.0141030040      0.0055681394     -0.0118543068      0.1918484949
C      -1.5348575609     -0.5874613630     -0.2517500043      0.0050165201     -0.0107978287     -0.0049431653      0.2119062509
C      -0.7050186010     -2.3772020042     -1.8526767840      0.0038479795      0.0054828150      0.0057960650     -0.0484803951
C       5.2321911406      0.2353352506      2.6251087479      0.0061552974      0.0102559184      0.0123691374     -0.0804696032
C      -0.1935277335     -2.3512873970     -3.2796533099     -0.0040378429      0.0078229999      0.0063317891     -0.1293353958
H       2.0677107726      3.1146330703      1.0486602720     -0.0008000181      0.0037365016      0.0008579086      0.0978555665
H       0.6632283390      2.2738141843      1.7099024078     -0.0061691976      0.0024780196      0.0078325952      0.0884774777
H       3.2741084222      0.9763440904      0.7188720889      0.0056204753     -0.0032185433     -0.0108700502      0.1576973326
H       1.8683853674      0.0407328245      1.2101846342     -0.0051160107     -0.0059063071      0.0070737725      0.1255048175
H       0.3704053756      2.9475909485     -0.7167204940     -0.0003488819      0.0110285600      0.0041017644      0.1031362266
H       1.7685017795      1.9078604022     -1.1453544524      0.0023999270      0.0068522800      0.0053751441      0.1489150524
H       1.9326644059      0.9775552141      3.4889105352     -0.0042798966     -0.0017439595      0.0034858134      0.0631018954
H       3.2617161529      2.0658657280      3.0545734265     -0.0016380167      0.0025737201      0.0006186613      0.0742674380
H       3.4760360716     -0.9950989576      2.9036465942     -0.0006077464      0.0102685898      0.0083587445      0.0943742071
H       3.9310126137     -0.0458709867      4.3310824629     -0.0019899898      0.0087523968     -0.0012833131      0.0706399167
H       1.2142224386     -0.2219553462     -2.0111851992      0.0011180278     -0.0098143125      0.0154299222      0.1979417930
H      -1.4653122536      1.3229423439      0.8950730358      0.0013948137      0.0011331555     -0.0027468277      0.0446235838
H      -2.3983036431     -1.1621992700      0.0596192031      0.0029815237      0.0017121476     -0.0052859772      0.0384842183
H      -0.0805174004     -3.0394212098     -1.2326733792      0.0029615085      0.0092964457      0.0016962461      0.1490308211
H      -1.7554413401     -2.7003472448     -1.8038500351      0.0029804189      0.0018034016      0.0046815366      0.1036776561
H       5.6205294087      1.2214013068      2.9327381164      0.0014019869     -0.0108634491     -0.0111621154      0.0120357544
H       5.2047792217      0.1899339631      1.5267445587     -0.0018335013     -0.0154862520     -0.0023694584      0.0857441216
H       5.9490789295     -0.5299510793      2.9610412769     -0.0066158855      0.0012606929      0.0037565772      0.0378841732
H      -0.7470182740     -1.6206801952     -3.8885983303     -0.0035011277     -0.0022831270      0.0046626770      0.0434530780
H      -0.3275375603     -3.3497810353     -3.7201349754     -0.0105766786      0.0063370914     -0.0008566747      0.0667531939
H       0.8813657953     -2.1261880023     -3.3019226887     -0.0079090108      0.0049007528      0.0013772256      0.1235063468
S       3.4459404684     -1.4728149869     -1.4560297577     -0.0009855114      0.0010409168     -0.0046305431      1.7584849297
O       2.2600753441     -2.2886675711     -1.1097291244      0.0194694322     -0.0066470893     -0.0006879625     -0.8132306627
O       4.4750517802     -1.3532169303     -0.4231913944      0.0006699500      0.0035680028     -0.0272571524     -0.7730820983
O       3.0917347569     -0.2056914165     -2.1582259306     -0.0047526492     -0.0238934005     -0.0053120309     -0.8201225552
C       4.2722485308     -2.4734378509     -2.8100739040      0.0112532393     -0.0065155656     -0.0175729780      1.1326192046
F       3.4424674749     -2.6106523824     -3.8885087734     -0.0007687420     -0.0133802558     -0.0028460703     -0.4585001569
F       4.5876512338     -3.7189082015     -2.3714511632      0.0101187176      0.0064369705     -0.0145033552     -0.4413010411
F       5.4107049615     -1.8735546751     -3.2361961536     -0.0047835193      0.0026781304     -0.0202028936     -0.4396113609
