32
Properties=species:S:1:pos:R:3:forces:R:3:charge:R:1 energy=-175.42284347358398 homo_lumo=6.344797965538369 dipole="0.2099767058584912 1.017868799021384 2.2752490339521314" free_energy=-175.42284347358398
N       0.3431623992      0.0321892840     -0.1023488358      0.2041595092      0.2180611647      0.0684371044     -0.5388859683
C      -0.6353222926      0.8602950680     -0.8894650425     -0.6767426914      0.2518810038      0.0662217900     -0.0356873870
C      -0.1908967453     -1.3618721043      0.0540588684     -0.4596285351     -0.3839867656      0.3058825993     -0.0482277890
C      -2.0288700507      0.8735351661     -0.2767612825      0.2089270484     -0.3950443583     -0.1039956111     -0.1610071405
C      -1.5858156030     -1.3946652267      0.6669341141      0.0709056742      0.2792015801     -0.3882657412     -0.1523598854
C       1.6294937847      0.0204492935     -0.8951678086      0.5936846388     -0.3786042458     -0.0140436974     -0.0884666846
C      -2.5639349203     -0.5508634790     -0.1470249029      0.1416797345      0.1374120023      0.2645632231     -0.1585045379
C       0.6019810155      0.6511985422      1.2231831840     -0.0921863345     -0.0195583432      0.0743105633      0.0849253437
C       2.6522667651     -1.0051866779     -0.4356539421     -0.4028983278      0.2440599270      0.0162163353     -0.0831093675
H      -0.6798165648      0.4238809287     -1.8907002018      0.0864003726     -0.0395826609     -0.1127690494      0.2454047985
H      -0.2240634923      1.8704862812     -0.9545791713      0.2216556505      0.2157879226     -0.0296790481      0.0946346919
H       0.5087753954     -1.9146546375      0.6832937666      0.2438041187     -0.0615899970      0.0985021012      0.1112014384
H      -0.2115533055     -1.8012510036     -0.9455798761      0.0713927558     -0.0404551348     -0.1027950923      0.2538135309
H      -2.6706388967      1.4501425140     -0.9479162803     -0.1244046076      0.2409654023     -0.1515064516      0.1010712982
H      -2.0288396236      1.3754646443      0.6962912112     -0.0686939885      0.2031947437      0.2381322945      0.0693758561
H      -1.5638080517     -1.0560179338      1.7081969946     -0.0340909708      0.0135217660      0.3142100440      0.0686678904
H      -1.9102966005     -2.4385336825      0.6653488471     -0.0080949736     -0.2958772107      0.0716434889      0.1012751017
H       1.3615638845     -0.1950763859     -1.9307864061     -0.0872109687      0.0939803397     -0.1327515041      0.2484175956
H       2.0372390925      1.0329570884     -0.8341167295     -0.0140169457      0.2980277177      0.0658984038      0.0925386183
H      -3.5413234734     -0.5395924743      0.3410605841     -0.2925875203     -0.0104755225      0.1152081031      0.0635507509
H      -2.6743969868     -0.9873563830     -1.1432892985     -0.0362986856     -0.0768765683     -0.1755684674      0.1497192756
H      -0.3163324830      0.6870109399      1.8029106489     -0.1971390927     -0.0024113962      0.1274661007      0.1011626218
H       1.3414542033      0.0570724333      1.7557706343      0.1863261048     -0.1651585364      0.1167551718      0.0908432867
H       0.9780759231      1.6617841939      1.0728387985      0.0893330008      0.2605193526     -0.0778564036      0.0684403997
H       3.5836917448     -0.7912179676     -0.9595824866      0.2902551249      0.0375824976     -0.1301109357      0.0667221039
H       2.8434832656     -0.9637001541      0.6361810501      0.1911451452      0.0232000106      0.3365128510      0.0222871250
H       2.3347140557     -2.0088295668     -0.7138713769     -0.0326010823     -0.2618554267     -0.1004105028      0.0772484971
B      -0.0975034456     -1.5462917369     -3.4694686193      0.0146177266      0.0990746048      0.3654085043      1.3948420939
F      -0.2448180380     -2.1692828628     -4.6688660557     -0.1070570757     -0.4875584633     -0.9436112047     -0.5140064540
F      -1.3083916019     -1.5346905447     -2.7239205049     -0.6967262150     -0.1583390978      0.0757760881     -0.5788386017
F       0.3013502646     -0.1931972025     -3.6114512206      0.2284240186      0.7021952423     -0.3813144920     -0.5704921097
F       0.8767284184     -2.1827324636     -2.6530134130      0.4876673917     -0.5412915499      0.1235334345     -0.5765563928
