26
Properties=species:S:1:pos:R:3:forces:R:3:charge:R:1 energy=-143.32850463751177 homo_lumo=1.7113512866752214 dipole="-6.227910594307219 -1.2811962122961693 2.18339900184655" free_energy=-143.32850463751177
N      -0.5287857726      0.1936501561     -0.3615726504      0.8210015117     -0.6939424641     -0.3889154323     -0.5212361171
N       1.6532535577     -0.0756488840     -0.0406329759     -0.9831398350     -0.6323984482     -0.2400152943     -0.5525729602
C      -1.9280051218     -0.0978897939     -0.6590565169     -0.8506717913     -0.3113651348     -0.0375524043     -0.0708796828
C       0.4997042216     -0.6757898341     -0.3900878037     -0.0081055798     -1.2980078600     -0.2745775317      0.5876946415
C      -0.0080495868      1.3801163659      0.0132485170      0.8884796315      1.3531192309      0.5066856200      0.2308125658
C       1.3485430742      1.2127523850      0.2098263811     -0.7035624721      1.5290526762      0.2878335715      0.2712610461
C      -2.7312846054     -0.2011152513      0.6317573789     -0.0475639185      0.0111496425      0.2709662970     -0.1162511026
C       2.9691510883     -0.6924913621      0.0518842267      0.7670857380     -0.4311483049     -0.0221836983      0.0395513951
H      -2.3483372097      0.7031899491     -1.3047641353      0.4130503386     -0.2079010065      0.1006557734      0.1419277677
H      -2.0054527407     -1.0606219133     -1.2102567823      0.3333763076      0.4078406779      0.0614304315      0.1348110538
H       0.4086394306     -1.7229748741     -0.6507830662      0.0174452568     -0.0126928777     -0.0366748267      0.1036265000
H      -0.5720488081      2.2961017054      0.1335823849     -0.1952793137     -0.0455015432     -0.0767364706      0.0645934980
H       2.0577201269      1.9714158110      0.5156266157      0.2660070581     -0.0991074260     -0.0425196987      0.0820289161
H      -2.3205676232     -1.0136119669      1.2685507879     -0.1844128204      0.2830753423     -0.1262361054      0.0799513972
H      -3.7907450028     -0.4325043081      0.3953489358      0.3197558197      0.0928502010      0.0924766572      0.0834458248
H      -2.6883391669      0.7577739069      1.1901157839     -0.0865308465     -0.3378853939     -0.0883699798      0.0788297103
H       2.9063089654     -1.7795063825     -0.1677249054     -0.1351289427      0.4980560966      0.0732829267      0.0805577010
H       3.6492223252     -0.2196386714     -0.6832978445     -0.0434482345     -0.0062086590      0.1365040989      0.1697832786
H       3.3773283446     -0.5548158110      1.0752117503     -0.2242844974      0.0234854224     -0.3797643387      0.0961907926
P       7.0879001134      1.3068957628     -2.4542205492      0.8477455855      0.2817767706     -0.3917456969      2.0966898943
F       6.0842633214      2.4467933054     -3.2574553398      0.7865791705     -1.0098607791      0.7323024461     -0.5117522115
F       5.7789482242      0.8960568843     -1.4240297649      0.4244781841      0.1051809723     -0.4714007235     -0.5385943523
F       6.5941819837      0.0934788478     -3.5660084126      0.3411057478      1.0367798166      1.0124538390     -0.5118951015
F       8.0713408453      0.1572401595     -1.6400407332     -0.9455768299      0.9967946807     -0.6980629494     -0.5081230308
F       8.4064762585      1.7318296322     -3.4696689497     -1.3323727808     -0.4543982592      0.9635148061     -0.5025709034
F       7.5624375982      2.5146011787     -1.3283212669     -0.4860324870     -1.0787433733     -0.9633513166     -0.5078805205
