48
Properties=species:S:1:pos:R:3:forces:R:3:charge:R:1 energy=-262.52238279716636 homo_lumo=5.027773516374164 dipole="-0.20755264652897076 -2.964650257221521 1.6328321047733878" free_energy=-262.52238279716636
N       0.1866578252      1.0967709931     -0.2562845295     -0.0053500482     -0.0006385279     -0.0025438650     -0.4875049308
C      -0.1888641703      1.2569314247     -1.7229375625     -0.0049232247      0.0019339276      0.0007810422     -0.0524011215
C      -1.0121687218      1.7056914797      0.4539902500     -0.0057127764     -0.0020977181     -0.0028090528     -0.0241885213
C      -1.6940600537      1.0060317921     -1.7908890994     -0.0071623231      0.0013285055     -0.0027986692     -0.1565195907
C      -2.2278783884      1.2694816585     -0.3594015198      0.0021702597     -0.0042289109     -0.0029007599     -0.1428323888
C       1.4547919440      1.8617957151      0.0463785086     -0.0068846420      0.0031564880     -0.0055760867     -0.0928262081
C       0.2909702313     -0.3670135004      0.1090189064     -0.0019811547      0.0040208764     -0.0037105755     -0.0265292277
C       1.9028684371      1.7976767871      1.4957077664     -0.0014759497      0.0038889499     -0.0000787916     -0.2493148975
C       1.4903112515     -1.1000017142     -0.4700459465     -0.0094243302     -0.0062324449      0.0001527297     -0.2551875679
C       3.1123893457      2.7137061259      1.6929111657     -0.0039580318     -0.0026579504     -0.0090259827     -0.0738466556
C       1.3868457683     -2.5925754262     -0.1551877706     -0.0159924039      0.0039106435      0.0073629493     -0.0689845166
H       0.0523533996      2.2912239915     -2.0048778794     -0.0046816693      0.0083507168      0.0006389038      0.2542169905
H       0.4258041430      0.5779561556     -2.3257442132     -0.0033739617      0.0007412515      0.0017461461      0.1175241098
H      -1.0155157432      1.3766776361      1.5007016802      0.0017876439     -0.0079008977     -0.0057026732      0.0958593369
H      -0.8794272519      2.7944939613      0.3987313962     -0.0033495026      0.0014610812     -0.0031185318      0.2082781861
H      -2.1350492677      1.7032122758     -2.5165213255     -0.0021321481      0.0067806391     -0.0018161902      0.1317313405
H      -1.9237087553     -0.0192029550     -2.1182070294     -0.0005893830      0.0043041969     -0.0025124743      0.0730559910
H      -2.6950804893      0.3679833753      0.0649281515     -0.0028677228     -0.0021692658      0.0000570701      0.0739605806
H      -2.9717771617      2.0774403138     -0.3515721451     -0.0036434841      0.0085377757     -0.0009379524      0.1264111191
H       2.2282569730      1.4800904271     -0.6352361817     -0.0062395034      0.0044428958     -0.0031274633      0.1501107814
H       1.2412959751      2.9037368872     -0.2308650097     -0.0061078077      0.0004572960      0.0031042308      0.2499688089
H       0.3080936188     -0.4155909678      1.2082590182     -0.0091858596      0.0014428810     -0.0008489621      0.1352504913
H      -0.6453111901     -0.8331629644     -0.2323215674     -0.0059820934     -0.0042010511     -0.0009753444      0.1724469281
H       1.0856600438      2.1331783257      2.1559099891     -0.0050731652      0.0006786971      0.0004900891      0.1101576131
H       2.1661138845      0.7668238160      1.7887868768     -0.0080547283     -0.0043578804     -0.0012337613      0.0915753685
H       2.4247297260     -0.6984377731     -0.0465228888     -0.0047109315      0.0036263012      0.0006753017      0.1203601286
H       1.5446152182     -0.9598778451     -1.5615460573     -0.0084518755     -0.0008973059     -0.0017576782      0.1186097058
H       3.9524918396      2.4071345814      1.0506909322     -0.0096830950     -0.0019924389      0.0021853413      0.0450221780
H       2.8560541865      3.7531049404      1.4390549122     -0.0044799827     -0.0018329709      0.0038602456      0.0768710890
H       3.4522610461      2.6846844533      2.7376572951     -0.0007938385     -0.0006337578      0.0053225190      0.0479776771
H       1.3400989070     -2.7695064313      0.9309470582     -0.0005516055      0.0010574685     -0.0054701366      0.0454993721
H       0.4853858017     -3.0325900964     -0.6099855859      0.0035766813     -0.0018945096      0.0016346750      0.0437943832
H       2.2606911525     -3.1314276077     -0.5465118588      0.0054569604     -0.0114140495     -0.0037159482      0.0591983037
N       0.1926868670      4.4875817682     -2.8000346694      0.0116712818     -0.0030523210     -0.0000490472     -0.8744769159
S       1.5583139269      5.1318269523     -3.3987531713      0.0212194915      0.0024778753     -0.0065003605      1.6299554479
S      -0.5020726468      4.9811422894     -1.4379126268      0.0011908330      0.0112067186      0.0233262767      1.5844539128
C       2.9173450785      4.0095790206     -2.7166570269     -0.0077942813     -0.0054423207     -0.0026601828      1.1616938575
C      -1.1043574491      6.7778155837     -1.6812502784      0.0174831097     -0.0031445837      0.0022919853      1.1814395286
O       1.5970310694      4.8351110904     -4.8204102657      0.0040698930     -0.0212871116      0.0123837378     -0.7141701751
O       1.8872768591      6.4537503515     -2.8842734262      0.0220276810     -0.0202062024     -0.0086183468     -0.7218173434
O       0.3653473090      5.0261598778     -0.2526576809      0.0118340363      0.0262598643     -0.0050215213     -0.7555613599
O      -1.7482546013      4.2129638628     -1.3286960214      0.0184037255      0.0134846645      0.0137711118     -0.7721517267
F       4.0891511125      4.2895768115     -3.3262253996      0.0149871148     -0.0118668008     -0.0102236462     -0.4318637514
F       2.6282998870      2.6915588585     -2.9445495148      0.0111182271     -0.0233878677      0.0036539497     -0.4652670819
F       3.0859619525      4.1677191256     -1.3792279692      0.0232341242     -0.0091938021      0.0114459491     -0.4537909762
F      -2.2279384024      6.9432452757     -0.9395182945     -0.0097771878      0.0132774684      0.0022519136     -0.4358726705
F      -1.4035300952      7.0054026201     -2.9765687310      0.0010934757      0.0066684881     -0.0071706684     -0.4297223787
F      -0.1866624924      7.6674886210     -1.2687096351     -0.0009358274      0.0172350186      0.0037685050     -0.4205932236
