52
Properties=species:S:1:pos:R:3:forces:R:3:charge:R:1 energy=-289.7795664289904 homo_lumo=2.192409560366131 dipole="-1.475646045518168 -0.9223078440022868 -2.434653172359021" free_energy=-289.7795664289904
N       4.3655671657     -0.4376070916     -0.4544595597      0.0020062599      0.0013664013      0.0000610520     -0.5021510271
C       2.7134277150      0.5826907830      1.0827211932     -0.0006291189     -0.0048088657     -0.0066263758     -0.2539985102
C       1.4089633370      0.3725999611      1.8462443545      0.0003730408     -0.0019772249     -0.0013437769     -0.1723684157
C       2.9751491111     -0.5229681445      0.0691448325      0.0023273448     -0.0051608376     -0.0067745653     -0.0112687506
C       1.2346764547      1.4315486606      2.9362881572     -0.0029563476     -0.0010629883     -0.0027073046     -0.2297313555
C      -0.0542091718      1.2554685598      3.7316747651     -0.0015985468     -0.0007384616     -0.0018753970     -0.0652203638
C       5.2975268230     -1.3209264768     -0.0402157289      0.0078090706      0.0083530565      0.0080407616      0.2889395191
C       4.7017629715      0.5998881325     -1.2543876723      0.0087614282      0.0043625738     -0.0005443336      0.2803539206
C       6.6135889424     -1.1970074177     -0.4428148547      0.0016024266      0.0120848351      0.0113340215      0.0029731373
C       6.0029713178      0.7664334238     -1.6769050835     -0.0004164527      0.0043704862      0.0065466955     -0.0083814602
C       6.9764323309     -0.1425619135     -1.2686951950     -0.0054902660      0.0043180622      0.0068937450      0.0547223949
H       3.5541931546      0.6054438711      1.7883952783      0.0025131736     -0.0031872051     -0.0079698501      0.2408046495
H       2.6983517317      1.5625200326      0.5750745326      0.0056733425     -0.0072646664     -0.0088991215      0.1036913907
H       1.4167660296     -0.6296787354      2.3147609435      0.0021768565      0.0011226519      0.0064474839      0.0863412694
H       0.5451353934      0.3952612926      1.1553361680     -0.0026144557      0.0016320587     -0.0017877637      0.0723703874
H       2.8771633877     -1.5132848206      0.5355465859      0.0026773792     -0.0076215824     -0.0061205243      0.1243556542
H       2.2964385080     -0.4799573247     -0.7974615336     -0.0024785133     -0.0055990489     -0.0012161771      0.1101903725
H       1.2576856995      2.4343459718      2.4736353849     -0.0037705494      0.0022270670      0.0016350530      0.0923119906
H       2.1037775485      1.3866978799      3.6138556043     -0.0026640613      0.0091685690     -0.0013229789      0.1395655596
H      -0.9394452449      1.3295688156      3.0794416437     -0.0049118612     -0.0082419950     -0.0004474462      0.0269972121
H      -0.1438143601      2.0263158453      4.5117576496     -0.0009239388     -0.0024674191     -0.0047253920      0.0462248850
H      -0.0806063067      0.2720990678      4.2282247219     -0.0020571071     -0.0032739349     -0.0039886167      0.0340592205
H       4.9642021781     -2.0902354349      0.6519143878     -0.0054936489      0.0017077578     -0.0079526769      0.1099640886
H       3.8979113167      1.2850536449     -1.5148453689      0.0000186915     -0.0045143551     -0.0012543917      0.1046530781
H       7.3505291758     -1.8996002019     -0.0576977377     -0.0000803021      0.0013185875      0.0086228265      0.0789928766
H       6.2547347143      1.6250503931     -2.2980007009     -0.0015162030      0.0058758728     -0.0038173094      0.0658684739
H       8.0171868906     -0.0066351898     -1.5631775241     -0.0051354734     -0.0039111583     -0.0043715239      0.0742500115
P       6.9993532537      1.0084015688      2.8183937127     -0.0046752169      0.0001919930      0.0035342420      1.7339828852
F       8.0369688687      0.1152712578      1.8500349353     -0.0030950655     -0.0063237836      0.0150801079     -0.5273043346
F       7.9861062348      0.8719779972      4.1378119514     -0.0130207631      0.0197786980      0.0027126042     -0.5056048853
F       5.9343067289      1.1203340758      1.5088054387      0.0066938686     -0.0168805867      0.0069702113     -0.5415046454
C       8.1114611817      2.5492393257      2.2539905142      0.0049426128     -0.0036175388      0.0015841206      0.5290802647
C       6.1678400205     -0.7771838511      3.3235569269      0.0011032052      0.0045246879      0.0035939428      0.4918229561
C       5.6750223475      2.1327351601      3.9022233456      0.0029034188      0.0019878406     -0.0066248898      0.5537696430
C       7.9471198215      3.1443034115      0.8228747018      0.0037530672     -0.0034148281      0.0032800508      1.3646930948
C       6.3656077621     -1.3189823532      4.7782067031     -0.0020298050      0.0006215734     -0.0003306836      1.3849012493
C       4.8635726499      3.3554261698      3.3220477062      0.0032850313      0.0036186970     -0.0029448004      1.3912093143
F       9.4375544880      2.1784888770      2.3141858973      0.0071303482     -0.0116472523     -0.0128796606     -0.4358054858
F       7.9781099336      3.6015193182      3.1269472907      0.0025510160      0.0141186971     -0.0214942280     -0.4437286871
F       6.7102171590     -1.7956359819      2.5434021281      0.0089934359     -0.0012457041      0.0168636075     -0.4609189376
F       4.8088782864     -0.8456450965      3.0472400262     -0.0053328117     -0.0079238145      0.0259472831     -0.4695292970
F       6.2795806897      2.6175228281      5.0326959907     -0.0007678894      0.0111968456     -0.0096142467     -0.4321170099
F       4.6525640751      1.2962983867      4.3304124768     -0.0040570797      0.0031643842     -0.0204281354     -0.4617435225
F       8.7342356396      4.2424534779      0.6792183056      0.0111499597     -0.0128842231      0.0012098994     -0.4442497674
F       6.6739240862      3.5186117034      0.5422793695      0.0066551458      0.0050403434      0.0137841554     -0.4565705118
F       8.3330251869      2.2425072471     -0.1250746732     -0.0110210500     -0.0002191272     -0.0002154757     -0.4665410285
F       7.6557100129     -1.6674729118      4.9786166947     -0.0071762015     -0.0096950848     -0.0005174046     -0.4381560447
F       5.9996028658     -0.4414969333      5.7318751751      0.0021631174     -0.0022895572     -0.0035038666     -0.4406810846
F       5.6054042603     -2.4464244054      4.9392849869     -0.0010617802      0.0027285885     -0.0053679247     -0.4569458193
F       5.6107725764      4.4491015584      3.0830183955     -0.0031580798      0.0027417446      0.0007838220     -0.4428288371
F       3.9147678734      3.7121402028      4.2365196271      0.0130842267     -0.0005371976      0.0076958897     -0.4522118375
F       4.2088258889      3.0373870592      2.1735676245     -0.0122148790      0.0088863682      0.0050452664     -0.4675278802
