52
Properties=species:S:1:pos:R:3:forces:R:3:charge:R:1 energy=-289.53609572244403 homo_lumo=2.0911184300145815 dipole="-2.686830575276122 -0.5472751257296876 1.3156750887562318" free_energy=-289.53609572244403
N       3.3046873700     -1.5166027579      0.1925599349     -0.0401604988      0.0210471652     -0.1937492117     -0.4912859401
C       1.3372002053     -0.0536568431      0.0713921806      0.2575033406      0.2143771431     -0.5969982664     -0.1662924061
C       0.6550537926      1.0473740612     -0.7460994841     -0.2366461838     -0.3341122466      0.7020044144     -0.1718400337
C       2.6370030178     -0.4849845087     -0.6090633850     -0.5959910162      0.2258365934      0.3516538846     -0.0721495487
C      -0.6478710731      1.5019412482     -0.0809493493      0.2443882756      0.2500171198     -0.5865615865     -0.1995377338
C      -1.3274013770      2.6023000451     -0.8934838313      0.0596052162     -0.3145786611      0.3518447025     -0.0478438368
C       3.2200740918     -2.8034076273     -0.1711809074      0.0152922209     -0.3387689502      0.0994388744      0.2878180749
C       4.0455710544     -1.1369004750      1.2459224540      0.1581462836     -0.1249112819      0.3669445784      0.2870521997
C       3.8859071165     -3.7769868066      0.5443244076      0.0142196999      0.0442056048      0.1015048297     -0.0041973044
C       4.7147374591     -2.0745068781      2.0026000916     -0.1813393817     -0.0369179432      0.0350264449      0.0020932083
C       4.6441547975     -3.4156778870      1.6490404029     -0.1795210215      0.1823139209     -0.1364146617      0.0602470096
H       0.6732608551     -0.9189005026      0.1660397702     -0.1956114953     -0.2332077732      0.0827784889      0.0937765236
H       1.5599162245      0.3128581817      1.0784009594      0.0168168082      0.0847808055      0.2947235280      0.1013301174
H       0.4432295067      0.6725878915     -1.7527534306     -0.0481471225     -0.0477645053     -0.3054864321      0.0928031828
H       1.3355532558      1.8994503443     -0.8424956724      0.1760171281      0.2436698633     -0.0878216108      0.1006879485
H       2.4419082286     -0.8963788574     -1.6007013990      0.0535384270     -0.0599193650     -0.1266553841      0.1338117151
H       3.3261870056      0.3554611276     -0.7049720503      0.1146146482      0.0061780699     -0.0676879732      0.2121761924
H      -0.4310911735      1.8721781610      0.9266841246      0.0446675967      0.0303890193      0.2886076084      0.0848802864
H      -1.3248758832      0.6463238927      0.0149624703     -0.1521534036     -0.2384961849      0.0914590702      0.0835272641
H      -0.6735152134      3.4705134637     -0.9824023286      0.1612286387      0.2927711947     -0.0606192038      0.0352378510
H      -2.2504098894      2.9105360633     -0.4027146582     -0.3092287153      0.1807825357      0.0575674302      0.0370542464
H      -1.5682578663      2.2444234999     -1.8951578934     -0.0931184217     -0.0571361988     -0.3205185623      0.0330266172
H       2.6389496256     -3.0296080076     -1.0565286563     -0.0823180313      0.0465039988     -0.1332001999      0.0941897517
H       4.1202591101     -0.0735916263      1.4378839772     -0.0227856743      0.1476439784     -0.0287388201      0.1120065576
H       3.8270535000     -4.8071231478      0.2174719075     -0.0284567698     -0.2270452029     -0.1027286096      0.0587617696
H       5.3237312638     -1.7475424651      2.8349277075      0.1171067696      0.1128698893      0.1599341775      0.0625166323
H       5.1923688479     -4.1621546085      2.2099625175      0.1488151331     -0.1833617336      0.1334101130      0.0592514569
P       7.1872875417     -1.0252056524     -1.4352790572     -0.1908162920     -0.3761558365      0.0619945204      1.6723675407
F       7.3279182121     -2.6760337184     -1.1688526322      0.0860918119      0.0138599990     -0.0546764480     -0.5266064652
F       8.7496063304     -0.9591650398     -1.9845767834     -0.1206121089      0.1554756426     -0.0485161537     -0.5133906969
F       5.5511286751     -1.0311840316     -0.8649040139      0.4731861924     -0.0630398785     -0.0369160684     -0.5573241307
C       6.4874563879     -1.5779085103     -3.1926853141     -0.1732838109      0.0468923444      1.2002497764      0.5649374703
C       7.7084344082     -0.8432038299      0.4603768514      0.4449702998      0.0386148176     -0.9789346947      0.5340206205
C       7.0629590533      0.9527294153     -1.7441852697     -0.5869058583     -0.9278573619      0.2764346584      0.6114141505
C       5.1936102249     -2.4478025946     -3.2010683736      0.5011423477      0.3011869571      0.4922097980      1.3874947516
C       9.2105956316     -0.7688163305      0.8368526446     -0.6652220447     -0.0675881783     -0.5349299963      1.3990197618
C       5.6894619145      1.6596339523     -1.6051610578      0.4735336190     -0.7814457654     -0.0695211840      1.4034673777
F       7.4296997029     -2.2940492412     -3.8213228691      0.8987403165     -0.7854828051     -0.6374144760     -0.4367758197
F       6.1821010482     -0.5318556178     -3.9841640856     -0.4095920883      0.8634910793     -0.9637706918     -0.4539221100
F       7.2372374416     -1.9191107274      1.1381063092     -0.1825399935     -1.0320109678      0.6739800840     -0.4646042465
F       7.0861251716      0.2166653880      1.0195110017     -0.4612288023      1.0293084038      0.8077123280     -0.4665631004
F       7.5268647496      1.2524930975     -2.9691777359      0.3887849928      0.4079889953     -1.1087870698     -0.4448104907
F       7.8876957636      1.5647807436     -0.8704513186      0.6610619511      0.8325652862      0.6419984234     -0.4532158169
F       5.0237890352     -3.0216193160     -4.3893765547     -0.0357742730     -0.4635178926     -1.2209477693     -0.4473531503
F       4.1097558914     -1.6859711051     -2.9712027238     -0.9310142782      0.6853862421     -0.0535667930     -0.4817380903
F       5.1752878796     -3.4174929782     -2.2842399155      0.0980477668     -0.8836358979      0.5636608568     -0.4624545595
F       9.8286663794     -1.8871460196      0.4699653284      0.4968519759     -1.0570951347     -0.3171900030     -0.4443741481
F       9.8303138953      0.2605105605      0.2776376998      0.5048554351      0.9338355233     -0.4307632288     -0.4433369269
F       9.3348049346     -0.6502399261      2.1643640916      0.0088611985      0.1402313870      1.3242417611     -0.4598481576
F       4.7670338308      1.1032897912     -2.3970909331     -0.6587330195     -0.3042441654     -0.7987726152     -0.4683574528
F       5.7646367640      2.9491950244     -1.9159856042      0.2529168944      1.2361489021     -0.3064988527     -0.4458662536
F       5.2206350034      1.5760231625     -0.3497863940     -0.2898046828      0.1699214489      1.1490062157     -0.4812818588
