54
Properties=species:S:1:pos:R:3:forces:R:3:charge:R:1 energy=-295.3546348979856 homo_lumo=5.462564912510377 dipole="2.4652702089158223 -2.0400565636730956 -1.535388759462891" free_energy=-295.3546348979856
N       0.0344749862      1.8328171907      0.1636239533     -0.0006589511      0.0046795986     -0.0007608345     -0.4848381664
C       0.7601683515      2.7884736519      1.1367580518      0.0014441863      0.0071205631     -0.0024108482     -0.0073302937
C      -0.6227937868      2.7511534793     -0.8705327055      0.0044545775      0.0111991601      0.0013136194     -0.0372432634
C       1.0386917854      0.9443033265     -0.5384610280      0.0031688002     -0.0063485047     -0.0114513470     -0.0244867381
C      -1.0154581608      1.0278437148      0.9023232140     -0.0054870489     -0.0074346720      0.0126476522     -0.0681321657
C       0.5178820072      4.1991009106      0.6052578817     -0.0025002695      0.0024513723      0.0010698619     -0.1690686153
C       0.2376095559      3.9995139843     -0.8850817093      0.0004322373     -0.0022466832      0.0002884720     -0.1476331579
C       1.7441852821     -0.0600969201      0.3581383131      0.0056615857     -0.0034147037      0.0133373393     -0.2106985126
C      -1.8159210428      0.0947368093      0.0141233074     -0.0182881152      0.0031951733     -0.0090037381     -0.2086973821
C       2.9042186000     -0.7302318911     -0.3829499625     -0.0103837119      0.0070560333     -0.0073778258     -0.1629558115
C      -2.9557606147     -0.5426515669      0.8119479887      0.0015583663      0.0066429973      0.0023126097     -0.1703622784
C       3.6115343555     -1.7845680001      0.4680963196     -0.0108556728      0.0007507324     -0.0018433119     -0.2081740421
C      -3.7925822753     -1.4970281784     -0.0366833809      0.0039857259      0.0024032161      0.0016640669     -0.2070524718
C       4.7740658227     -2.4516440936     -0.2611771862     -0.0027644163      0.0078194321     -0.0204321271     -0.0692145449
C      -4.9823615079     -2.0661992548      0.7302458735     -0.0026544753      0.0003782348      0.0180359343     -0.0683830157
H       1.8219999940      2.5124237489      1.1218110975      0.0006612330      0.0037736124     -0.0059078450      0.1186656286
H       0.3438035219      2.6391317960      2.1399036186      0.0004175351      0.0063509397      0.0008641484      0.1607751555
H      -1.6219993321      2.9995496914     -0.4877867884     -0.0019911408      0.0014068640      0.0003254150      0.2342651689
H      -0.7006532075      2.2136555123     -1.8234936021      0.0010536822      0.0037935252     -0.0090181884      0.0930675703
H       1.7644927390      1.6263583830     -1.0082860742     -0.0056453304     -0.0036885630      0.0016320056      0.1480803127
H       0.4962231611      0.4246761776     -1.3419602386     -0.0026419344      0.0049582946      0.0051184433      0.1398690198
H      -1.6671497574      1.7702502782      1.3833945053      0.0018376243     -0.0018228649      0.0040507696      0.2469622583
H      -0.4917877720      0.4756792985      1.6971905187      0.0043598771      0.0043204406     -0.0087662935      0.1280733410
H       1.3753106150      4.8561327835      0.8086604760      0.0054785114     -0.0031145449     -0.0084121786      0.0624514195
H      -0.3726249949      4.6277306794      1.0858525417      0.0093400233      0.0005458288      0.0043508463      0.2060830051
H      -0.3195995614      4.8413759291     -1.3201811693     -0.0045385617      0.0026352807      0.0024930675      0.1114105979
H       1.1632668643      3.8518240214     -1.4675773932     -0.0062269489      0.0029546637      0.0030420104      0.0749345466
H       1.0335333084     -0.8344577677      0.6925439571     -0.0040601914      0.0028067316     -0.0025154870      0.1222607962
H       2.1327915646      0.4307922559      1.2670353150     -0.0072879287     -0.0063768374     -0.0065622540      0.1123766695
H      -1.1791866241     -0.7015687191     -0.4114054915     -0.0008430835      0.0059771985      0.0018515258      0.0927885977
H      -2.2557317110      0.6560636028     -0.8281173496      0.0030837515     -0.0003029507      0.0095464002      0.1186404735
H       3.6357112147      0.0392955304     -0.6935220779     -0.0077954698     -0.0043355601     -0.0013973304      0.0908794887
H       2.5308436399     -1.1997714105     -1.3123645176     -0.0032432382      0.0010377813      0.0025267279      0.0923121140
H      -3.6004034492      0.2600200199      1.2100807117     -0.0047758683     -0.0070070946      0.0044024758      0.1376965414
H      -2.5451735226     -1.0847117597      1.6841726956     -0.0041466996     -0.0019131469     -0.0031404704      0.0828961612
H       2.8779600549     -2.5508286475      0.7775948125     -0.0056883437     -0.0025347038      0.0000147045      0.0910119353
H       3.9777902547     -1.3114839771      1.3971249654     -0.0040115401     -0.0019270910      0.0038898037      0.0914517422
H      -3.1525106056     -2.3204958263     -0.4046186499     -0.0035858512      0.0000428962     -0.0018510124      0.0750261281
H      -4.1538182536     -0.9562810877     -0.9301367570     -0.0095494290     -0.0025851727     -0.0039957866      0.0907341240
H       5.2642376814     -3.2021607496      0.3760437110      0.0028812993     -0.0087031713      0.0004266223      0.0473206282
H       4.4296497819     -2.9597073966     -1.1762369673     -0.0046394334      0.0060448645      0.0034062584      0.0381553514
H       5.5355302988     -1.7109149956     -0.5544754290     -0.0107056002     -0.0021079058      0.0007638904      0.0383975722
H      -5.5700813827     -2.7546551064      0.1051812252     -0.0106097644     -0.0122970913     -0.0045539892      0.0389572605
H      -4.6498815779     -2.6184354401      1.6238771258     -0.0020190392     -0.0021049645     -0.0075649961      0.0349471313
H      -5.6503131777     -1.2570415957      1.0657744500     -0.0030851912     -0.0089072888      0.0009979018      0.0481121906
N      -3.8426450106      4.6474296176      2.6166949024      0.0175090648      0.0026795609     -0.0018031679     -0.8449960649
S      -3.8484325090      4.4871521729      1.0296686857      0.0078000505     -0.0175804093      0.0039240669      1.9160958971
S      -2.5003046093      4.4130743154      3.4638355591      0.0050971529     -0.0030808894     -0.0007930150      1.9382755120
F      -3.7785683631      2.8048378114      0.8131829491      0.0020262652     -0.0047495515      0.0017555667     -0.4980954829
F      -1.5628829608      5.7233347451      3.0670275757      0.0235021923      0.0154920925      0.0006687786     -0.4675017473
O      -5.1539540933      4.8375426558      0.5204711267      0.0131621712     -0.0063258716      0.0189300198     -0.7010919800
O      -2.6415919209      4.9183622710      0.3284106367      0.0011312855     -0.0176335211     -0.0067207391     -0.7720154841
O      -1.6768073773      3.2851270011      3.0265147833      0.0259699086      0.0078267944      0.0012383420     -0.7925477481
O      -2.8005324696      4.5831343940      4.8651401578      0.0146661418      0.0121998755     -0.0006065604     -0.7024553725
