54
Properties=species:S:1:pos:R:3:forces:R:3:charge:R:1 energy=-293.0488806973666 homo_lumo=3.618346795189113 dipole="2.6894578167796337 -4.553866550492281 -2.6448053041528397" free_energy=-293.0488806973666
N      -0.0644883742      1.4792006107      0.0008386290      0.0445078407     -0.2672865520     -0.0189736290     -0.5219075633
C       0.5302257880      2.4072701012      1.0121266367      1.3136348762      1.1361147353      1.7891099262     -0.0159205221
C      -0.7277583424      2.3715657000     -0.9986854557     -1.3737247826      1.0585421677     -1.7572992049     -0.0201122857
C       1.0173183573      0.6917267917     -0.6761118955      1.1176287137     -1.0657737814     -0.3016420341     -0.0402923141
C      -1.0808906723      0.6023761684      0.6687219275     -1.1236884558     -1.1770401552      0.3280662089     -0.0519110928
C       0.0153521551      3.8069421082      0.7381990990     -0.5727971880      0.4275156473      0.6492354592     -0.1651830950
C      -0.2819737695      3.7961555497     -0.7342517585      0.4301191678      0.4287780655     -0.5777931590     -0.1430773862
C       1.7684525563     -0.2991535546      0.2468729360     -0.3054585110      0.2968947498     -0.1553862161     -0.2146089809
C      -1.7764182035     -0.4146739973     -0.2689071918      0.2980865400      0.3292722801      0.1641864362     -0.2124623621
C       2.9835297580     -0.8956308453     -0.4752627288     -0.1681423348      0.0496780079      0.1951340347     -0.1698266725
C      -2.8769843321     -1.1733711475      0.4842150842      0.1116061784      0.0937301896     -0.1800161472     -0.1733612084
C       3.7197789079     -1.9062665490      0.4123255825      0.0725423148      0.0110061795     -0.1618756865     -0.2114978758
C      -3.5927728607     -2.1742800867     -0.4304749143     -0.0516734182     -0.0027943954      0.1672553835     -0.2106288565
C       4.9266435831     -2.4982243426     -0.3105501443      0.1492216041     -0.1639014200      0.0906024237     -0.0886212685
C      -4.6638429909     -2.9490321883      0.3325589620     -0.1480967756     -0.1606734524     -0.0893573482     -0.0894511413
H       1.6412370707      2.4546356816      0.9404153847     -0.4351310219     -0.5472652899     -0.2980896446      0.1410468304
H       0.2957095007      2.1224195361      2.0635654085     -0.0064101854     -0.2908289307     -0.5960734233      0.1483739061
H      -1.8378190710      2.3610465533     -0.9014961033      0.4839336856     -0.4436804964      0.3060727991      0.1643254418
H      -0.5006577869      2.0966103487     -2.0543882387      0.0005901740     -0.3448675949      0.6059051000      0.1310555293
H       1.7610211061      1.3934300368     -1.1211890594     -0.4872721517      0.0718246114      0.3326037088      0.1543429979
H       0.6050396792      0.1197973291     -1.5363158875     -0.2197870995      0.3041712140      0.3876614342      0.1521915514
H      -1.8670653829      1.2393024638      1.1377796933      0.4946266880      0.1350754555     -0.3068603436      0.1780969811
H      -0.6172806151      0.0412403714      1.5097839589      0.1822130449      0.3414305624     -0.3789741443      0.1578077845
H       0.7664358312      4.5847142737      0.9974385709     -0.4345716879     -0.2912444351      0.1595259777      0.1073113517
H      -0.9197565658      3.9832445814      1.3131650520      0.3281973436      0.2066615001     -0.0774102604      0.1882911665
H      -1.0713061995      4.5340399649     -0.9972570988      0.3505486654     -0.2384900478     -0.0323780807      0.1340930005
H       0.6452615718      4.0152363130     -1.3091551965     -0.3059718644      0.0585731200      0.0464978848      0.0856919559
H       1.0925922596     -1.1304076057      0.5379746760      0.1162851756      0.2287127536      0.0228983157      0.1278629617
H       2.1135194058      0.2086735624      1.1719174106     -0.1424496437     -0.1113620234     -0.1648405195      0.1224646984
H      -1.0405225857     -1.1557812788     -0.6437849029     -0.1193928593      0.1947983759     -0.0179830396      0.1187015714
H      -2.2268763930      0.1025587154     -1.1420016896      0.1440170501     -0.1055462189      0.1463434151      0.1194163700
H       3.6831599484     -0.0770946200     -0.7542964327     -0.1422575013     -0.2076059677     -0.0545405131      0.0969452592
H       2.6434872785     -1.4034975205     -1.4046667445      0.1670061964      0.1591710243      0.1195168639      0.0958545350
H      -3.6202336943     -0.4476218770      0.8818520521      0.1776295528     -0.2006013384      0.0288741903      0.1105970936
H      -2.4218264545     -1.7189452301      1.3402037593     -0.1900845628      0.1580363631     -0.0955166492      0.0979598171
H       3.0299904833     -2.7317382607      0.6932106788      0.0870799998      0.2614677075      0.0559934142      0.0934373668
H       4.0686245323     -1.4054561119      1.3416380634     -0.2196795052     -0.1269911295     -0.1349955235      0.0971364138
H      -2.8572092845     -2.8961043606     -0.8475460004     -0.1125317312      0.2429118764     -0.0276163543      0.0878100621
H      -4.0740145288     -1.6326378869     -1.2737747642      0.2309848630     -0.1083773360      0.1037474958      0.0955856399
H       5.4336029992     -3.2318590703      0.3514014496     -0.0393515840      0.1906235331     -0.3047978091      0.0571603670
H       4.6053043783     -3.0202546777     -1.2372893491      0.1955320739      0.1504454175      0.2284594035      0.0446747890
H       5.6511185276     -1.6976905594     -0.5729508839     -0.1558922987     -0.2964134649      0.0038160747      0.0467159600
H      -5.1672185319     -3.6621814727     -0.3540070152      0.0516557463      0.1614631686      0.3166671269      0.0541778304
H      -4.2056679975     -3.5234509304      1.1661046045     -0.2316420590      0.1540300365     -0.1891026770      0.0444729185
H      -5.4267499675     -2.2531338983      0.7428035281      0.1866719846     -0.2807216121     -0.0484940690      0.0530382186
N      -3.8044240543      6.6377676419      3.1672275572     -0.1863648943     -0.0272994291     -0.2268648458     -0.8333757615
S      -3.4893136494      6.2302226780      1.6135817710      1.1102133272      5.0570839356     -1.3573139986      1.8331192062
S      -2.6725164925      6.4694388395      4.3373674223     -1.0581357135     -4.2186602861      2.0183916387      1.8465125804
F      -3.5316062949      4.5638952204      1.4571760072     -0.0406853096     -0.0546185938      0.0042658599     -0.4732037776
F      -1.5348326272      7.6888433948      4.1893694166     -0.5521087837     -0.3653664615     -0.0187984694     -0.4434897756
O      -4.5275246230      6.8368652293      0.7136315117      0.6657787027     -2.1890125117      1.7212797209     -0.7076908109
O      -2.1254438847      6.7230780406      1.2195310253     -0.9592840208     -2.0060745097      0.3873378811     -0.7416593903
O      -1.9829057243      5.1416822659      4.1969300966      0.2811241049      2.0299931644     -0.4519383491     -0.7529453020
O      -3.3250399139      6.5624713752      5.6870900289      0.9911503296      1.3544915918     -2.3545160386     -0.7050447133
