30
Properties=species:S:1:pos:R:3:forces:R:3:charge:R:1 energy=-171.04325313294868 homo_lumo=0.04320321515843466 dipole="-1.6856156933877022 4.644526864264401 2.3839318095296043" free_energy=-171.04325313294868
N      -0.4893293021      0.0021674426     -0.4041290672     -0.7598383236      0.0151875523     -0.1472448352     -0.5275617141
C       0.9375275095      0.0026096752     -0.7498261454      1.0064182336     -0.0889102835     -0.1452863246     -0.0339869462
C       1.7845051881      0.0029151313      0.5262474738      0.0552866379      0.0048129958      0.2620163798     -0.2436810409
C       3.2758229072      0.0055296303      0.2066974617      0.1393240131     -0.0342465567     -0.0779930866     -0.1094184385
C      -1.1501730638      1.1888190779     -0.2376990890     -0.9023303665     -0.4430716189      0.2961880449      0.2595236116
C      -1.1391931934     -1.1858960712     -0.2096473216     -0.7352772191      0.3835503926      0.2433723223      0.2633101492
C      -2.4989960539      1.2039372802      0.1265201755      0.7070146264     -0.5354174542     -0.1496031409     -0.0111736744
C      -2.4906631195     -1.2068537621      0.1415357369      0.5486776337      0.6595969273     -0.0897100697     -0.0033350582
C      -3.1717752168     -0.0028732598      0.3135210038      0.3065063416     -0.0718256087     -0.0847353168      0.0501547491
H       1.1834822163     -0.8915812875     -1.3665476355     -0.3646016964      0.2144412623      0.1987708213      0.1798896429
H       1.1838686243      0.8961125584     -1.3669719235     -0.3789724185     -0.2566999735      0.2117236442      0.1346281088
H       1.5449926535     -0.8996553323      1.1296367145     -0.0748124034      0.2417497016     -0.1139985785      0.1337621254
H       1.5418659025      0.9039815723      1.1306739356     -0.0967988098     -0.2408170420     -0.0728775240      0.1118876712
H       3.5478428423     -0.9007950130     -0.3754533473      0.0262257869      0.3096307487      0.1538946982      0.0855675603
H       3.8563971909      0.0070900300      1.1534670169     -0.1302712060     -0.0039653632     -0.3634245438      0.0756664925
H       3.5445593135      0.9124755748     -0.3759931087      0.0418805177     -0.3058199619      0.1468610222      0.0521154165
H      -0.6330907278      2.1316349513     -0.3720282655      0.4823717681     -0.1073287862     -0.1801740990      0.1108201502
H      -0.6102939564     -2.1247365944     -0.3096267747      0.5270320286     -0.0690537680     -0.2989702128      0.1737236402
H      -3.0157280620      2.1440613144      0.2699035406      0.0003298120      0.3030613569     -0.0267121854      0.0714618925
H      -3.0015370214     -2.1494429228      0.2901326529      0.0350541628     -0.3410812374     -0.0306181307      0.0861789018
H      -4.2153448214     -0.0051666372      0.5994786407     -0.3194214398     -0.0012752598      0.0598637564      0.0721924993
N       0.7993092983     -5.9019847667     -3.4177981712     -0.2956795513      0.0881608183     -0.0151906959     -0.8269101980
S       2.3372328854     -5.4640177755     -3.7641426722     -0.4281895424      3.6641086920     -2.8361708905      1.8512676753
S       0.0595422712     -5.3912270548     -2.0513057656      1.1862155737     -4.8554143073      2.8295105496      1.8276298555
F       3.3889699698     -6.3693617111     -2.8279630419     -0.5791681543      0.2702023992     -0.4033509929     -0.4383014935
F      -0.3275270119     -3.7722712720     -2.2155430388     -0.1475830808      0.2309637099     -0.0339647801     -0.4774330875
O       2.6180265259     -5.7210620836     -5.2173985586     -0.2958886772     -1.0362793380      2.6640942748     -0.6980833374
O       2.5407448554     -4.0063493688     -3.4574895488      0.2837838156     -1.9481074053      0.7526477249     -0.7375351578
O       0.9803135071     -5.5596174721     -0.8749714937     -0.9988048885      1.7120667711     -1.3695566150     -0.7247061150
O      -1.1967652840     -6.1847931368     -1.8303624294      1.1615168257      2.2417806364     -1.3793612161     -0.7076538808
