30
Properties=species:S:1:pos:R:3:forces:R:3:charge:R:1 energy=-173.15985465355502 homo_lumo=2.636017586645722 dipole="-0.13299589672238035 0.4081874647067371 -2.161957239263901" free_energy=-173.15985465355502
N      -0.3047583034      0.0630272240     -0.0768648288      0.0070415517      0.0166140457     -0.2960684525     -0.4822137808
C       1.0728101683      0.0646208623     -0.5864855115      0.4753296347     -0.1216055900      0.5760620210     -0.0039442511
C       2.0604499640     -0.1461859393      0.5673103309      0.2360555292      0.0490322330     -0.5580091596     -0.2566903007
C       3.4931272583     -0.1561878295      0.0460019583     -0.4392722386      0.0012709839      0.0844091106     -0.0500459848
C      -0.8529964187      1.2150434657      0.3422449339     -0.2422599008      0.2395003455      0.0279386579      0.2783321112
C      -0.9555228089     -1.1053651266      0.0542135416     -0.3082234807     -0.1974157187     -0.0453076055      0.2871105885
C      -2.1201550524      1.2277609243      0.8867105893     -0.0782183223     -0.0945533275     -0.0612257939     -0.0150022233
C      -2.2288045942     -1.1398593343      0.5801686673     -0.0435095188      0.1090743008     -0.1509521907     -0.0103080277
C      -2.8251998096      0.0385238671      1.0088659721      0.2329558883      0.0175560114     -0.2031704838      0.0662379146
H       1.1612563424     -0.7362127899     -1.3250411074     -0.0486222085     -0.1375022154     -0.2101133856      0.1077411134
H       1.2504860183      1.0241574358     -1.0780892206     -0.0301140049      0.1975444484     -0.1630473003      0.1070838587
H       1.8313863496     -1.0931193650      1.0622655570     -0.1038348856     -0.1503514573      0.1825531956      0.1487292543
H       1.9309868664      0.6562245610      1.2975471387     -0.1128089127      0.0958289957      0.2109168198      0.1685826603
H       3.6436223808     -0.9757794911     -0.6578400136      0.1390047263     -0.2448328511     -0.2319055044      0.0265125959
H       4.1795889904     -0.2849647110      0.8818167799      0.2592561547     -0.0391053133      0.1989450975      0.0566777288
H       3.7282471627      0.7835741313     -0.4553676505      0.1687210126      0.2782444036     -0.1631409521      0.0270293169
H      -0.2498214147      2.1099370586      0.2548075887      0.1181716339      0.0745804478     -0.0340622830      0.1018150994
H      -0.4296826855     -2.0024918100     -0.2482049513      0.1234445121     -0.0884631693     -0.0331881260      0.1013393957
H      -2.5312711044      2.1610826699      1.2486364330     -0.0510288647      0.2238881489      0.0856382088      0.0663202630
H      -2.7234157899     -2.0945955630      0.7003387990     -0.0696390996     -0.2273948199      0.0075092918      0.0690068743
H      -3.8069600918      0.0244296096      1.4650978286     -0.2291667427     -0.0010701913      0.1192634396      0.0621857672
N       0.0816610633     -0.5481631458      2.8042676130     -0.1554529619      0.0234595602      0.1463618873     -0.9283371289
S      -0.2414289363      0.8327942667      3.5123618146      0.4013592237      0.0301446688     -0.2334516005      1.9963049799
S      -0.5684828888     -1.8913177977      3.3502547166      0.2312961553      0.0931363957     -0.4523168281      1.9757731936
F       0.5197849710      0.7893422262      4.9262454951      0.3663518109     -0.1406474756      0.6587192353     -0.4511054836
F      -2.1788561917     -1.6283987938      3.2560193038     -0.7047010922      0.0557391236      0.1631863393     -0.4702029799
O       0.4559183732      1.8330073429      2.7519091093      0.8616361242      1.0802691319     -0.6449070340     -0.7777955330
O      -1.6134830226      1.0773671409      3.8305013917     -1.4305184280      0.1084568026      0.5334877661     -0.7310329323
O      -0.3402654987     -2.2166465640      4.7147666361      0.2008802710     -0.1491517956      1.6563290102     -0.7048935270
O      -0.3331063537     -2.8775892301      2.3376313277      0.2258664335     -1.1022461227     -1.1704533807     -0.7652105625
