55
Properties=species:S:1:pos:R:3:forces:R:3:charge:R:1 energy=-296.29716598973755 homo_lumo=5.30875864140075 dipole="-1.1442979163017446 -3.129798980976429 -2.1323142155615074" free_energy=-296.29716598973755
N      -0.1403806999      0.6642684779      1.1564650090      0.0006453090      0.0016406383     -0.0014491137     -0.5235127150
C      -0.4143431500      1.7002546295      0.0735749879     -0.0051673010      0.0080557670      0.0076651544     -0.0464206008
C      -0.3038921419     -0.7234122590      0.5742505667     -0.0011525386     -0.0084097064      0.0085565861     -0.0127012681
C       1.3041159803      0.8685123524      1.6105671945     -0.0027995465      0.0045380011     -0.0051773009     -0.0731069756
C      -1.7558083151      1.5124976725     -0.6124466041     -0.0005184190      0.0119741741      0.0072507326     -0.1745883385
C      -1.6481581808     -0.9350060419     -0.1045331410     -0.0043552955     -0.0151964138     -0.0008484478     -0.1626657739
C      -1.8959392738      0.1072786623     -1.1931116532     -0.0057642779      0.0005724176     -0.0230990288     -0.1671526918
C      -1.0651939559      0.8754795289      2.3177498458     -0.0013592152     -0.0015507117      0.0023384536      0.0184376445
C       1.8002680729     -0.0749394060      2.6920365304     -0.0049354336      0.0003836276      0.0008161136     -0.2628785620
C       3.2700605400      0.2383206501      2.9862043385      0.0020661956      0.0071018325     -0.0064987124     -0.0820455047
H       0.4071804057      1.5897539407     -0.6517790599      0.0077619852     -0.0028704304     -0.0018409726      0.1216684641
H      -0.3255897863      2.6833654182      0.5508810117     -0.0009489666     -0.0000707468     -0.0046592631      0.2236435550
H      -0.1497005135     -1.4349952322      1.3956085867     -0.0030312508     -0.0030977676     -0.0086507920      0.1455671676
H       0.5175203777     -0.8419932876     -0.1511242376      0.0015364120      0.0036392429     -0.0030860158      0.1308980814
H       1.3718592344      1.9097335445      1.9564765109     -0.0007986626     -0.0015430967     -0.0030627563      0.2584929883
H       1.9124227424      0.7656384681      0.6973874526     -0.0020805290      0.0013417350     -0.0044560405      0.1104011695
H      -1.8172842466      2.2775317582     -1.4041128700      0.0019520537     -0.0022318031     -0.0037092569      0.1214218354
H      -2.5830096396      1.7327396022      0.0831560894      0.0054790761     -0.0034927105     -0.0005847465      0.1056569280
H      -2.4616075993     -0.9154683214      0.6407106647     -0.0016934434      0.0037106488      0.0007296239      0.1041840880
H      -1.6423372713     -1.9542116719     -0.5268392225     -0.0001855970      0.0111087142      0.0009517414      0.1124360962
H      -2.8929537729     -0.0330821531     -1.6401286273      0.0033266451      0.0043249323      0.0116826014      0.0933068039
H      -1.1585486973     -0.0297734391     -2.0058216356      0.0016563874      0.0010395849      0.0066453985      0.0919243742
H      -0.8914180654      0.0803734088      3.0509012100     -0.0008117272     -0.0010964551      0.0000748005      0.0844502464
H      -0.8440170259      1.8536867955      2.7641975662      0.0043852730      0.0035172435     -0.0013591388      0.1913419961
H      -2.1013816911      0.8355737597      1.9703917365      0.0017170231      0.0052478528     -0.0055523147      0.0964548292
H       1.2196636679      0.0660770746      3.6159030092      0.0050987285      0.0038885368     -0.0008458031      0.1447131360
H       1.7055078927     -1.1284507991      2.3806061143      0.0002013803      0.0017010709      0.0018257437      0.0845783299
H       3.8960879386      0.0836493371      2.0931821694      0.0006517510     -0.0018234746     -0.0001683940      0.0301750687
H       3.3840726215      1.2794832451      3.3167962236      0.0041955196     -0.0045972596     -0.0017824849      0.1125602839
H       3.6465967604     -0.4160043491      3.7847103536     -0.0052953548     -0.0068313946      0.0019373348      0.0469809018
P       1.1660201133      4.5753956887      3.9302521101     -0.0038646924      0.0058846383      0.0038444112      1.7500403298
F      -0.0490088673      3.3893286191      3.8766749328      0.0059820930      0.0040001741     -0.0017391791     -0.5481136432
F       0.1080158934      5.7446787246      4.4207700419      0.0049434275      0.0015070191      0.0047562753     -0.5047392972
F       2.2470437077      3.3891617459      3.4090316425      0.0119128266     -0.0087841594     -0.0000962563     -0.5345216197
C       1.3148597350      4.0064274655      5.8137677143     -0.0043795392     -0.0077412345     -0.0030746036      0.5218075983
C       0.5923590753      4.9709607795      2.0054205521      0.0016784828     -0.0029829532     -0.0018015578      0.4788073069
C       2.6937181126      5.8760510542      3.7917938515     -0.0039625004      0.0167097493     -0.0156718569      0.5250986181
C       1.8794130747      2.5927609060      6.1543050600     -0.0052817231     -0.0159958742      0.0132188515      1.3691013866
C       0.4604738362      6.3964985603      1.3620249143     -0.0015523176      0.0179663581      0.0068550619      1.3818800676
C       3.9409276293      5.9713538984      4.7352355645     -0.0025729862      0.0091072532      0.0259759312      1.3894218547
F       0.0512994395      4.0112647794      6.3659793125      0.0090564105     -0.0069366780      0.0058467865     -0.4374946574
F       2.0618824009      4.8888542773      6.5589712521     -0.0017246409     -0.0098235688      0.0016840006     -0.4504760763
F      -0.7132972609      4.4952589030      1.8643736208      0.0106431070      0.0062394670     -0.0010430427     -0.4623428112
F       1.3511558564      4.2350234492      1.1015006149     -0.0141449975      0.0104645628     -0.0010212168     -0.4650054438
F       2.1949094185      7.1583947934      3.7465616404      0.0130573941     -0.0099215937     -0.0065194411     -0.4417796459
F       3.2546767865      5.6015646566      2.5556751341      0.0110143609      0.0098944875      0.0009046594     -0.4470585023
F       1.7898115461      2.3862730921      7.4970938269      0.0085964043      0.0025128389      0.0021969131     -0.4472220452
F       3.1764977505      2.4458448039      5.8056350260     -0.0034732174     -0.0030803340      0.0070431671     -0.4520582548
F       1.1665215149      1.6014511640      5.5485854746      0.0071025709     -0.0045779420     -0.0011197860     -0.4710734201
F      -0.1826358236      6.2556148645      0.1559996591     -0.0089144538      0.0072884360     -0.0045710978     -0.4598616980
F      -0.2893093412      7.2122945073      2.1307730751      0.0016267454     -0.0111638354     -0.0092898020     -0.4361966792
F       1.6384775683      6.9923363791      1.0986077103     -0.0178120200     -0.0011217302      0.0035840861     -0.4403689613
F       3.6900254257      6.6988492477      5.8453353584     -0.0049613810     -0.0257619879     -0.0002973817     -0.4418362903
F       4.9509980600      6.6049487862      4.0717591313     -0.0113269796     -0.0011127998      0.0029185958     -0.4490421970
F       4.3949956993      4.7472335419      5.0900780106     -0.0014185551     -0.0035443423     -0.0062272198     -0.4511874767
