55
Properties=species:S:1:pos:R:3:forces:R:3:charge:R:1 energy=-296.35681459950183 homo_lumo=5.357845281593 dipole="0.39511206733602566 -2.4953506195750563 -2.5533622367550772" free_energy=-296.35681459950183
N      -0.6476010316      0.3729125484      0.5798876563      0.1194742262      0.0773145324     -0.1375950913     -0.5254730150
C      -1.8150578838      1.2722853633      0.2795362116     -0.7033229822     -0.0181833172      0.1678864994     -0.0739875947
C      -0.6372562779     -0.7681718508     -0.3879042682     -0.3278704936     -0.5201882840     -0.0053951205     -0.0034280189
C       0.5902574238      1.2148456217      0.3957390897      0.6387108597     -0.1791484734      0.2153397770     -0.0480599846
C      -3.1509476812      0.5443648931      0.2741529617      0.3749815403     -0.2004076266     -0.4005945387     -0.1727254729
C      -1.9477870567     -1.5484774527     -0.3755490230      0.0073364624      0.4563914690     -0.2292486159     -0.1526093884
C      -3.1288661498     -0.6336465853     -0.6971148522      0.1700551368     -0.0422890552      0.4351410697     -0.1501799083
C      -0.7189827314     -0.1168691490      1.9838191126      0.0047447720     -0.0849882227      0.1186298290     -0.0036620456
C       1.8984146238      0.5435964659      0.8053561877     -0.1865955066      0.3487596603     -0.2008556803     -0.2451868677
C       3.0532851994      1.5127454443      0.5504974471     -0.2854480436     -0.3028003004      0.0697744400     -0.0485149983
H      -1.6257065272      1.7199171869     -0.6996752246      0.1425422516      0.0754214249     -0.2434790300      0.1065693069
H      -1.8130752008      2.0567209950      1.0341701827      0.1403689435      0.0806723327      0.0702571304      0.2817569790
H       0.1975480249     -1.4217059829     -0.1270653947      0.2253808944     -0.0523930966      0.0497241251      0.1368540667
H      -0.4608229421     -0.3462629864     -1.3815062859      0.0575804979      0.1575671234     -0.2031794438      0.1210876706
H       0.4425573479      2.1175628620      0.9914298753     -0.1056497150      0.1712673828      0.1309922453      0.2301634511
H       0.6260938531      1.4967726992     -0.6599993508     -0.0707095962      0.0301607729     -0.2748269674      0.1106220621
H      -3.9104424585      1.2679993244     -0.0313919036     -0.2060673460      0.2430598355      0.0568904169      0.1138348473
H      -3.4093210549      0.2047312497      1.2799975977     -0.1324169711      0.0248782268      0.2670959819      0.1106382302
H      -2.0943750665     -2.0280473503      0.5957439071     -0.0213699342     -0.1992270918      0.2240336113      0.1014509465
H      -1.8689837026     -2.3370940481     -1.1284133639      0.0791377792     -0.2774936201     -0.1296925061      0.1026085566
H      -4.0614075879     -1.1970347205     -0.6203407313     -0.2711870766     -0.1397043191     -0.0880573578      0.0864816547
H      -3.0360305453     -0.2648378892     -1.7238493733     -0.0030172425      0.0824057998     -0.3079622899      0.0815984120
H       0.0210823623     -0.8998519277      2.1305209478      0.2071959182     -0.2172508958     -0.0301701801      0.0651048727
H      -0.5216542102      0.7177953233      2.6492914976      0.0016681320      0.2019997058      0.0904435538      0.2281378029
H      -1.7098008273     -0.5106696973      2.1886802402     -0.2069576311     -0.0738184286      0.0054962791      0.1091403907
H       1.8790798399      0.2900436189      1.8677103029     -0.0208790040     -0.0591826231      0.2619597308      0.1181903871
H       2.0598155081     -0.3753305746      0.2343932391      0.0669138217     -0.2540971328     -0.1261879357      0.0928521949
H       3.1110697378      1.7735254902     -0.5066671114      0.0814925418      0.1119586360     -0.3173252739      0.0326815574
H       2.9165807962      2.4256837780      1.1299277819      0.0016417900      0.2981559784      0.1700905415      0.0632342516
H       3.9923392149      1.0480666785      0.8480421250      0.3138240510     -0.0626251958      0.0577767668      0.0488098425
P      -1.1737057665      3.7809194266      4.0035059955      0.3858652839      0.1399509576      0.1065274233      1.6700656704
F       0.2975178508      4.5717701148      4.1072055927     -0.0613667506     -0.0270040097     -0.0757830016     -0.5249249097
F      -0.5554935281      2.8851589109      2.6482122824     -0.0929654989      0.0374900838      0.2248960166     -0.5618068770
F      -1.8253914731      4.6014046036      5.2953134707      0.0028819919     -0.0465865480     -0.1441226606     -0.5158058679
C      -0.4233380348      2.4516704469      5.2353284194     -0.1023859097      1.0482519623     -0.2938900163      0.5230435687
C      -1.6971245866      5.2498254177      2.8150526903      0.5545083636     -0.9836903145     -0.0815283039      0.5645413215
C      -2.8549918204      2.7062753160      3.7215301356      0.4447529488      0.7839895757      0.4512325931      0.5672296485
C       0.7445559255      2.8931737792      6.1602572867     -0.5152516828      0.1705252825     -0.5954211543      1.3984759595
C      -1.1284438169      5.2562553052      1.3699447137     -0.0990027287     -0.3792106049      0.7578266352      1.3861797273
C      -4.1384996505      2.8942408464      4.5721051868      0.8418348920      0.2230185601     -0.1748502172      1.4202184727
F       0.0405278333      1.3590835370      4.5792103256      0.6825123693     -1.0977912158     -0.4645707813     -0.4753714931
F      -1.4125639609      2.0275663348      6.0396467767     -0.7433777298     -0.4026330927      1.0706144909     -0.4479411998
F      -1.2864200860      6.3943505400      3.3815256735      0.4281221930      1.1998906718      0.4362088657     -0.4371892675
F      -3.0349340296      5.3319635829      2.7015770263     -1.3010158328      0.3196391200     -0.2571767186     -0.4532083882
F      -2.5342065945      1.3890574088      3.8053638008      0.0309792022     -1.2233072104      0.2146087411     -0.4773495256
F      -3.2435910590      2.8833457884      2.4317020145     -0.5963878419      0.0983934880     -1.0226136776     -0.4755375911
F       0.9252308241      1.9814456663      7.1207353113      0.0720408236     -0.9787129643      0.8772696655     -0.4560598518
F       0.5104960956      4.0592589875      6.7444670489     -0.2753785644      0.9453329727      0.5909941556     -0.4418098028
F       1.8819045415      2.9768688888      5.4717600736      1.0536685643      0.0237892546     -0.6204571009     -0.4511571768
F      -1.4237206736      6.3956311269      0.7494527638     -0.3680861572      1.1605790343     -0.4884723626     -0.4492739215
F       0.1934388316      5.1102262458      1.3511216013      1.1866448395      0.0302427053      0.0237897563     -0.4527620289
F      -1.6511268727      4.2589401690      0.6360838306     -0.5615880234     -0.6194628233     -0.6699697915     -0.4801701612
F      -5.0963336160      2.0752183003      4.1171371613     -0.8485282287     -0.8673341624     -0.5192082565     -0.4603747060
F      -4.5940885564      4.1378195881      4.4891834845     -0.3977753104      1.0717939463     -0.1181538382     -0.4432841678
F      -3.9327648726      2.6051071255      5.8499007863      0.1877407112     -0.3033698661      1.0752875711     -0.4437176213
