44
Properties=species:S:1:pos:R:3:forces:R:3:charge:R:1 energy=-237.18634164841967 homo_lumo=0.6214491859437102 dipole="-1.363676508570045 -0.7684724402858981 -6.499873730907981" free_energy=-237.18634164841967
N      -0.8323938538     -0.1987973849      0.0153996685      0.0905300605      0.0649335396     -0.0689229387     -0.5208421128
C      -1.1685347000     -1.2408797315     -1.0035621269      0.0163971766     -1.6173156394     -1.7371523262     -0.0083751354
C      -1.9661043832     -0.2298435785      0.9900094652     -1.6542245327      0.4725214181      1.7833975872     -0.0255974515
C       0.4399350193     -0.5581859330      0.7222313156      1.7134256502     -0.1665890772      0.4697129817     -0.0875809946
C      -2.5900466193     -1.7103808405     -0.7568511838     -0.6038636816      0.0556874855     -0.5951151007     -0.1423708214
C      -2.7993435670     -1.4651626695      0.7108749238     -0.0724720699     -0.6056212409      0.5861758648     -0.1420473845
C      -0.7580301676      1.1448459764     -0.6458355966      0.3058938520      1.6340758579     -0.2894752517     -0.0458243526
C       1.7037690828     -0.5322402939     -0.1704290564     -0.4416045500      0.0353242460      0.1354153531     -0.2185430140
C      -0.3904044034      2.3070308456      0.3086403443      0.0071487334     -0.3347297315      0.1194392192     -0.2690312909
C       2.9178973288     -1.0734723946      0.5944504035     -0.0222763745     -0.0057344363      0.1118920254     -0.2192320721
C      -0.5069961272      3.6543010725     -0.3980627185     -0.0622727798      0.0650429418     -0.1771083047     -0.0922879593
C       4.1796016174     -1.0223830998     -0.2624576695      0.1363850452     -0.0375555009      0.0124912437     -0.0899062347
H      -1.0682615427     -0.8794824857     -2.0527286003      0.2531320877      0.1766692818      0.6205031209      0.1373426307
H      -0.5148251685     -2.1395543684     -0.9203124835      0.1121510367      0.6892343350      0.3019116739      0.1535462406
H      -1.6338124578     -0.2296612577      2.0536462751      0.2801281310      0.2000816864     -0.5660191723      0.1826245268
H      -2.6440943427      0.6474592127      0.8756933851      0.6963353252     -0.0869093763     -0.2516712427      0.1504801308
H       0.3420444142     -1.5747156214      1.1701213259     -0.3468991795      0.3686106021     -0.2769256229      0.1631447331
H       0.6133271531      0.1268204011      1.5791579521     -0.3965029713     -0.1011752347     -0.3089640458      0.2237904476
H      -3.3007871189     -1.0923670958     -1.3491396868      0.1289802292     -0.2912666513      0.0953605775      0.1013471657
H      -2.7242810627     -2.7840963551     -1.0134334083      0.0223590811      0.4722570095     -0.1388392980      0.1039202610
H      -2.4094024150     -2.3254000597      1.2988134974     -0.2553236702      0.2249220315     -0.0732934482      0.1142013590
H      -3.8738343378     -1.3048600032      0.9484008976      0.4772543621     -0.1140239876      0.1699587954      0.1091216448
H      -0.0219968801      1.1300577261     -1.4798549249     -0.1278171402     -0.3608210375      0.3853673891      0.1564596560
H      -1.7378852185      1.3772549041     -1.1248743614      0.1765925475     -0.4372447930      0.3319843779      0.1488569610
H       1.5519208812     -1.1428855137     -1.0848323963      0.0254634239      0.1489067277      0.1079043574      0.1051645297
H       1.9278967105      0.5093190697     -0.4814501069     -0.0961215410     -0.2102061913     -0.0086602739      0.1256450993
H      -1.0558237079      2.3175132369      1.1967147990      0.2227274536     -0.1349223343     -0.1180942115      0.1458471981
H       0.6559642702      2.2036744999      0.6625919923     -0.2902348879     -0.1433939561      0.0427013611      0.1451708708
H       3.0824842562     -0.4676753403      1.5124018312     -0.1417322888     -0.2496966895     -0.1135036047      0.1300514080
H       2.7321878227     -2.1270469086      0.8969242116     -0.0191338272      0.2836894207      0.0779412310      0.1019903905
H       0.1858321465      3.6945793290     -1.2655353674     -0.2511507468      0.1197822987      0.1987098026      0.0499423620
H      -1.5475297257      3.8185892157     -0.7500932078      0.3236963548      0.0747014939      0.0398210709      0.0478373266
H      -0.2391553458      4.4684654019      0.3081272651     -0.0958537229     -0.2394780249     -0.2828426312      0.0846747334
H       5.0398628840     -1.4148060277      0.3197356460     -0.1924398295      0.1489003868     -0.2675492190      0.0704973117
H       4.0527080687     -1.6455302542     -1.1732150646      0.1382383117      0.2104767900      0.1962271431      0.0398420823
H       4.4014352764      0.0242614014     -0.5614864025      0.0220824928     -0.3267635247      0.0231523572      0.0463821115
S       0.7789233095      0.7465811481      6.5387800599     -0.3018446175     -1.4997938598     10.9448286129      1.5546404950
O      -0.5641266575      0.2313105038      7.0769143040      0.5448368375      0.6355521860     -3.3878553790     -0.7588903668
O       1.7875919026     -0.2755378748      7.0835856889     -0.2962625456      0.8452509469     -3.3865639905     -0.7537427806
O       1.0453556798      1.9933408204      7.3952081851     -0.0295122482     -0.0718137757     -3.5216389381     -0.7491240693
C       0.8403115596      1.0062259595      4.7447675506      0.2405720023      0.3457093331      0.3557836375      1.0864552665
F      -0.1165097219      1.9334035825      4.3776073008      0.6093197630     -0.5628833415     -0.5389439528     -0.4490726756
F       0.5913774362     -0.1921458191      4.1051289882      0.0893245732      0.6322627777     -0.5230032913     -0.4659729260
F       2.0921500547      1.4694408682      4.3868187791     -0.9354313261     -0.3066543922     -0.4785375397     -0.4405353001
