50
Properties=species:S:1:pos:R:3:forces:R:3:charge:R:1 energy=-273.01377153924716 homo_lumo=0.6028795884948852 dipole="-8.059138733576104 -3.325418196066478 -1.3038212390975812" free_energy=-273.01377153924716
N      -0.7479502512     -0.9349750311      0.4130339966      0.7936259577      0.5060749714      0.7190000466     -0.5175909183
N       1.4348808328     -0.5412908796      0.2553935281     -1.0185107882      0.0670254059      0.8460390769     -0.5082949598
C      -2.1420364414     -0.8452800701      0.8439293817     -0.9891707681     -0.0900188163      0.1398108481     -0.0282187759
C      -3.0011493178     -0.1371546027     -0.2112410647      0.0391444291      0.2478641572     -0.1358384701     -0.2428525869
C       0.3025200523     -0.2703867857      0.9331031641     -0.0032799920      0.9442219555      0.9354677305      0.5730897714
C      -0.2622242875     -1.6576590769     -0.6168480134      0.7553123244     -0.7682078150     -1.3003274339      0.2334174361
C       2.7538545893      0.0433911725      0.4827258333      0.9720281932      0.6132273183      0.1322974851     -0.0881178962
C       1.0918636421     -1.4122710063     -0.7154644962     -0.6595346155     -0.9764472260     -1.1171607268      0.2486535084
C      -2.5641747621      1.3110896016     -0.4279766988      0.0055134176      0.0500891493     -0.0993148175     -0.1121438175
C       3.0928128557      1.0288067234     -0.6297498711     -0.0781064612      0.1133751287     -0.2589870332     -0.1321788986
H      -2.2108049133     -0.2935945171      1.8075151216      0.3338063707     -0.2115124322     -0.3263495683      0.1314182799
H      -2.5378380620     -1.8694846762      1.0149876639      0.3662084545      0.2044245972      0.0050209439      0.1413312893
H      -2.9467899373     -0.6873848834     -1.1753829468     -0.1110987048      0.0272396602      0.2657539619      0.1201518316
H      -4.0600248674     -0.1441503278      0.1258671462      0.2895028362     -0.2196077876     -0.0240422316      0.1272483410
H       0.2375390014      0.4216043608      1.7639348869      0.0210969516     -0.0172702207      0.0551843246      0.1082408472
H      -0.8507259750     -2.3001853836     -1.2588385610     -0.2022385044     -0.0201457589      0.1058571752      0.0646602239
H       2.7700145699      0.5803697416      1.4564159971     -0.2225357925     -0.4128548897     -0.2335104449      0.1442867811
H       3.5183277250     -0.7623639678      0.5197858839     -0.4066561339      0.0775517956      0.0851642322      0.1569839118
H       1.7713633185     -1.8245127361     -1.4501089213      0.2262439827      0.0563612665      0.0772985793      0.0727086685
H      -1.5349601318      1.3493116469     -0.8437845490     -0.2739040392      0.1249434559      0.1075941141      0.0742214576
H      -2.5936185616      1.8718657320      0.5304145944      0.0284646821     -0.0579934987     -0.3115464310      0.0553613299
H      -3.2513333980      1.8023857026     -1.1483996233      0.3035816083     -0.0516631300      0.2315414065      0.0825216643
H       3.1124611570      0.5108798528     -1.6117537587      0.0524090646      0.2427336009      0.2432087985      0.0648004033
H       4.0900841280      1.4754574931     -0.4430255430     -0.2144591573     -0.1410191388     -0.0403036685      0.1491639772
H       2.3355151925      1.8411032705     -0.6600097039      0.2603467932     -0.1974904700     -0.0473640670      0.0674442636
P       8.7426145746      3.0823078414      1.4280702464      1.2568848275      1.0291123243      3.6455004115      1.6349136478
F       9.0371879205      3.6652007399      3.0242297509      2.4842572170      1.8029584924      0.3845199108     -0.5263694790
F       9.9104089800      3.7777538535      0.3687922281     -0.8388683294      0.1672060848     -0.3399267558     -0.5139104149
F       7.7356632469      2.2308030579      2.5331587259     -1.6278501570     -1.4671422802     -1.6224567284     -0.5245039157
C      10.3660402421      2.0996439810      1.7968809204     -0.1639258763     -0.6656881508      0.0133968073      0.5390060300
C       8.0433874044      4.8876257461      1.4264889090     -0.7366211224     -0.0812679251     -0.3349597108      0.5483414683
C       7.5893759326      2.2069810902      0.1667826911      0.8139710736      0.3484580524     -0.5692435479      0.5368660031
C      10.2541308917      0.9820873863      2.8568278756      0.1862742324     -0.0387155147      0.8061469409      1.3344987315
C       7.5549012956      5.4645009083      0.0725752581      0.1944895839      0.8033871021     -0.3690952527      1.3240907040
C       7.6300390039      0.6692280085      0.1013889553      0.2157396464     -0.7441806632      0.2931250061      1.3616729662
F      11.3354341623      2.9849839569      2.2541691468     -0.4292083070     -0.6235796312     -0.1847174141     -0.4322210050
F      10.8604743139      1.5318208586      0.6330997200      0.3290236196     -0.2244936046      0.4420977488     -0.4511368902
F       9.0224665366      5.7633782716      1.8858062396     -0.6865321309     -0.3791055050     -0.6020641257     -0.4305739287
F       6.9727206069      4.9474783014      2.3057186020     -0.0164075044      0.3942147188     -0.3426970316     -0.4463537279
F       7.8960647179      2.6771516935     -1.0975600544     -0.3831128956     -0.4550272951     -0.1332039336     -0.4439434300
F       6.2791260022      2.5520339107      0.4501742216      0.0231090105     -0.3629012068     -0.1614938589     -0.4598534276
F      11.5079459970      0.4342720003      3.0632021329     -0.6388877175      0.0053157176      0.0701870322     -0.4561778706
F       9.4161209483     -0.0280035264      2.4386446448      0.7311789764      0.5450552658      0.5621820331     -0.4560191921
F       9.8003207466      1.4739967332      4.0668393569      0.6080714473     -0.9272813777     -0.9956680984     -0.4336537279
F       7.3133668202      6.8180516664      0.2309303038     -0.0248582267     -0.5203345081     -0.3303735022     -0.4549856387
F       8.4979761025      5.3223738429     -0.9273862941     -1.2309971241      0.4189872258      0.6686600442     -0.4357125246
F       6.3700763102      4.8859946227     -0.3335533432      0.7706466686      0.6256979401      0.0166197160     -0.4567826688
F       8.9029460110      0.2042816637     -0.1484177266     -1.5290684541      0.2269815723      0.0975791374     -0.4344303656
F       6.8208870244      0.2497067704     -0.9401262291      0.1471097011     -0.0898901478      0.3324897616     -0.4685580136
F       7.1372855139      0.1049846286      1.2635162808      0.2777917323      0.1013320351     -1.4010984207     -0.4405094629
