32
Properties=species:S:1:pos:R:3:forces:R:3:charge:R:1 energy=-173.15149371099054 homo_lumo=1.9099292092871758 dipole="-7.64681611682109 0.30108612799005524 -0.2359139231264379" free_energy=-173.15149371099054
N      -0.3710003278      0.3764808361      0.0561217167      0.1410356104      0.4394586904     -0.1614391908     -0.5490907892
C      -1.4147327879      0.6241030141     -0.9749747583     -1.3492065114      0.5139232581     -1.9033296926      0.0015629643
C      -0.8420232013     -0.8145107544      0.8223792116     -0.2892125983     -1.7720101688      1.5166592825      0.0015601024
C      -2.6898421005     -0.0445408244     -0.5054123808     -0.6865469481      0.5363246711      0.1689237705     -0.1567358071
C      -2.2002449710     -1.2351575199      0.2756445858     -0.2529616228     -0.7788528037     -0.1239172277     -0.1421448110
C       0.9358361720      0.1175756049     -0.6220826586      1.8815370879     -0.3075691224     -0.2258935773     -0.0458524497
C      -0.2805971953      1.5650556233      0.9443083441      0.1457108025      1.0996782027      0.9540635353      0.0046736476
C       2.1372046128     -0.0393981453      0.3385004936     -0.2499187003      0.1945847184      0.0372229041     -0.2570387607
C       3.3543127459     -0.5952950225     -0.3968938821      0.0083528208     -0.0602028170     -0.1230150455     -0.1065188598
H      -1.1438902969      0.1669026877     -1.9559408236      0.4192698199      0.1160402236      0.5848586440      0.1540719476
H      -1.5908612276      1.7079135798     -1.1664763327      0.5049337109     -0.3839133563      0.2223127999      0.1417824356
H      -0.9501615523     -0.5992226626      1.9110271464      0.3610912357      0.3126871814     -0.5535084898      0.1445676595
H      -0.1486734059     -1.6814154176      0.7414789372      0.0905164761      0.7126524848     -0.0525434911      0.1630887664
H      -3.3338140071     -0.3504320552     -1.3588969246      0.1458673754      0.3441238157      0.3361521366      0.1129227629
H      -3.2543820320      0.6418466808      0.1631269058     -0.0008344979     -0.1767028693     -0.2813787754      0.1048659912
H      -2.9087593577     -1.5075913385      1.0881419509      0.3432363754     -0.0947507483     -0.3187053302      0.1074268291
H      -2.0760291455     -2.1031331791     -0.4101282313     -0.0974937682      0.1874903493      0.3168724517      0.1114317910
H       1.1685633751      0.9504431949     -1.3252606186     -0.4036331030     -0.1565933138      0.2870574284      0.1582486416
H       0.8541479026     -0.8061342877     -1.2411521294     -0.3393874301      0.2913246409      0.3218142005      0.1468355069
H       0.1298873543      2.4420923440      0.3952432665     -0.1330383198     -0.5202585616      0.0384242073      0.1221902858
H      -1.2826814659      1.8433462308      1.3404682256      0.2640615195     -0.3312945584     -0.3369418440      0.1233229484
H       0.3712091404      1.3670859852      1.8231242928     -0.1717662640     -0.1354318690     -0.5126798815      0.1381512343
H       2.4136375464      0.9503739524      0.7601248501     -0.1384305855     -0.2538325786      0.0041682352      0.1344140939
H       1.8929469662     -0.7211174424      1.1791201236     -0.0786353370      0.1779180140     -0.0992224455      0.1130775106
H       4.2091029606     -0.6753125125      0.3064721653     -0.0658437225      0.0792398437     -0.4119319987      0.1485876934
H       3.1325576082     -1.6064263102     -0.8003241048      0.1611212829      0.2782956672      0.0601889771      0.0355650312
H       3.6413996745      0.0782080647     -1.2321915543      0.1140178002     -0.2960195090      0.2702473939      0.0702621156
B       7.7411825860     -0.0837927257      0.3128002289      0.5450497444      0.0322722900      0.0970411424      1.2770263667
F       8.1504064355     -1.0059831496      1.3124392333     -0.0527093585     -0.1583129097      0.1501005080     -0.5594791527
F       7.1013489234      1.0261059121      0.9259831951     -0.3448346019      0.2617990552      0.1413910712     -0.5695145910
F       6.8359665913     -0.7206768860     -0.5768348838     -0.5291092630     -0.2108848835     -0.2875648475     -0.5730627811
F       8.8778299545      0.3651111733     -0.4108390954      0.0577609703      0.0588169627     -0.1154268510     -0.5561983237
