55
Properties=species:S:1:pos:R:3:forces:R:3:charge:R:1 energy=-297.1171874179993 homo_lumo=6.161577391920498 dipole="-0.4315122921250288 -3.4110618339137333 0.05944240898978689" free_energy=-297.1171874179993
N      -0.7326254123      0.8893457026      0.3202413115      0.0021147628      0.0013569014      0.0002170551     -0.4881759342
C      -1.1116373731      1.7533351805      1.5206176185     -0.0106053279     -0.0095364083     -0.0007564189     -0.0799979632
C      -1.7342473397      1.1418328655     -0.7986649269     -0.0012846624      0.0034831325      0.0022076349     -0.0304876555
C       0.6218724948      1.3437675753     -0.2181545127     -0.0026068856      0.0067727735      0.0011781103     -0.0587036487
C      -0.7033877062     -0.5623930545      0.7424305968     -0.0008922339      0.0028809480     -0.0000576089     -0.0313066572
C      -2.5584690375      1.5800175547      1.9557074726      0.0043987332     -0.0028313613     -0.0103269074     -0.1627857286
C      -3.1802921985      0.9433850531     -0.3773231239      0.0113946755      0.0054343695      0.0085890127     -0.1728174319
C      -3.5192925406      1.8563193866      0.8010684555      0.0154341412     -0.0118678641      0.0012725273     -0.1694516479
C       1.7925572991      1.2073392626      0.7360398983     -0.0033549884     -0.0044961546      0.0077011362     -0.2196239786
C      -0.2268691992     -1.5514278615     -0.3075973138      0.0005683307      0.0038682618     -0.0069333160     -0.2171506712
C       3.0428580138      1.8268084576      0.1015506438     -0.0030006838     -0.0015875583     -0.0029428665     -0.1691674410
C      -0.3133642377     -2.9805703632      0.2338687314     -0.0007106141      0.0014702218      0.0006912187     -0.1600600963
C       4.2548327660      1.7709289294      1.0300879050     -0.0038272589     -0.0017405606     -0.0006078322     -0.2073782602
C       0.1723656735     -4.0219472208     -0.7724860173     -0.0001870322     -0.0028930432      0.0015529253     -0.2072952466
C       5.4939151885      2.4180242278      0.4153931478     -0.0117130396     -0.0046105613     -0.0042264975     -0.0683666708
C       0.0778451425     -5.4453008115     -0.2293388650     -0.0016147874      0.0066838469      0.0049054299     -0.0685407522
H      -0.9267161966      2.7927449296      1.2213875569     -0.0110588742     -0.0033145076     -0.0036905889      0.2778237381
H      -0.4131778070      1.4940944573      2.3268902467     -0.0019288109     -0.0069597445     -0.0063627902      0.1175041317
H      -1.4443687215      0.4939690664     -1.6371308604      0.0016738494      0.0027004178      0.0033914988      0.1209397169
H      -1.5681639097      2.1907451766     -1.0866698458     -0.0067567200     -0.0000465735     -0.0009048541      0.2034050059
H       0.4772782334      2.3996618727     -0.4866040487      0.0171760390      0.0045037737      0.0146712308      0.2355802894
H       0.7889981448      0.7654565749     -1.1400435895     -0.0049302127      0.0101364742      0.0014717348      0.1154590861
H      -1.7204287705     -0.8174863301      1.0674407335      0.0008456146      0.0039757719     -0.0027717806      0.1701029612
H      -0.0541072387     -0.6045652984      1.6297684548      0.0012895743      0.0042869526     -0.0022076201      0.1386551885
H      -2.7187881996      2.3021899243      2.7729548736      0.0035546475      0.0104392640     -0.0049354062      0.1224308235
H      -2.7391244502      0.5773727914      2.3824190031      0.0053855737     -0.0000267640     -0.0079174018      0.0747771095
H      -3.3906588911     -0.1133969234     -0.1310220500      0.0225077097      0.0126483940      0.0070214549      0.0827952433
H      -3.8038496103      1.1843343225     -1.2546306230      0.0070786385      0.0168062586     -0.0002353826      0.1079466083
H      -3.4078356379      2.9100918903      0.4890638055      0.0075695284     -0.0033967427      0.0057761524      0.1339007417
H      -4.5635153028      1.7109932016      1.1193332458      0.0037414333     -0.0121166941      0.0032670594      0.0777496267
H       1.5840034346      1.7533627476      1.6695860724      0.0036270045      0.0007775423     -0.0003125194      0.1365285134
H       1.9933456464      0.1507876991      0.9886108795     -0.0027677717     -0.0059314346      0.0099948161      0.0852711400
H      -0.8381893774     -1.4800636292     -1.2226840576     -0.0103228318      0.0000800923      0.0022150130      0.1114046915
H       0.8164936524     -1.3418485552     -0.5947251390      0.0042424829      0.0065398694      0.0038630490      0.1199000517
H       2.8225051556      2.8787690615     -0.1493880142     -0.0058711372      0.0068207513     -0.0004312017      0.1469611925
H       3.2800365619      1.3070500730     -0.8456318979     -0.0002237855     -0.0046828282     -0.0115186752      0.0744942617
H       0.2861757502     -3.0613643543      1.1594467907      0.0035636882      0.0017523112      0.0069966839      0.0939651273
H      -1.3579128863     -3.2073046942      0.5173810853     -0.0096232839      0.0043851820      0.0006718455      0.0894808211
H       4.4729172021      0.7187658535      1.2921040089     -0.0018797200     -0.0070845909     -0.0045415716      0.0716222164
H       4.0016475729      2.2847307718      1.9747579320     -0.0035639661      0.0078580143      0.0017237789      0.0953531924
H       1.2176673029     -3.7965724513     -1.0514974694      0.0055902564     -0.0031698593      0.0051995690      0.0903210405
H      -0.4219279014     -3.9356634664     -1.7001695122     -0.0074730927     -0.0018440045      0.0002009624      0.0887105979
H       6.3543576024      2.3627099721      1.0992577402      0.0026571372      0.0011327669      0.0013216093      0.0373651704
H       5.7775917228      1.9188510492     -0.5252212424     -0.0071147682     -0.0051450423      0.0006059039      0.0304079509
H       5.3082840053      3.4798772574      0.1894833215     -0.0085315122     -0.0053115532     -0.0026345080      0.0503399952
H       0.4317376395     -6.1804876367     -0.9672890191      0.0037097386     -0.0044977498     -0.0048096084      0.0459376334
H       0.6870425443     -5.5607283542      0.6814548716      0.0035874407     -0.0007019688     -0.0028993359      0.0388007023
H      -0.9625696969     -5.7002807977      0.0293594058      0.0008681400     -0.0007656232     -0.0049838463      0.0376202081
P      -0.1497436302      5.3862643027      0.2649058671     -0.0018744820     -0.0037055395     -0.0018029578      2.1861139764
F      -0.7806596968      4.1718855903     -0.7465972681      0.0054847987      0.0013551582     -0.0082254773     -0.5467046580
F       1.0072342225      5.6817260745     -0.8622219067     -0.0012785633      0.0100693427      0.0055213844     -0.5025461065
F      -1.1655130288      6.4672635755     -0.4216202604     -0.0046054693     -0.0151100968     -0.0070399574     -0.4945808503
F       0.4640943090      6.5129864158      1.2747637478     -0.0100668592     -0.0164737086      0.0069845695     -0.4935150461
F      -1.3188730257      4.9742803107      1.3841994410     -0.0025720668      0.0009150357     -0.0062682621     -0.5243967993
F       0.8472645329      4.2175479700      0.9525520540      0.0041775027      0.0007147095      0.0011318267     -0.5366155095
