47
Properties=species:S:1:pos:R:3:forces:R:3:charge:R:1 energy=-267.60988647069667 homo_lumo=0.005515979278893777 dipole="-4.799147417394272 -1.7175213251617072 0.4423495274051978" free_energy=-267.60988647069667
N       1.3559660325      2.2735802996      0.0308516704     -0.3457600277     -0.0826252099     -0.6485403451     -0.4955054644
N      -0.8487631060      2.4318375974     -0.2133271338     -0.0085794009      0.0741563681     -0.1922427786     -0.5132713665
C       2.7342879935      1.8626581677     -0.2261253014      1.0406123461     -0.0822325750      0.0238860411     -0.0509732001
C      -2.1857022487      2.2406501300     -0.7730998236     -0.4797273636     -0.1385882123     -0.7247983002     -0.0179544912
C       3.0107171550      0.4705899837      0.3602120408     -0.3541131423     -0.0850385407     -0.1957697108     -0.1976656947
C      -2.4321772114      0.7631166203     -1.1148058256      0.0279737559     -0.0014145598      0.3278949462     -0.1995405559
C       2.0995555463     -0.6034296844     -0.2549869379      0.3400865157      0.0599199388      0.3738966185     -0.2211513241
C      -2.3798718383     -0.1314031150      0.1328665917      0.0208646007     -0.0579026104     -0.4599678187     -0.2048719174
C       0.3230815144      2.1783166314     -0.8280870347      0.2362278766     -0.6564799230     -1.9185714875      0.5159910650
C       0.8224489277      2.6097792079      1.2229103825     -0.9078111294      0.3117361817      1.4273284353      0.2256435066
C      -0.5446553835      2.7147461826      1.0698033100      0.6744113670      0.1307028977      1.7409450799      0.2182262716
C       2.4684258577     -2.0020394455      0.2486489857     -0.2069887429     -0.0442538809     -0.1645410985     -0.2054158600
C      -2.5766796803     -1.6054735394     -0.2355186458      0.0368706155      0.0028675145      0.2338379435     -0.2173020634
C       1.5156106343     -3.0544427573     -0.3122927407      0.0244852214     -0.2304358241      0.0771962415     -0.1183152667
C      -2.5089093464     -2.4942289550      1.0035341659     -0.0355778736     -0.2485027281     -0.0429491471     -0.1047946804
H       3.4271562172      2.6016925380      0.2288666971     -0.1291856333      0.0632468599     -0.2450315991      0.1943563826
H       2.9298762556      1.8489858862     -1.3210975291     -0.2716502653      0.2169789112      0.3759965714      0.1321737367
H      -2.2853955335      2.8539161882     -1.6944478830      0.1203224124     -0.0069183108      0.3078289178      0.1246219004
H      -2.9571204560      2.5874123889     -0.0508444726      0.5433432067      0.0206748184     -0.0731159463      0.1189634141
H       2.8637253770      0.4981567207      1.4620967016      0.1407902051     -0.0313859933     -0.2278617192      0.1030550381
H       4.0735557577      0.2119145510      0.1615932286     -0.2427728188      0.2524739830      0.1009763893      0.1407795169
H      -3.4333854567      0.6712864185     -1.5891432534      0.2718477837      0.0970702278      0.0211129051      0.1091912032
H      -1.6735470636      0.4231998928     -1.8533171231     -0.2278917619      0.0553562576      0.1130857831      0.1147738557
H       2.1892721321     -0.5764368901     -1.3634228769     -0.0964367896      0.0064831541      0.1843161611      0.0816846633
H       1.0433281715     -0.3931730064      0.0192489053      0.1222376629     -0.0576729219     -0.1533388342      0.1443880188
H      -3.1747856684      0.1834527753      0.8441224918      0.2139559946     -0.0393256959     -0.0571453052      0.0858464787
H      -1.3947366927     -0.0189947874      0.6347030392     -0.2257274213      0.0181411388     -0.0110544557      0.1443919093
H       0.4144458635      1.8503895508     -1.8566598307      0.0401643525      0.1099548751      0.0231925484      0.0904537788
H       1.3770132918      2.7098448185      2.1470305778      0.2624278395      0.0926868475     -0.1046149281      0.0600439899
H      -1.2664984247      2.9102978112      1.8522632577     -0.1948655772      0.0987968070     -0.1573667330      0.0474171886
H       2.4178765569     -2.0274008303      1.3591229395      0.1594429641      0.0654790029     -0.2303160644      0.0893132536
H       3.5059223529     -2.2500285744     -0.0644394487     -0.1852667470      0.1335062184      0.2048959719      0.0972524862
H      -3.5655612161     -1.7419905738     -0.7249353228      0.2711629977      0.0496321546     -0.0349517018      0.0886785552
H      -1.7835433846     -1.9216465949     -0.9479775858     -0.2441021228      0.1323217254      0.0398699858      0.1116292108
H       1.5498663105     -3.0547053629     -1.4226544955     -0.0964332168     -0.0656992757      0.2866064196      0.0334723080
H       0.4764763335     -2.8492417988      0.0205596656      0.2205182790     -0.1206200824     -0.1563031292      0.0893696974
H       1.8125522516     -4.0595401381      0.0540380720     -0.2207881809      0.1852777256     -0.1923531809      0.0446908613
H      -3.3296293430     -2.2370231493      1.7065122461      0.2784668733     -0.1316354622     -0.0988490905      0.0486525388
H      -1.5331755420     -2.3667623772      1.5194570178     -0.3023400994     -0.0833256026     -0.0583265633      0.0508097252
H      -2.6154411713     -3.5582972120      0.7047695993      0.0350461015      0.2484374113      0.2536978527      0.0547281426
C       6.7061515652      3.7421052175     -0.6582786710     -0.9309479777      0.4345424671     -0.3966802172      0.8499781606
O       5.9585600432      3.6905404026      0.3055033591     -1.2460829686     -1.1018609247      4.0044832027     -0.7828947528
O       6.2998209307      4.2059058387     -1.7117619494      0.5153399861      0.8579622734     -3.6715596667     -0.7428089276
C       8.1181294994      3.2456677903     -0.5540448179      0.1454682524      0.0385425184      0.1991247153      1.2443817765
F       8.3370782886      2.2677749929     -1.5066648009      0.4936463533      0.2186171211      0.5056206445     -0.4627556525
F       8.3561394297      2.7120982854      0.7008740120      0.5725407819      0.0640596272     -0.7769156999     -0.4612593162
F       8.9930766371      4.2940510662     -0.7702976539      0.1447949153     -0.7737066929      0.1673721464     -0.4584781007
