34
Properties=species:S:1:pos:R:3:forces:R:3:charge:R:1 energy=-181.69400685253166 homo_lumo=3.3771572561499563 dipole="-0.942313735420759 0.4539218963388419 2.0739850407102156" free_energy=-181.69400685253166
N      -0.4529882332     -0.2579704707      0.1598322568     -0.0441368007     -0.1647893373      0.2161757057     -0.4960421949
C      -1.3294041846     -0.8494807123     -0.9068299328     -0.6215815478      0.0403046241     -0.1800744321     -0.0096716884
C      -1.4374093550      0.3261195171      1.1255671531     -0.3496086467      0.2912153263      0.0301163520      0.0237821700
C      -2.4713619392      0.1439644141     -1.0750623897      0.1303435638     -0.0845482893      0.1303586078     -0.1277343523
C      -2.5657200681      0.8926302786      0.2646791471      0.0788427700     -0.0037305330      0.0923719661     -0.1422046099
C       0.4003157270      0.8233035015     -0.4479423575      0.4996688894      0.3912277467      0.5761648387     -0.0574391945
C       0.3585027640     -1.3188600149      0.8403629604      0.5813556774     -0.2640052324     -0.3818322151     -0.0077497261
C       1.4331503701      1.4342158566      0.4933778604     -0.3087315954      0.0544803906     -0.3594455821     -0.2495822656
C       1.3731058525     -2.0138958774     -0.0661367281     -0.2091489782     -0.1259271351      0.7385949996     -0.2318620964
C       2.1378961385      2.5826462841     -0.2299838938     -0.1433168105     -0.3089635234      0.2456757029     -0.0421553945
C       2.0851206441     -3.1133869571      0.7178332014     -0.2009836438      0.3419723446     -0.1542095067     -0.0422417197
H      -0.7372467058     -0.9945491018     -1.8190824748      0.4573645565     -0.1026617787     -0.4114300543      0.1890097897
H      -1.6946224615     -1.8104957019     -0.5373235819     -0.0350456971     -0.2247600505      0.2358982067      0.0888836382
H      -1.8020572639     -0.4851288247      1.7599114599     -0.0030425625     -0.2468671047      0.1103922555      0.1090503969
H      -0.9479954634      1.0735403141      1.7492963779      0.1712169135      0.1018955443      0.1809397314      0.1239850786
H      -2.2621585560      0.8382326872     -1.8911606082      0.0513975116      0.1034805144     -0.2654014819      0.0864748527
H      -3.3983457986     -0.3824988749     -1.3075255913     -0.1942997870     -0.1142768435     -0.1452794861      0.0869233764
H      -3.5269831097      0.7253563939      0.7538628521     -0.2234422777      0.0481673510      0.1661203609      0.0868024527
H      -2.4421715984      1.9677115187      0.1203787009     -0.0316599119      0.2716868097      0.0095247978      0.0765951662
H       0.8934151553      0.3807215037     -1.3233820273      0.0218143955     -0.2757613429     -0.5156102443      0.2155496539
H      -0.2834571243      1.5986361892     -0.7993373291     -0.2065807715      0.1401062600     -0.1093691460      0.1489306069
H       0.8566283993     -0.8486751365      1.6925776878      0.0769720322      0.1437170284      0.2229894678      0.1252115292
H      -0.3539194082     -2.0538635204      1.2274077124     -0.2413156844     -0.1002460901      0.0902552906      0.1126976934
H       0.9631243970      1.8137172860      1.4065503923     -0.0441582784      0.1072178405      0.3180168086      0.0781949494
H       2.1792078521      0.6891749952      0.7804264393      0.1673286238     -0.2179293362      0.0929428349      0.1083156402
H       2.1093586754     -1.2998656954     -0.4374295767      0.0758629209      0.1553514881     -0.2797743541      0.1339783111
H       0.8692914634     -2.4461951907     -0.9322142590     -0.0256642467      0.0796669772     -0.3510970412      0.1435226575
H       2.6188323331      2.2184567422     -1.1375449475      0.1320836200     -0.0797881966     -0.3066997750      0.0600398880
H       1.4237129982      3.3605699341     -0.5016468332     -0.1723323009      0.2722744029     -0.1116196308      0.0273908684
H       2.8975209183      3.0166946353      0.4191449117      0.2409841728      0.1957402223      0.1439792692      0.0334741645
H       2.6131249976     -2.6973725466      1.5773676515      0.2105127494      0.0407008530      0.3117703673      0.0177443938
H       1.3732391404     -3.8601583993      1.0723998406     -0.1648733407     -0.2939140818      0.1516276895      0.0176038923
H       2.8097313229     -3.6051824561      0.0700729342      0.2259759988     -0.1877368223     -0.1406692929      0.0511559020
Cl      1.0106960687     -0.8922350515     -3.0933581298      0.0981984864      0.0166999737     -0.3514030102     -0.7386338299
