49
Properties=species:S:1:pos:R:3:forces:R:3:charge:R:1 energy=-263.9979233349247 homo_lumo=6.056488895002098 dipole="0.5487367129371352 2.9781187909152154 1.9646049422917065" free_energy=-263.9979233349247
N      -0.7153990281      0.2095338122     -0.4374696742     -0.0016507586      0.0003897081     -0.0028004246     -0.4835040349
C      -1.6083408930     -0.1668611628     -1.6235003977     -0.0010183991     -0.0054238620      0.0023895481     -0.0588460680
C      -1.3905166810      1.3073001982      0.3567895385     -0.0010851726     -0.0053179070     -0.0021278884     -0.0097903057
C       0.5806520521      0.7389375663     -1.0128572917      0.0077630954      0.0029729983      0.0043838298     -0.0174242858
C      -0.4661111547     -1.0032948418      0.4636806252      0.0047569388     -0.0063163615     -0.0122858083     -0.0569612874
C      -3.0287223534     -0.5118308666     -1.2217116957      0.0105179971     -0.0078090528      0.0114625445     -0.1891076702
C      -2.7971232442      0.9410235606      0.8000616054      0.0010479450      0.0107470497      0.0047414119     -0.1585405535
C      -3.6766797206      0.5978682172     -0.4002422155     -0.0009156870     -0.0002388934     -0.0082826395     -0.1553512083
C       1.5863839951      1.2601943348      0.0023800706     -0.0021648081     -0.0113986154     -0.0061780713     -0.2174548077
C       0.6123117096     -1.9617120433     -0.0071167449     -0.0161832673      0.0023797604      0.0040191782     -0.2486881453
C       2.9515959942      1.4600802220     -0.6625306169     -0.0048934159     -0.0017143038     -0.0117677551     -0.2054476766
C       0.5636878629     -3.2422439319      0.8325460146     -0.0064261490      0.0065353594      0.0141958004     -0.2039937763
C       3.9852104123      2.0292475604      0.3037182533     -0.0018879548      0.0105308220      0.0217717192     -0.0700036352
C       1.6074776822     -4.2526707604      0.3670475619      0.0103239318     -0.0037452985     -0.0033687847     -0.0740813953
H      -1.1228529464     -1.0015937527     -2.1474395879      0.0120394018     -0.0055244940     -0.0050258643      0.2495092592
H      -1.5986154081      0.7219601538     -2.2758340880      0.0065628602     -0.0081605666      0.0014993702      0.1048267161
H      -1.4184513667      2.1860848730     -0.3091681734      0.0061049629      0.0030441968      0.0056041444      0.1287891616
H      -0.7392663171      1.5326849405      1.2122726838     -0.0036839157      0.0101677193     -0.0056782667      0.1338814628
H       0.2920386679      1.5385588419     -1.7126795694      0.0080634592      0.0042732082     -0.0075378351      0.1243643717
H       1.0012461035     -0.0845134965     -1.6065834036      0.0089950859     -0.0013207919     -0.0099493934      0.1744960963
H      -1.4217328532     -1.5380015810      0.5184725216      0.0027824005      0.0122870913      0.0052284946      0.2071382161
H      -0.2374296629     -0.6014468247      1.4625585479      0.0104130407      0.0029932905      0.0093634524      0.1080493702
H      -3.0495355040     -1.4761771904     -0.6905841483     -0.0050526541      0.0131939940     -0.0090895192      0.1317435511
H      -3.5716571752     -0.6989621067     -2.1612095850     -0.0067869169     -0.0179700126     -0.0102585259      0.1398335676
H      -3.1966328590      1.8061946387      1.3556301541     -0.0018653947     -0.0109131610      0.0080121216      0.1013976160
H      -2.7647570321      0.0969409150      1.5098377862     -0.0096386425      0.0058775031      0.0024660214      0.1047836887
H      -3.8049496111      1.5024137991     -1.0252903106      0.0018205313     -0.0149851065      0.0095297459      0.0798349522
H      -4.6804108804      0.2935402064     -0.0638340344     -0.0017939404      0.0045238864     -0.0077362240      0.0885094897
H       1.6986850574      0.5550310930      0.8428876611      0.0020347649     -0.0035810339     -0.0025175683      0.1219166892
H       1.2499304403      2.2214428049      0.4261301570     -0.0069957811      0.0037204911      0.0084417370      0.1020919252
H       1.6131142594     -1.5066545491      0.0868497844      0.0047268761     -0.0073674896     -0.0076749811      0.1077548994
H       0.4504910493     -2.2382101814     -1.0597986708     -0.0121441908     -0.0067577942     -0.0083837947      0.2014532207
H       2.8408990331      2.1334115210     -1.5319857638     -0.0005894653     -0.0061448718      0.0054486650      0.0934362445
H       3.3028118305      0.4915504262     -1.0610317633     -0.0010973813      0.0050090665      0.0038100905      0.1068722945
H      -0.4400198534     -3.6872047893      0.7272678937      0.0056327520     -0.0056467302     -0.0067272742      0.1203261937
H       0.7129695103     -2.9974980973      1.9015509667     -0.0037182546     -0.0059624128     -0.0091028092      0.0616031721
H       4.1324813264      1.3561248190      1.1633844425     -0.0010790033      0.0042599606      0.0039727329      0.0411601303
H       3.6670333565      3.0093593222      0.6932122639     -0.0017145399      0.0021168953      0.0000316660      0.0362835941
H       4.9598934401      2.1632738395     -0.1877114099      0.0005817946     -0.0009546044     -0.0142342286      0.0511293634
H       2.6271308875     -3.8421584293      0.4523099729     -0.0002739211      0.0042182470     -0.0034107301      0.0126635858
H       1.4226694669     -4.5259351587     -0.6829249989     -0.0002638712     -0.0032039304     -0.0004800374      0.0911880717
H       1.5617976801     -5.1717819310      0.9695213079     -0.0018167365      0.0007929217      0.0059448216      0.0337493491
P      -1.4518600399     -3.8164734968     -3.0378132449      0.0045022756     -0.0016178786     -0.0066533650      2.1981257677
F      -2.6813526252     -4.8919523716     -2.9551505705      0.0045880223      0.0099790000      0.0028485485     -0.4967101632
F      -0.3767024983     -4.9332129474     -2.4806532712     -0.0011930363      0.0092623958      0.0006873082     -0.5103074585
F      -1.1264533764     -4.2170810421     -4.5886252692     -0.0019248221      0.0133126828      0.0067675152     -0.4945576457
F      -0.2024294684     -2.6714705005     -3.0769536276     -0.0102490333      0.0005097830      0.0020973405     -0.5400693696
F      -2.4953869861     -2.6220363565     -3.5401028440      0.0001320194      0.0001345973      0.0009177118     -0.5241500248
F      -1.7534301456     -3.3516745709     -1.4446116539     -0.0052830421     -0.0011574556      0.0156362690     -0.5419225088
