49
Properties=species:S:1:pos:R:3:forces:R:3:charge:R:1 energy=-263.9521699403164 homo_lumo=6.454382830651156 dipole="-2.325865644249481 -0.51257120365861 -1.9402193673441737" free_energy=-263.9521699403164
N      -0.1174512871      0.8135014066     -0.2277321002     -0.2077400110      0.1476956762     -0.2376309711     -0.5026232996
C      -1.4035591919      0.2061956328     -0.7005147406     -0.2790685714     -0.5095466476      0.2329665687      0.0035995743
C      -0.4013267833      1.6421895312      0.9980294004     -0.0843185576     -0.0621807107      0.6010055176     -0.0445909363
C       0.3635167878      1.7283186584     -1.3299495512      0.3973312582      0.3862177570      0.0061456567      0.0004244637
C       0.9149910013     -0.2286565949      0.0966809197      0.0905562244     -0.4562620624     -0.5142399661     -0.1088294053
C      -2.0784907303     -0.6433741392      0.3695656530     -0.0301588663      0.5119944311      0.0147618162     -0.1633037369
C      -1.1045710118      0.8669954113      2.1042068715     -0.3169032945     -0.0528481201     -0.4546858529     -0.1640212770
C      -2.3845014443      0.2029228752      1.6042640433      0.4123393802     -0.1589760270     -0.0803699750     -0.1461073800
C       1.6748829753      2.4795597332     -1.0619612606     -0.0930365286     -0.5761280615     -0.4197746034     -0.2231742791
C       1.1871488463     -1.2526570962     -1.0000154985      0.1312957093      0.2001145664      0.5253385828     -0.2266015918
C       2.8882714125      1.8793544452     -1.7817116932      0.0129422318      0.4407860949      0.3664634357     -0.2527453520
C       2.4140348141     -2.0802861403     -0.5901840127     -0.2971902526     -0.0476495706     -0.5741048423     -0.2086327132
C       4.1377312798      2.7111400218     -1.4987924254     -0.2710098638     -0.3104515134     -0.1502458657     -0.0507548714
C       2.7594193900     -3.1193313899     -1.6533119438     -0.0455865951      0.2519536528      0.3759630076     -0.0467386154
H      -1.1889864357     -0.3855542569     -1.5922406370      0.1107263993     -0.0529935606     -0.2375716207      0.1307307969
H      -2.0612646124      1.0336945325     -0.9829631269     -0.0909816727      0.2301517827     -0.0646354735      0.1223248343
H      -1.0213640326      2.4820239954      0.6712704595     -0.1587690742      0.1816601636     -0.1859578279      0.0960830520
H       0.5501027016      2.0191591246      1.3717756142      0.1881436933      0.1082201291      0.0403133088      0.2440487964
H      -0.4450716391      2.4471896522     -1.4878030834     -0.2785459992      0.0403052875      0.0118803096      0.1087069140
H       0.4484759238      1.1182917976     -2.2331487172     -0.0396079737     -0.1550366318     -0.1641926828      0.1244374067
H       0.5920180465     -0.7437271628      1.0007196963      0.0110086920      0.0297128197      0.1567010781      0.1788852961
H       1.8273298619      0.3133056145      0.3363560995      0.1263468197      0.0873474732      0.1520611446      0.2967556455
H      -1.4481818901     -1.4943073903      0.6390680132      0.1428654839     -0.2706188529      0.0357534229      0.1078955552
H      -3.0054796559     -1.0359859979     -0.0569840765     -0.2000986887     -0.1863458033     -0.1648843861      0.0935844078
H      -1.3414138449      1.5845411959      2.8938464487      0.0874839150      0.1760841183      0.2487959425      0.1060250643
H      -0.4304243429      0.1227149964      2.5328517188      0.1787613510     -0.0507633461      0.1753471962      0.1337127202
H      -3.1257527870      0.9671710607      1.3472033767     -0.2504347368      0.1888500948     -0.0649607311      0.0744789579
H      -2.8053673894     -0.4290792335      2.3895009168     -0.2048479628     -0.1113336241      0.2155491601      0.0817785463
H       1.8872787796      2.5391238219      0.0049109908      0.0835352134      0.1033940402      0.2726415598      0.1985838384
H       1.5329960744      3.5056429579     -1.4162177832     -0.0182942750      0.2791865250     -0.0279738081      0.0825580732
H       1.3865148796     -0.7634193883     -1.9572129115      0.0838390615      0.0918816902     -0.2844793189      0.1069641151
H       0.3296261085     -1.9196772324     -1.1328886112     -0.2172744432     -0.2151552864     -0.0962621228      0.0900239727
H       2.6961807358      1.8451187417     -2.8602099515     -0.0827317860     -0.0582063960     -0.3044388849      0.0542073395
H       3.0615541573      0.8575046692     -1.4360363510      0.0271036676     -0.2604885807      0.0495331240      0.1602969142
H       2.2099461865     -2.5806272051      0.3613385406      0.0150604454     -0.0498647953      0.3059452725      0.0936770600
H       3.2660133549     -1.4107195569     -0.4395442065      0.1808057249      0.1640165983      0.1645227153      0.1302163108
H       4.3492562251      2.7156589214     -0.4298986001      0.0911972289      0.0063221522      0.3120087140      0.0899312961
H       3.9999481283      3.7397258110     -1.8348709317     -0.0095346265      0.3292583463     -0.1145787358      0.0123056293
H       4.9928992144      2.2835386531     -2.0220587792      0.3302540095     -0.0451402862     -0.1285934485      0.0203941907
H       2.9826662992     -2.6345836246     -2.6048466574      0.0838341543      0.1008584362     -0.3145371480      0.0273632566
H       1.9276936126     -3.8098987302     -1.8013077565     -0.2220859560     -0.2492272097     -0.0929455661      0.0208290315
H       3.6336248912     -3.6898066547     -1.3406478505      0.2613145149     -0.2357592685     -0.0026902501      0.0414929739
P       3.2482736506      1.3694288499      2.7136666448     -0.2886431935     -0.1904198064     -0.0829818095      2.2082342341
F       4.5841862963      2.2942610693      2.7093643875      0.2129875334      0.1620827531     -0.0183647738     -0.4971619835
F       4.0676596227      0.0733994443      3.2551419303      0.1594720442     -0.2086992865      0.0823488373     -0.4961714712
F       2.8592076342      1.8285849253      4.2246963380     -0.0442730032      0.1009495203      0.2397427053     -0.4963162077
F       1.8394594484      0.4415198243      2.6434756784      0.2187706495      0.0323199987      0.2283103989     -0.5405489199
F       2.3545994333      2.6500485767      2.0955892128     -0.0114881465      0.1984818177      0.0088598499     -0.5354523793
F       3.5656762255      0.9047303484      1.1300636592      0.1046486736     -0.0357504781     -0.0418586596     -0.5367758478
