35
Properties=species:S:1:pos:R:3:forces:R:3:charge:R:1 energy=-203.4725727206253 homo_lumo=2.5321790179703503 dipole="1.8227138006065073 1.9118701235911755 -0.05148936963621128" free_energy=-203.4725727206253
N       0.0576800092      0.1573524944      0.5426926660      0.2205754074     -0.1563341854      0.3790451231     -0.5166489659
N      -1.6007067805      0.9957176378     -0.5416132026     -0.3133030596      0.0347357829     -0.3648161107     -0.5096831106
C       0.9404823489     -0.8284599625      1.1576628672      0.4259986992     -0.1428204201     -0.3364607797     -0.0113859747
C      -2.8886753115      1.0914337525     -1.2286226364     -0.4189496106      0.3784969244      0.0715797438     -0.0187162950
C      -1.0803488742     -0.1366145855     -0.0821083638     -0.0345224448     -0.3091916643      0.0719649809      0.5369912402
C       1.9192511640     -1.4017625575      0.1277087525     -0.4656359454     -0.1409001968     -0.0090885768     -0.2165723259
C      -3.9241845884      1.7764464776     -0.3338876248      0.2120472697     -0.4249057788      0.2042320374     -0.2228199776
C       0.2723119941      1.5082579316      0.4734894260      0.1805589951      0.2800342035      0.0859820557      0.2067119618
C      -0.7798075744      2.0385822618     -0.2057791982      0.0881707452      0.2941556834     -0.0254304437      0.2074929545
C       1.2164253425     -2.2155218586     -0.9562483030      0.2641997523      0.2253033226      0.2986053530     -0.0904635496
C      -4.2215239640      0.9685822442      0.9267165174      0.0146304595      0.2827348917     -0.4200515858     -0.0830995428
H       0.3129920851     -1.6208309177      1.5733377602     -0.0824301975     -0.0495359019      0.1180526629      0.1587527719
H       1.4829088763     -0.3325564019      1.9662894030      0.0066708717      0.1515562738      0.2109320713      0.0969285385
H      -3.2011618639      0.0695105359     -1.4704370028      0.0015308484     -0.3126297353      0.0254604301      0.1755599349
H      -2.7367921408      1.6607137247     -2.1498938656      0.1344703200      0.1021503076     -0.2281319790      0.0877535780
H      -1.5200192453     -1.1178460935     -0.2219270527     -0.3590530440     -0.3547702805     -0.2027624235      0.2467250199
H       2.4880694475     -0.5835112344     -0.3251605157      0.2230076320      0.2239902514     -0.0486580865      0.0903297113
H       2.6203117915     -2.0425904508      0.6699517073      0.2290275527     -0.1108696717      0.1722497995      0.0959962757
H      -3.5695047061      2.7779619453     -0.0670263273      0.0254189136      0.3452852040     -0.0142806654      0.0764889171
H      -4.8387544306      1.8878847308     -0.9227075904     -0.2114577836      0.0927708074     -0.2149218758      0.0939682942
H       1.1363959885      1.9751250955      0.9131151438      0.2094383081      0.1132808107      0.1029758423      0.0294403649
H      -1.0013281900      3.0562103702     -0.4760634962     -0.0737766199      0.2371527757     -0.0492145959      0.0352435238
H       0.5752535183     -1.5767318354     -1.5641307144     -0.2101921731      0.0879293930     -0.2562258377      0.0623407982
H       0.6053465140     -3.0000430139     -0.5101748893     -0.2101274557     -0.2345181020      0.0456410736      0.0805356595
H       1.9589675623     -2.6764904151     -1.6066770179      0.1601356715     -0.1390568063     -0.2699323869      0.0467492965
H      -3.3175870057      0.8438073334      1.5246667251      0.2355193992     -0.0581052443      0.2689071477      0.0343332131
H      -4.6072242548     -0.0186365113      0.6691080662     -0.0634907722     -0.3823719235     -0.0097314764      0.1217718913
H      -4.9665686342      1.4890679145      1.5277282370     -0.1925903548      0.1416501208      0.2763249026      0.0268947939
C      -3.5110967014     -2.5020253767      0.0280677778      1.0504588674     -1.3745999665      0.9882860500      0.9083644386
O      -4.5387409217     -2.2648707219      0.6298243131     -1.5948103379      0.2353735012      0.8435981372     -0.7581421104
O      -2.9911819979     -2.0086854693     -0.9815890636      0.8552390546      0.6989525027     -1.5262303438     -0.8344145182
C      -2.5281537101     -3.6047282385      0.7186369040     -0.9013274203      1.0308581383     -0.5942998506      1.2639075920
F      -2.1449327065     -4.5918725030     -0.1026666180      0.2216869786     -0.7778823870     -0.7546698834     -0.4605501912
F      -2.9918994134     -4.1664460408      1.8364359044     -0.4772140881     -0.3554352550      0.7755559006     -0.4514879238
F      -1.3651245392     -2.9533144181      1.0773059150      0.8500955612      0.3675166244      0.3855135898     -0.5092962842
