31
Properties=species:S:1:pos:R:3:forces:R:3:charge:R:1 energy=-163.8536228013333 homo_lumo=1.1269876176498674 dipole="-0.17093869341142898 1.0913991944408499 -4.069217029692069" free_energy=-163.8536228013333
C       2.6798281671      0.3506787523      1.5726255729      0.3767618109      0.3077008467      0.7707717127     -0.1429506332
C       1.6470735070      1.2883301100      0.9626078966      1.6656276094      1.5906231839      0.3776086735     -0.0029877701
H       1.4219328084     -0.8470291512     -0.8972073032     -0.4483820975      0.4092820620      0.3334249106      0.1303077134
H       0.4040997088     -1.6880884831      0.3190179239     -0.0826279872      0.6164835398     -0.1366568923      0.1509495376
H       3.1710767585     -1.4578954938      0.4556316560     -0.4280639794      0.0127728453      0.1803077603      0.0926999942
H       2.0967843435     -1.7113063772      1.8901393687      0.1482449000      0.1982834615     -0.2188755687      0.1219866211
H       2.6051835212      0.3683950383      2.6825688668      0.0687393088     -0.0775375606     -0.2351719159      0.1274295434
H       3.7102423925      0.6464862950      1.2758961615     -0.4212763193      0.0593041344      0.1922842444      0.0940400092
H       1.3559988741      2.0863699581      1.6843835665     -0.2816298202     -0.3956500084     -0.4053174666      0.1378640981
H       2.1291097072      1.7969975772      0.0941004333     -0.6459413258     -0.2987524937      0.0169557121      0.1285569967
H      -1.2290867302     -0.4486342557      1.4514303487      0.4178942381      0.2945326664     -0.1465367735      0.1120671428
C      -0.4480324630      0.3106636661      1.6696297436     -0.9869622473     -0.2073335481      0.9979303542      0.0038873524
H       0.0830727458     -0.0322532709      2.5841616230      0.1589366161     -0.0178591728      0.0363462990      0.1662877481
H      -0.9511091704      1.2742091717      1.9058900029      0.3674305682     -0.2792304136     -0.2377214643      0.0911720734
C      -0.1724608811      1.1484717710     -0.6369137430     -1.3127520020      0.9373643773     -0.9965677973     -0.0176166412
H      -0.2905069717      2.2322692752     -0.4030921249      0.2708928007     -0.4257289837      0.3097941371      0.1477566131
H       0.4819863570      1.1120744249     -1.5376049161      0.0457421322     -0.2688932780      0.5404060766      0.1270139750
H      -2.3016681117      0.7619855632     -0.1892129221      0.1991580013      0.0129481163     -0.1678086506      0.1179274355
H      -2.9886462140     -2.1110451646     -2.6260937408     -0.1331967785      0.3200156570      0.0652702222      0.0591639132
C      -1.6314279954     -0.7778844330     -1.5839640171     -0.2490449253      0.0684987251      0.0518978225     -0.2485604763
H      -0.8153954861     -0.9290921100     -2.3230090753     -0.0791584152     -0.0119273527      0.2604451121      0.0949115990
H      -1.5148299772     -1.5056178559     -0.7578511203      0.2013886346      0.0738283234     -0.1734881707      0.1260067359
C      -2.9721713684     -1.0637391126     -2.2574604896     -0.0755102401     -0.1586999570     -0.0989857705     -0.0865169247
H      -3.1265783025     -0.3818181679     -3.1207939878     -0.0615833014     -0.2097956991      0.2419938283      0.0433707858
N       0.4880559006      0.4710314975      0.5266650099     -0.4346194731      0.3393989522     -0.2659392166     -0.5564723195
C       1.0961151045     -0.8330357105      0.1681703042      0.6690071822     -1.9881556293     -0.8120477253     -0.0085705593
C       2.3306815886     -1.0277099184      1.0436263351      0.1606740579     -0.7885430085      0.3450306102     -0.1345117458
H      -3.8026543289     -0.9308956792     -1.5314772072      0.1618273732     -0.0369723906     -0.2972637354      0.0530038311
C      -1.5873268610      0.6529391936     -1.0318758791      0.4706623121     -0.2508376197      0.0556321097     -0.1905186274
H      -1.9509243517      1.3416523876     -1.8269776480      0.2184910897     -0.0469469784      0.2010758456      0.1241592420
Cl      0.6671337745     -0.9978806080      5.4224339732      0.0392702768      0.2218272025     -0.7847942835     -0.8618572637
