28
Properties=species:S:1:pos:R:3:forces:R:3:charge:R:1 energy=-159.04041635644435 homo_lumo=2.878998670842392 dipole="-0.6165518477618291 0.7873176961523812 0.6727208953846066" free_energy=-159.04041635644435
N       1.8962047675      0.0776694423     -0.3626671421      0.0103454222      0.0090376912     -0.0002953169     -0.4952606604
C      -0.5236708604     -0.0181727081      0.1265509662      0.0004705668     -0.0000527865     -0.0010668635     -0.1816444088
C      -1.9259960375     -0.0699473722     -0.4682408941     -0.0089705228     -0.0027852007      0.0164333170     -0.1728929245
C       0.5549286391      0.0201186823     -0.9486657596      0.0032673730      0.0015854626      0.0094687403      0.0178329938
C      -3.0141852641     -0.1045664980      0.6024766831     -0.0082480406     -0.0017798859      0.0023393570     -0.2028792326
C      -4.4181912476     -0.1527899584      0.0080268001      0.0028391146     -0.0013607766      0.0103738331     -0.0656231163
C       2.4843439209     -1.1217231370      0.0014883673      0.0057364255      0.0108857492      0.0179534570      0.0879114426
C       2.6003409797      1.2430808884     -0.3538524193      0.0072873095      0.0016458457     -0.0061996606      0.2630192791
C       3.6845415013     -1.0228434181      0.7797813180     -0.0022525550     -0.0031487892     -0.0027224922      0.0030350286
C       3.8291399563      1.3244336473      0.2373470295      0.0134414359     -0.0036176732     -0.0058066096     -0.0706698665
C       4.3553234045      0.1629105404      0.8619230131      0.0057674896      0.0037673352     -0.0051907846      0.0165221112
H      -0.3635934311     -0.8986589048      0.7745884946      0.0035319260     -0.0021010001      0.0011512270      0.1067422339
H      -0.4186326184      0.8727207581      0.7719671909      0.0014621338      0.0002676940      0.0039011522      0.0979907513
H      -2.0192202508     -0.9606590715     -1.1167799030     -0.0033319492     -0.0081540288     -0.0068245789      0.0945687442
H      -2.0840105012      0.8094792519     -1.1207859189     -0.0012946464      0.0023772876     -0.0068287202      0.0865181893
H       0.5304456740     -0.8717917080     -1.5968924197     -0.0102932211      0.0043120550     -0.0092479846      0.1247047846
H       0.4308246900      0.9026514527     -1.5944927319     -0.0053564581      0.0074113589     -0.0069757227      0.0970034273
H      -2.9109758982      0.7850152126      1.2509839944     -0.0090370948     -0.0063558218     -0.0042757529      0.0855003901
H      -2.8516579312     -0.9836581048      1.2529119075     -0.0101411759      0.0026219827     -0.0023854329      0.0869079697
H      -4.6059137034      0.7304104008     -0.6233378435     -0.0131821277      0.0036694075     -0.0086825948      0.0347265181
H      -5.1891136773     -0.1782553072      0.7931686416     -0.0045425300     -0.0014495187     -0.0007109450      0.0389828677
H      -4.5448443117     -1.0479684459     -0.6214563650     -0.0126930823     -0.0070074178     -0.0091128330      0.0369523697
H       1.7736480635     -1.9146670211      0.2259637213      0.0004552643      0.0084517977      0.0141583606      0.1549624310
H       2.1051222061      2.0951133826     -0.8166978078      0.0036254812      0.0050034455     -0.0001377746      0.0641672409
H       4.0721574841     -1.9359818500      1.2299571410      0.0034684038     -0.0019107771      0.0026737755      0.0485733321
H       4.3654707737      2.2711125782      0.2432658824      0.0064383928     -0.0012884266      0.0034025638      0.0269210513
H       5.2963039295      0.2233101273      1.4103240888      0.0083107126     -0.0037393821      0.0134529079      0.0365633065
Cl      3.0382153837     -2.1361022559     -1.8716489673      0.0128959527     -0.0162856278     -0.0188446245     -0.4211362538
