40
Properties=species:S:1:pos:R:3:forces:R:3:charge:R:1 energy=-214.49438997605444 homo_lumo=6.563258415446778 dipole="-0.9795594812246146 0.07950199163650819 2.7540003185996813" free_energy=-214.49438997605444
N      -0.1607572452      0.3447139823     -0.2031698582      0.0915800703      0.2132922556      0.2037077418     -0.5344503621
C      -0.9946071951      1.2909433054     -1.0232778205     -0.6901414275      0.1268463163     -0.1367941062     -0.0306134586
C      -0.3221577250     -1.0527148212     -0.7273455404     -0.3913890108     -0.5334659077     -0.0328464525     -0.0459396672
C       1.2691500287      0.8048257834     -0.3551978534      0.5561186615     -0.3730792739      0.1652838084     -0.0512713452
C      -2.4628274805      0.8932044314     -1.0867594532      0.3251768706     -0.2823813746     -0.1460923618     -0.1619332039
C      -1.7797054997     -1.4908483413     -0.8076872747      0.1143171679      0.4112189192     -0.2257471320     -0.1514964357
C      -2.6087793726     -0.5203148082     -1.6450729936      0.0285057242      0.0529898422      0.3435796557     -0.1599544103
C      -0.5442267796      0.4180578349      1.2299341293     -0.1062217047     -0.0615704294      0.0289102540      0.0803075616
C       2.3245285756     -0.1219702676      0.2380322543     -0.0899832393      0.5241021401     -0.2548007347     -0.2082392145
C       3.7121271556      0.4580804468     -0.0681123519     -0.1071879215     -0.4735676797      0.2969830243     -0.2010669107
C       4.8140279953     -0.4168121810      0.5241087528     -0.2439448578      0.3385796355     -0.1756698604     -0.0473746798
H      -0.5714040423      1.2900898566     -2.0299651187      0.1665499088     -0.0154906495     -0.1260712968      0.2356214886
H      -0.8769767041      2.2854077213     -0.5863667819      0.1494358748      0.2269144994      0.1387356422      0.1000902166
H       0.2288650123     -1.7201274275     -0.0626083213      0.1845581251     -0.0542946899      0.1618049711      0.1140681358
H       0.1333572240     -1.0711005488     -1.7183782825      0.1265914185      0.0533175914     -0.1400479943      0.2459182536
H       1.3269109650      1.7932423245      0.1091539118     -0.0745769967      0.2522679139      0.1355248102      0.0977500408
H       1.4506730283      0.9115564717     -1.4239545746     -0.0390504259      0.0405133826     -0.1762682722      0.2596759160
H      -2.9610190410      1.6062597457     -1.7485704059     -0.1241179255      0.2611165949     -0.0965537426      0.1052159335
H      -2.9342233921      0.9681322835     -0.1017252157     -0.1976766228      0.0801144305      0.2391291502      0.0731123819
H      -2.2093584722     -1.5892800004      0.1945956219     -0.1441453247     -0.1181478312      0.2586041685      0.0731798835
H      -1.7903763509     -2.4805718664     -1.2714323340      0.0422394180     -0.3001308252     -0.0370026489      0.1049006875
H      -3.6590392375     -0.8207182448     -1.6276379431     -0.2934565905     -0.0843100300     -0.0425368383      0.0699605753
H      -2.2600004841     -0.5402007913     -2.6806166520      0.0484130512     -0.0133545041     -0.2149677634      0.1455256014
H      -1.5885818969      0.1425053724      1.3494158928     -0.2318018070     -0.0636037408      0.0314139164      0.1041331534
H       0.0778492466     -0.2686554217      1.7999048528      0.1659731582     -0.1768545888      0.1212817252      0.0914669317
H      -0.3920672180      1.4363429489      1.5836863079      0.0488088338      0.2807401862      0.0622767690      0.0722932341
H       2.2575789723     -1.1131862055     -0.2157092110      0.0115689917     -0.2269232253     -0.1319057108      0.1255088185
H       2.1972502687     -0.2237532609      1.3204584814      0.0484026863     -0.0601712964      0.3121180252      0.0827479467
H       3.7851526973      1.4706843547      0.3424771143      0.0222122809      0.2915602724      0.0633780512      0.0771048433
H       3.8387816795      0.5216199401     -1.1529121717     -0.0331551167      0.0731039850     -0.2731356101      0.1301761512
H       4.7672026094     -1.4232556554      0.1069405253      0.0265787719     -0.3172417080     -0.1144019982      0.0369507821
H       4.7124197153     -0.4836276933      1.6084967202      0.0214538070     -0.0533433829      0.3407483400      0.0201849570
H       5.7892374729      0.0103614660      0.2916384767      0.3518838136      0.0393946110     -0.0180151687      0.0400913710
P       1.2226191651      0.1385587154     -4.2371486638     -0.0397813563     -0.0410044122      0.1156704947      2.1993080419
F       1.2889085981     -1.2780210121     -5.0310284426      0.0128225982     -0.2232294164     -0.1232824304     -0.4943692450
F       1.8745889896     -0.6051686743     -2.8705161192      0.0992077788     -0.0831359750     -0.0983624660     -0.5377349451
F       2.7167882745      0.5551076191     -4.7191073978      0.2335808138      0.0676237350     -0.0618679684     -0.4946631139
F       1.1135275677      1.5555535113     -3.3395144812      0.0509630989      0.1367377601     -0.0486804251     -0.5330976950
F       0.5324435211      0.8862742542     -5.5026218629     -0.1122855921      0.1187923802     -0.1905162509     -0.4933762628
F      -0.3031046747     -0.2670631962     -3.6454040726     -0.0080270041     -0.0339255104     -0.1535833152     -0.5397119574
