43
Properties=species:S:1:pos:R:3:forces:R:3:charge:R:1 energy=-235.8413547125647 homo_lumo=0.16851798469948506 dipole="0.6361135512290994 1.1082194336397526 5.131814727029069" free_energy=-235.8413547125647
N      -0.8351804009     -0.2033376817      0.0127769566      0.1002619434      0.0883237210      0.1040450729     -0.5183111770
C      -1.1703457911     -1.2465993754     -1.0059080333     -0.0038689898     -1.7111997679     -1.8249004141     -0.0505446470
C      -1.9754301550     -0.2247281155      0.9798217047     -1.6143473242      0.4225849490      1.6770634074     -0.0042266053
C       0.4310691830     -0.5685491055      0.7289362564      1.5939755253     -0.1856531150      0.3800074804     -0.0387228942
C      -2.5939132368     -1.7126075505     -0.7629543840     -0.5701720023      0.0959826866     -0.5590978266     -0.1307491926
C      -2.8109516278     -1.4586047731      0.7020054892     -0.0491340720     -0.5960339586      0.5936003311     -0.1363616893
C      -0.7497719338      1.1374725568     -0.6530409691      0.3605727892      1.6331281448     -0.3275863057     -0.0559353968
C       1.7006099567     -0.5390928460     -0.1565794215     -0.4229411908      0.0159167994      0.1194639256     -0.2290919629
C      -0.3811625741      2.3011026547      0.2990895058      0.0122915087     -0.3624520021      0.0829127657     -0.2522693597
C       2.9104612366     -1.0914331625      0.6058071904     -0.0659252983     -0.0170162443      0.0564519759     -0.2108924233
C      -0.4795583504      3.6458620502     -0.4151285956     -0.0540128706      0.1025782967     -0.1561180533     -0.0914647686
C       4.1714901917     -1.0472725902     -0.2527791610      0.1689619233     -0.0505904020      0.0152229649     -0.0914242497
H      -1.0669000888     -0.8876359031     -2.0555435915      0.1381216519      0.1264694715      0.3402909075      0.1978119908
H      -0.5183817437     -2.1462822658     -0.9205887182      0.1228900402      0.6861908745      0.2650684159      0.1512633195
H      -1.6509005616     -0.2195314722      2.0456512385      0.2922758605      0.1796875263     -0.5689994535      0.1255794866
H      -2.6495181349      0.6542380687      0.8557882580      0.6468691540     -0.0707147092     -0.2898970474      0.1381494362
H       0.3286964493     -1.5885623382      1.1678445909     -0.3580830233      0.3268310607     -0.3506304244      0.1465576336
H       0.5983970760      0.1068472897      1.5970914160     -0.3673496428     -0.0091838426     -0.3961055365      0.1477802947
H      -3.3006722088     -1.0971648293     -1.3627109763      0.1714789986     -0.3199793101      0.0092644051      0.1052395747
H      -2.7277597864     -2.7876536951     -1.0141180080      0.0337043146      0.5114986717     -0.1944524296      0.1093163594
H      -2.4278758622     -2.3167898419      1.2975449020     -0.2327012606      0.2117099123     -0.0736800188      0.0914076314
H      -3.8860802608     -1.2920146380      0.9329560081      0.4055016600     -0.0829365406      0.1464838909      0.0906669784
H      -0.0095963775      1.1157932349     -1.4832514839     -0.1982569853     -0.3663443686      0.3537225438      0.1812657455
H      -1.7253518676      1.3740839382     -1.1386586612      0.1959389804     -0.4795866696      0.2779658720      0.1618189399
H       1.5493876169     -1.1398786364     -1.0778009777     -0.0013153738      0.1787938717      0.1222745482      0.1516407702
H       1.9305026760      0.5043130278     -0.4570316972     -0.1103441175     -0.2236956564     -0.0287958178      0.1295324103
H      -1.0555161816      2.3214673358      1.1799703724      0.1633125519     -0.1250215472     -0.1213739814      0.1130390579
H       0.6605364992      2.1902263582      0.6640163107     -0.2481524083     -0.1312480944      0.0163230639      0.1233734061
H       3.0804198544     -0.4887670314      1.5247451095     -0.1127317497     -0.2088804686     -0.0962612778      0.0907918844
H       2.7174380339     -2.1442849039      0.9061014032     -0.0168095391      0.2567734636      0.0512284741      0.0955766057
H       0.2186396572      3.6749745824     -1.2786275939     -0.2765106174      0.1086325527      0.1924385398      0.0628611601
H      -1.5162894871      3.8190176714     -0.7739823767      0.3437091981      0.0546856061      0.0195803687      0.0567816484
H      -0.2076633653      4.4608068661      0.2886387950     -0.0942947384     -0.2129272345     -0.2949385570      0.0655801226
H       5.0310051281     -1.4430212109      0.3282604109     -0.1790227825      0.1412310117     -0.2751486563      0.0585260204
H       4.0400571552     -1.6706815053     -1.1626235208      0.1245397257      0.2364894335      0.2061679479      0.0618830814
H       4.3977162404     -0.0020509719     -0.5536678917      0.0069225391     -0.3346788474      0.0057374189      0.0477772752
C       0.1520817977     -2.2301329608     -4.8881276067      1.2068663941     -0.6306916920      0.6486850901     -0.2063940626
C      -0.9421480130     -1.7051046104     -5.7626804578      0.1486971608      0.0314451833     -0.6366383725      0.8448530749
O      -1.9765153878     -1.2935630356     -5.2631333739     -3.1620878441      1.2330653346      3.7725972294     -0.7998936575
O      -0.8058034851     -1.6860252897     -6.9753337435      1.9648976326     -0.6239507143     -3.5473465649     -0.7620935836
H       0.5027918162     -1.4271500332     -4.2063043762     -0.0248400376     -0.1829773752      0.0085966239      0.0003963161
H      -0.2285410764     -3.0808046141     -4.2845763428      0.1279597041      0.2045651944      0.0181787144      0.0053011581
H       1.0099109994     -2.5807235779     -5.5014642009     -0.1668473882      0.0791787942      0.2585987592      0.0236042875
