42
Properties=species:S:1:pos:R:3:forces:R:3:charge:R:1 energy=-229.1727125629047 homo_lumo=5.404798639470454 dipole="-2.8567990327353607 0.18366849296356866 1.572150177253519" free_energy=-229.1727125629047
N       1.0546733741     -0.3699261943     -0.0243515628     -0.0237304290     -0.1943229887      0.0006519549     -0.4943793000
C       0.9235117775      0.0622501955     -1.4601258249     -0.4719634365      0.5323112831     -0.2316769627     -0.0649543055
C      -0.0928985154     -1.2744560087      0.3120747228     -0.5982885268      0.1467997242      0.1494584669     -0.0071415211
C       2.3362495788     -1.1597296759      0.0712638449      0.2117894054     -0.2149229600      0.6268111967     -0.0917898112
C      -0.4114066055      0.7208233181     -1.7732746641     -0.0226932064     -0.5016261338      0.1695549131     -0.1605079155
C      -1.4550311349     -0.6477214613      0.0351507188      0.2760267538     -0.1123692682     -0.3798840995     -0.1512232692
C       1.0701941909      0.8094186236      0.9091896177      0.2643421273      0.4412020192      0.0609485841     -0.0743443574
C      -1.5699774958     -0.2102990635     -1.4239050244      0.1899478384      0.2817829488      0.3470183782     -0.1542926558
C       2.6697208366     -1.7133088695      1.4533070973      0.1121389651      0.0395568497     -0.4020570079     -0.2493649187
C       2.2957068601      1.7025087151      0.7877765787     -0.4067820157     -0.3581378619      0.0565290646     -0.0940956237
C       4.0613252395     -2.3473565131      1.3978770012     -0.3676008000      0.1755785579      0.1022088085     -0.0605500872
H       1.0420927301     -0.8377793358     -2.0685100195      0.1645513616     -0.1800740717     -0.0662898775      0.1848358669
H       1.7511666573      0.7361782285     -1.6826363599      0.2131245572     -0.0725982947     -0.0540906416      0.2027238356
H      -0.0090141933     -1.5426972102      1.3669213077      0.1227514537     -0.0860872055      0.1936366931      0.1366519991
H       0.0307103162     -2.1761046372     -0.2939973432      0.1136628361     -0.1946721752     -0.1507134114      0.1354994758
H       3.1359429002     -0.5032712105     -0.2704211056      0.0288681453      0.0876783175     -0.0619235699      0.2479224474
H       2.2486561839     -1.9823399914     -0.6415972267     -0.0203368028     -0.0704643585     -0.2389334132      0.1745495381
H      -0.4184246239      0.9360046768     -2.8447341993      0.0860569401      0.1534720337     -0.2640768987      0.1133655815
H      -0.5170802058      1.6720873753     -1.2445059827     -0.0329559676      0.3063485782      0.0722746809      0.0844747994
H      -1.6290069072      0.2025723069      0.7002959576     -0.0994295240      0.1773203095      0.2151668296      0.0917970228
H      -2.2125599779     -1.4034948625      0.2590466186     -0.1958341412     -0.1750890481      0.1743406075      0.1037862374
H       0.1707425922      1.3929446348      0.7063593691     -0.1886140866      0.0015531509     -0.0328896483      0.1605306295
H       0.9941923697      0.4145485689      1.9252161862     -0.0948711853     -0.1539305400      0.1702172136      0.1283791823
H      -2.5225193971      0.3006191188     -1.5814698489     -0.2983745036      0.0613772618     -0.1117033316      0.0823266398
H      -1.5422753133     -1.0906395635     -2.0735125995     -0.0123159661     -0.2408789747     -0.1967893968      0.0901879759
H       2.6674036640     -0.9205912695      2.2057862893     -0.0141674932      0.2067620867      0.2469490691      0.0921336785
H       1.9369259611     -2.4687599921      1.7523407911     -0.2042402550     -0.1660768257      0.1134238608      0.0807961804
H       2.1229017601      2.5826048049      1.4072512116     -0.0484955245      0.2820580418      0.1809237637      0.0538733393
H       3.1955202924      1.2067489418      1.1428781333      0.2699564935     -0.0861219427      0.0731669994      0.0875331573
H       2.4621295809      2.0304493952     -0.2357688027      0.1009695536      0.1526487069     -0.2592189709      0.0805847661
H       4.2862837626     -2.8213084959      2.3524884195      0.1199221093     -0.1576852510      0.2883366430      0.0277236407
H       4.1058993425     -3.1015368393      0.6122327535      0.1013789333     -0.2007652812     -0.2487449880      0.0515416668
H       4.8172677042     -1.5898690587      1.1918382714      0.2715885118      0.1001225237     -0.1007985783      0.1005147688
N       4.8295673136     -1.3447874989     -1.8318398383     -0.0277345967     -0.0721140219     -0.0523725312     -0.8891804837
S       5.7797127206     -0.1430088127     -1.4013384181     -0.0071779834     -0.3667815507      0.2351237966      1.9392304242
S       3.8142401863     -1.0577585618     -3.0167462501      0.0495182443     -0.4859146798      0.0192580623      1.9725901875
F       4.6990696750      0.8764315017     -0.6577162239     -0.3061388527      0.4594406450      0.2477867587     -0.4977304027
F       4.6450701053     -1.3970164219     -4.3495846010      0.4797545757     -0.1321876683     -0.5910322374     -0.4529885408
O       6.5842281513     -0.6002974592     -0.3181725633      0.8426756206     -0.5719198649      1.3422471807     -0.7405207075
O       6.3496606361      0.6605484417     -2.4259084868      0.4964002517      0.9241888106     -1.3769273324     -0.7080419209
O       3.3749648683      0.2963366365     -3.1918746534     -0.1628815619      1.3986253332     -0.2135131484     -0.7531693684
O       2.7998842973     -2.0749273955     -2.9599791525     -0.9107978188     -1.1340862153     -0.0523974807     -0.7792778519
