45
Properties=species:S:1:pos:R:3:forces:R:3:charge:R:1 energy=-242.93630050355716 homo_lumo=2.185815038385007 dipole="-8.029793700757985 -1.0681842089622862 2.5473157008661405" free_energy=-242.93630050355716
N      -1.3862513452      0.1723056853     -0.0635278062     -0.0106341068      0.1529862220      0.0071278380     -0.5244439578
C      -1.6469116479     -1.0309889539     -0.9131019589      0.1243771196     -1.8704850221     -1.5027026705     -0.0105517676
C      -2.5043049789      0.1935900758      0.9279840922     -1.6573699053      0.5985928669      1.6025025009     -0.0084089771
C      -0.0820823316      0.0234184681      0.6615905934      1.7990695203     -0.0255672064      0.3731058902     -0.0514694736
C      -3.0183332921     -1.5767231442     -0.5601578227     -0.6078557058     -0.0540985535     -0.5851284955     -0.1416554954
C      -3.2170895461     -1.1422780210      0.8643401153     -0.0233408640     -0.5151710511      0.6804318833     -0.1429334173
C      -1.4272819784      1.4046331711     -0.9156540376      0.0939905334      1.6871276023     -0.8043906864     -0.0922117968
C       1.1643575720      0.0282036304     -0.2560031410     -0.4863878978      0.0555998671      0.1357480009     -0.2213054657
C      -1.1539431919      2.7152578629     -0.1562446819      0.1083703292     -0.2801422337      0.1457792321     -0.1232642141
C       2.4259905449     -0.3569968939      0.5259221031     -0.0756930276      0.0227427777     -0.1428744173     -0.1613095822
C       3.6650096270     -0.3025382277     -0.3757996784      0.0558614018      0.0176116093      0.1005498989     -0.2269283543
C       4.9274394462     -0.6846541282      0.3906000199      0.2074568994     -0.0164765755     -0.0968927598     -0.0909957674
H      -1.5976256410     -0.8180847152     -2.0056146365      0.2628232531      0.2782530921      0.5815283409      0.1498426970
H      -0.9163801039     -1.8499217302     -0.7204933815      0.0666539377      0.7480046505      0.1643632996      0.1628633867
H      -2.1663810809      0.3941180813      1.9702609490      0.2433771929      0.1074589684     -0.6336493988      0.1454937850
H      -3.2631587078      0.9741144413      0.6877706387      0.6713258419     -0.0719378005     -0.2463014168      0.1507232628
H       0.0411685238      0.8349643553      1.4130339993     -0.3904025476     -0.1342096971     -0.3798278289      0.1612760145
H      -0.0899706060     -0.9251168194      1.2478411153     -0.3814868504      0.2508397499     -0.3638366671      0.1527867034
H      -3.7908650980     -1.1082174551     -1.2096948160      0.1561661468     -0.2700503913      0.1326805722      0.1055736342
H      -3.0652083761     -2.6830087278     -0.6617424492     -0.0194790119      0.4493218988     -0.2038850840      0.1086634543
H      -2.7269910696     -1.8657930770      1.5531400840     -0.2761063374      0.1682910787     -0.1133056346      0.1094044188
H      -4.2954036126     -1.0511804263      1.1198005297      0.4673246796     -0.0468928813      0.1417573095      0.1064169043
H      -2.4254202591      1.4944106349     -1.4033798418      0.2161099906     -0.4949829746      0.3726376144      0.1512839116
H      -0.6977328321      1.3317216759     -1.7519741319     -0.1212513279     -0.3728530731      0.4551132416      0.1775597098
H       1.3150469584      1.0432294977     -0.6787591904     -0.0511464178     -0.2517641959     -0.0089512506      0.1415616207
H       1.0343122412     -0.6818490335     -1.0990899643      0.0229382759      0.1798765039      0.1127609437      0.1212996411
H      -1.7905177594      2.8076974764      0.7469111082      0.1699561400      0.0499840366     -0.2386855455      0.0683991062
H      -0.0881094804      2.7906914928      0.1399770877     -0.3204444676      0.0226267280     -0.0381598315      0.0925541584
H      -1.3754353042      3.5748425551     -0.8231996590      0.0447519076     -0.3328742850      0.1564703705      0.0982866871
H       2.3094222844     -1.3870636386      0.9292531123      0.0181820794      0.2226894111      0.0410228309      0.0822752332
H       2.5603851613      0.3446462612      1.3787370687     -0.0200332609     -0.2203457594     -0.0873676099      0.0902234725
H       3.5371155191     -1.0025595329     -1.2301213731      0.0018182084      0.3168022348      0.0864583785      0.1071512266
H       3.7883307029      0.7265475304     -0.7780436162     -0.0386422786     -0.3297719822     -0.0814927377      0.1315390534
H       5.8025411693     -0.6455892188     -0.2921811218     -0.2316528703      0.0170223096      0.2649126991      0.1166890440
H       5.0988749848      0.0243809226      1.2281359963      0.0459182089     -0.2488954641     -0.1928651903      0.0304210748
H       4.8373261777     -1.7157637605      0.7936507949      0.0876529695      0.2594255850     -0.0282554598      0.0189861011
N       8.0263055479      0.7963704818     -2.7481410471      0.0871070667     -0.2739061877      0.0417735062     -0.8441044455
S       7.9442279007      2.2541612978     -2.0088748825      2.3269532863      3.0850559380     -3.7795660023      1.8337649587
S       6.8037869187      0.2476974779     -3.6876793956     -2.2012376702     -2.3478977677      3.2799325573      1.8502755148
F       6.9608154094      2.1333044643     -0.6598090520      0.2270200115     -0.1903643568     -0.1816076451     -0.4605172409
F       6.8539309655      1.0256956338     -5.1687859453      0.1133606107     -0.3248286267      0.5437254894     -0.4450865119
O       9.3202067116      2.6802746633     -1.5826504165     -2.2354370942     -1.6626926824      0.6349367786     -0.7110439651
O       7.3632350765      3.2755959055     -2.9464004327     -0.4133318952     -1.3869461555      1.8771273244     -0.7261390751
O       5.4820741411      0.5352686627     -3.0331726792      1.1622372211      0.5555022950     -1.4929867863     -0.7614069008
O       6.9558325840     -1.2317366538     -3.8986077476      0.7811307050      2.4773394981     -0.7297133823     -0.7215383663
