41
Properties=species:S:1:pos:R:3:forces:R:3:charge:R:1 energy=-227.94952170547703 homo_lumo=5.059485407706407 dipole="-0.3383774308530007 -1.7458702727884872 -1.9979676324570972" free_energy=-227.94952170547703
N      -0.8770707183     -1.3285359126      0.7445784242     -0.0026941579      0.0091907081      0.0026185858     -0.5197979486
N       1.2726430114     -1.4136288272      0.4555919037      0.0033783933      0.0089762296      0.0015726535     -0.5190618613
C      -2.1859220721     -1.1651504185      1.4047038165     -0.0076882196     -0.0093412430     -0.0060870763     -0.0113814372
C       2.7181506633     -1.3648895798      0.7446146794      0.0048617669     -0.0082241364     -0.0080889104     -0.0110108847
C      -3.0305301475     -0.0812379372      0.7434311352     -0.0187525468     -0.0015346313     -0.0150166415     -0.2018475338
C       3.4395805195     -0.3360020771     -0.1192134610      0.0124201519     -0.0021299799     -0.0208469206     -0.2014130798
C       0.3050743302     -1.2769026814      1.3709103407      0.0002439507      0.0048907851      0.0009791197      0.6127133346
C      -0.6586287056     -1.4931916400     -0.6088207481      0.0003486593     -0.0008115744      0.0034415466      0.2014568285
C       0.6925700712     -1.5460577183     -0.7908091221     -0.0000772701     -0.0004465669      0.0030847106      0.2011116868
C      -2.3804111866      1.2984904898      0.7777566519      0.0093875381     -0.0108241098      0.0023755087     -0.2550914740
C       2.9330206150      1.0884985205      0.0877159874     -0.0074445552     -0.0092271946      0.0055268924     -0.2554595516
C      -3.2663321953      2.3765474095      0.1652662222      0.0024374457      0.0241805561     -0.0031239524     -0.0654904420
C       3.7068186821      2.1094937461     -0.7375895807     -0.0029301157      0.0245295465     -0.0030448964     -0.0657764215
H      -2.6910063656     -2.1444533191      1.3850566783      0.0053552486      0.0100392276      0.0024261549      0.1050300102
H      -1.9620224967     -0.8905109719      2.4452913247      0.0028832531      0.0009355909      0.0065602017      0.1606137275
H       2.8007833150     -1.0949273821      1.8067585693     -0.0004777203      0.0011504137      0.0058637172      0.1598179319
H       3.1197701481     -2.3796516047      0.5925604443     -0.0035653978      0.0099847129      0.0023127939      0.1051035886
H      -3.9931815962     -0.0609264165      1.2858232868      0.0082489083     -0.0048284303      0.0033459012      0.1061594503
H      -3.2780111925     -0.3694174494     -0.2962203929      0.0007709668     -0.0044669584      0.0072036053      0.0842976319
H       3.3763944151     -0.6204707874     -1.1868082052     -0.0007518710     -0.0029175687      0.0066023269      0.0844965926
H       4.5107285497     -0.4009077396      0.1453515992     -0.0068491158     -0.0041299711      0.0035778907      0.1056045998
H       0.4539858590     -1.0878871638      2.4294168079      0.0007371835     -0.0009413748      0.0020083381      0.1631719604
H      -1.4715176999     -1.5478147023     -1.3209251944     -0.0060324423     -0.0086634413     -0.0035157431      0.0483463082
H       1.2817682926     -1.6554972665     -1.6917039518      0.0037532668     -0.0080330168     -0.0049863833      0.0483304658
H      -2.1314130580      1.5593227144      1.8191899700     -0.0085319777      0.0046578837     -0.0041883530      0.1610912840
H      -1.4142440848      1.2666223450      0.2481088093     -0.0044923603      0.0015062742     -0.0082169734      0.1402124802
H       1.8615448847      1.1416574128     -0.1659700141      0.0014832672      0.0024314133     -0.0062546871      0.1403652054
H       2.9899875715      1.3442229686      1.1578849614      0.0102441592      0.0047573572     -0.0054134222      0.1618616345
H      -4.2220866908      2.4609261058      0.7065135508     -0.0134423597     -0.0040322391      0.0014515473      0.0299203980
H      -3.4939853548      2.1615018023     -0.8917170348     -0.0090326316     -0.0093656199     -0.0097532723      0.0182465383
H      -2.7676038708      3.3566185912      0.2120091382     -0.0133694130     -0.0187757915     -0.0037314374      0.0527816388
H       3.6274001649      1.9012263874     -1.8171063393      0.0018373899     -0.0085429778     -0.0120867168      0.0180307656
H       4.7758741392      2.1085483200     -0.4712557040      0.0122891018     -0.0040917910     -0.0048877511      0.0296969683
H       3.3183623133      3.1232864910     -0.5579432874      0.0090319070     -0.0187353334     -0.0073723185      0.0530479171
P       0.7075250587      1.5221784024      3.5350061685      0.0041038141      0.0036042444      0.0200406055      2.2221103596
F      -0.4787388472      0.3433664142      3.7707920850      0.0008960702      0.0031848823      0.0030406702     -0.5399815895
F       0.9384305758      1.6156365030      5.1457247980      0.0026556352     -0.0101720834      0.0086455178     -0.4906018240
F       1.8357308001      0.2696998036      3.4432076065      0.0036881515      0.0047853436      0.0013082662     -0.5398380189
F       1.8944196516      2.6129290399      3.2453174371      0.0033524203      0.0078640992      0.0155991719     -0.5034023774
F       0.4684213578      1.3601054247      1.8875892713      0.0004974834      0.0171585740     -0.0002759090     -0.5301278198
F      -0.4435361663      2.6868532355      3.5763031261      0.0012260221      0.0064081917      0.0173056384     -0.5033370429
