30
Properties=species:S:1:pos:R:3:forces:R:3:charge:R:1 energy=-156.20674083591024 homo_lumo=3.478285557504947 dipole="1.101845336099125 1.9615125258877637 0.97038639276523" free_energy=-156.20674083591024
N      -0.0381255286     -0.0378553257      0.0809955712      0.1141635742      0.1299974727      0.0167018413     -0.5065885471
C      -0.8845895622     -0.1117313532      1.3276068286     -0.4822802121     -0.3052570597      0.1968783551     -0.0724028824
C      -0.8862404297      0.1338082829     -1.1565660397     -0.4725712720      0.6046945157     -0.1153306769     -0.1015962173
C       0.7368482906     -1.3277070483     -0.0420671600      0.5934881205     -0.0972433214     -0.1366643477     -0.0935469890
C       0.8765692955      1.1496879469      0.1961716600      0.4212190886      0.1056251377      0.3858866854     -0.0589371589
C      -1.9777837294     -1.1695543125      1.3211079245      0.3823988347      0.4211383593      0.0726824368     -0.0588054086
C      -1.8884751693      1.2747428549     -1.1000854763      0.4611948485     -0.2144594920      0.1757299256     -0.0761429707
C       1.7171170273     -1.3809193723     -1.2013517081     -0.3318721221      0.2357021982      0.3465692227     -0.0701180621
C       1.9229709300      1.0656787342      1.2991073739     -0.3283453839     -0.0461267182     -0.3127704439     -0.0749888136
H      -0.2009566514     -0.3077606587      2.1573308096      0.2020962046      0.0257765771      0.0856136090      0.1427921063
H      -1.3217575026      0.8796233357      1.4741547590      0.0103252078      0.2625004580     -0.0140592659      0.1209165179
H      -0.1955379249      0.3026762924     -1.9850901520      0.2115771912     -0.0396562403     -0.0993560569      0.1301264027
H      -1.3996584211     -0.8232444516     -1.3232130853     -0.0488247435     -0.5727588840     -0.0761412589      0.2118605758
H       1.2538798745     -1.4844362344      0.9070980575      0.0896810678      0.0835882560      0.2794049509      0.0980157087
H      -0.0093445787     -2.1170585206     -0.1871693327     -0.4249773053     -0.2974751132     -0.2048346773      0.2202959508
H       1.3722612631      1.2705468255     -0.7697556342      0.0044226487     -0.0111552032     -0.2307870619      0.1357980973
H       0.2448688379      2.0244130154      0.3673185798     -0.1760126373      0.1262236139     -0.0474812509      0.1458933887
H      -2.4993823225     -1.1011322177      2.2759606346     -0.1663520411      0.0838969047      0.3636200252      0.0366832871
H      -2.6957321328     -1.0119607294      0.5203933119     -0.1878930104     -0.1128845797     -0.2434728446      0.0736985335
H      -1.5724954931     -2.1725635325      1.2172286820     -0.0045520010     -0.3252344370     -0.1643533093      0.0784534348
H      -2.3953061277      1.3003219789     -2.0649084397     -0.1704652794      0.0164353104     -0.2630444752      0.0697443225
H      -2.6427296986      1.1208337075     -0.3308921590     -0.2817903072     -0.0389232853      0.1893389807      0.0476528549
H      -1.4119686565      2.2422473271     -0.9418317077      0.0415054199      0.3835680582     -0.0036409375      0.0227439194
H       2.2208671045     -2.3462058456     -1.1473386629      0.1251456632     -0.2827312321     -0.0373833462      0.0687169007
H       1.2010648100     -1.3286856965     -2.1581885651     -0.1710400182     -0.1167814169     -0.2833062229      0.0619647408
H       2.4735802351     -0.5981535505     -1.1558497283      0.3278971036      0.2223701935     -0.0015155238      0.0207027297
H       2.4948189022      1.9936149310      1.2779893184      0.1890305714      0.2609920428      0.0392959779      0.0631555757
H       1.4698420533      0.9688417893      2.2840220718     -0.0758354652      0.0122126449      0.3153927809      0.0478516635
H       2.6130005140      0.2390182102      1.1431564159      0.2353119125     -0.2296222378     -0.0333776519      0.0575216583
Cl     -1.6742021613     -2.9717966382     -1.3536836098     -0.0866456585     -0.2844125222     -0.1995954398     -0.7414613195
