30
Properties=species:S:1:pos:R:3:forces:R:3:charge:R:1 energy=-156.30123236742534 homo_lumo=3.435909335548199 dipole="0.8549837194602201 -1.997147796050039 -1.2566757866629414" free_energy=-156.30123236742534
N       0.0455404077     -0.0027280726      0.0113252205      0.0021856210     -0.0030499763     -0.0031190946     -0.4929126918
C      -0.7656058450     -0.2175509300      1.2880692833      0.0065247305     -0.0010927301      0.0126712966     -0.1098508922
C      -0.8665648948      0.2529022253     -1.1787893177      0.0052024658     -0.0088622460     -0.0164170062     -0.0735105003
C       0.8581002072     -1.2528186565     -0.2628593353     -0.0059565992     -0.0122785238      0.0044726702     -0.0627901556
C       0.9384203371      1.2193532698      0.2074135793     -0.0072905340      0.0153684234      0.0079687670     -0.1026426154
C      -1.8816624813     -1.2338498035      1.1715879634     -0.0189345890     -0.0095369924     -0.0066162245     -0.0966337800
C      -1.8289565115      1.4121321104     -1.0326912192     -0.0053816120      0.0114830127      0.0105460117     -0.0856540912
C       1.8530905338     -1.1565915810     -1.4029194305      0.0098646833      0.0041707350     -0.0120638895     -0.0951119506
C       1.9466293311      1.0894546844      1.3287497273      0.0114196262     -0.0038888032      0.0069021638     -0.0925062139
H      -0.0329590556     -0.5428890275      2.0398636402      0.0032951883      0.0014915441     -0.0020913030      0.1355265618
H      -1.1304393823      0.7969072044      1.5899030431      0.0030705103      0.0065932942     -0.0017588399      0.2067125258
H      -0.1959687602      0.4207550240     -2.0334352931     -0.0002863095     -0.0094794261     -0.0004609033      0.1451844555
H      -1.4017132135     -0.6931860226     -1.3518568222      0.0016658069     -0.0063725645      0.0013744040      0.1242073586
H       1.3741865395     -1.4905168409      0.6775662560      0.0010465166      0.0053947433      0.0039219616      0.1388010586
H       0.1304458626     -2.0534358952     -0.4545591361     -0.0004910336      0.0009410838     -0.0013531971      0.1469398189
H       1.4177877211      1.4024040666     -0.7652319903     -0.0087715817      0.0103223021     -0.0086086601      0.1003241203
H       0.2445604301      2.0491220817      0.4803054003     -0.0117837902     -0.0039980909      0.0163473395      0.2202486502
H      -2.3246863050     -1.3387174614      2.1738079521     -0.0038284662      0.0102627233      0.0059733806      0.0808115963
H      -2.6876048654     -0.9013425010      0.5028636505     -0.0073379426      0.0051903192     -0.0085154873      0.0544756541
H      -1.5461993622     -2.2355873056      0.8611880225     -0.0077095151     -0.0040038987      0.0034712946      0.0269277532
H      -2.4675014899      1.4226653352     -1.9299759011      0.0019927153     -0.0021765744     -0.0103901595      0.0471481963
H      -2.4639477259      1.3382167710     -0.1406017552     -0.0044456694     -0.0025336910     -0.0054712658      0.0857292637
H      -1.3184674023      2.3800627735     -0.9476980466     -0.0012526241     -0.0017477637      0.0016306876      0.0807382187
H       2.3560154705     -2.1311677568     -1.4961306938      0.0028200671     -0.0053456200      0.0055428061      0.0719876342
H       1.3736560083     -0.9447031258     -2.3680460486      0.0035804563     -0.0034185135     -0.0074957145      0.0510307243
H       2.6269994215     -0.4008003990     -1.2154501939      0.0091452090      0.0042543772     -0.0009706334      0.0632933534
H       2.5544586685      2.0066800260      1.3201188312      0.0010663068      0.0047186531     -0.0100123524      0.0804655651
H       1.4405412197      1.0709570625      2.3040870202     -0.0009728858      0.0056677593      0.0052441590      0.0720573952
H       2.6316078734      0.2328014523      1.2355007861      0.0006744158     -0.0021812323     -0.0090697311      0.0221264577
Cl     -1.2288817249      2.9851574186      1.8843021400      0.0208888333     -0.0058923237      0.0183475198     -0.7431234708
