25
Properties=species:S:1:pos:R:3:forces:R:3:charge:R:1 energy=-149.8594010020818 homo_lumo=0.2854358833475831 dipole="0.5236910058377285 0.6761204815553783 -3.0720290143195097" free_energy=-149.8594010020818
N      -0.1118923571      0.0540579927     -0.0134168414     -0.0072765752     -0.0017714311      0.0035697428     -0.5074198813
C       1.3125956899      0.0528410364      0.4093838423     -0.0001081144     -0.0007501819      0.0027689518     -0.0607969169
C      -0.8442088496      1.1894897663      0.0968438667      0.0065763790     -0.0043142627      0.0030600384      0.2764010880
C      -0.7000254113     -1.1091216144     -0.3860233863      0.0069660461      0.0043580405      0.0051611832      0.2762258697
C       1.4534162342     -0.2680355498      1.8855841566      0.0095520068      0.0003112358      0.0026480383     -0.0960097418
C      -2.1846712045      1.1969163722     -0.2279757152      0.0061112710     -0.0007257027      0.0024759923     -0.0092264473
C      -2.0376249677     -1.1467418687     -0.7192701098      0.0053375780      0.0007734734      0.0028176785     -0.0080862439
C      -2.7970889301      0.0201595742     -0.6552057339     -0.0052708804     -0.0005933271      0.0004537894      0.0255479610
H       1.8254804040     -0.6822096014     -0.2294401997     -0.0023506867     -0.0021613410      0.0038250206      0.1123053351
H       1.7129245812      1.0465774241      0.1575049728     -0.0025560887      0.0010276950      0.0048019163      0.1125859847
H      -0.3150907613      2.0669331703      0.4616188083      0.0050525318      0.0046234582      0.0002080442      0.1003299160
H      -0.0610675267     -1.9892904824     -0.3893524873      0.0055536518     -0.0035962770     -0.0011951509      0.1004382505
H       0.9283083832      0.4567907960      2.5221560766     -0.0020846937     -0.0002538721     -0.0010601204      0.1018137366
H       2.5213073350     -0.2646215001      2.1504994048     -0.0028374185     -0.0012724277      0.0069937899      0.0537958566
H       1.0288480093     -1.2482262614      2.1412455599     -0.0005410376     -0.0008091038     -0.0016616779      0.0996913854
H      -2.7479281544      2.1231132874     -0.1177271312      0.0033479362      0.0014099023     -0.0050322829      0.0638514324
H      -2.4827454780     -2.0999301483     -1.0024248512      0.0034366963      0.0012965109     -0.0049810926      0.0637955896
H      -3.8602147036      0.0041371701     -0.8967682808      0.0105872567      0.0012958907     -0.0029094808      0.0615955286
C      -1.3474365780     -0.9824949405      4.5568396939     -0.0050466624      0.0010138035     -0.0098212840      0.9119405433
O      -0.1042096590     -0.9012491701      4.4680679755      0.0225117699      0.0019622554      0.0025739124     -0.7747168795
O      -2.1622427419     -1.2170884540      5.4649104973      0.0010825029     -0.0082729900      0.0189282580     -0.7152872996
C      -2.0416916702     -0.7160409982      3.1474696025     -0.0107516122      0.0005143215     -0.0032905287      1.2327852005
F      -1.5940675645     -1.6225992869      2.1937221372     -0.0181585792     -0.0009064625     -0.0075504923     -0.4841384637
F      -1.7121031916      0.5432515275      2.6594449543     -0.0160663392      0.0027248746     -0.0065964381     -0.4839631945
F      -3.3980488927     -0.7835012451      3.1144083610     -0.0130669383      0.0041159181     -0.0161878077     -0.4534586095
