25
Properties=species:S:1:pos:R:3:forces:R:3:charge:R:1 energy=-150.78566675992968 homo_lumo=2.470793901260759 dipole="0.976044634665372 1.573573853828837 0.5231208201067357" free_energy=-150.78566675992968
N      -0.8392405949     -0.6119527414     -0.2384373908      0.0134674255     -0.0168380251      0.0055374883     -0.5023956992
C       0.2706097054     -1.5289540622     -0.5719259193     -0.0212843162     -0.0048860605     -0.0015272417     -0.0815764063
C      -0.8879134002      0.6292238229     -0.7863533075     -0.0020832042      0.0143677769      0.0011431337      0.2678692033
C      -1.8303346415     -1.0601919236      0.5782522190      0.0046576299      0.0097137671     -0.0009981882      0.2676176488
C       1.4242146803     -1.3444778887      0.4008407841      0.0128696768      0.0088405540      0.0037612473     -0.0731652131
C      -1.8620773296      1.5220992466     -0.4209836341     -0.0101206527      0.0200802035     -0.0023025817     -0.0511595491
C      -2.7692749996     -0.1345249586      1.0712307215     -0.0044549606     -0.0038800968      0.0060774879     -0.0019177591
C      -2.8013400948      1.1398363383      0.5587117598      0.0085346960      0.0088440737     -0.0069104878      0.0230491369
H      -0.1538767677     -2.5484872200     -0.5369520252      0.0021506582      0.0169736950     -0.0077255238      0.1892516551
H       0.5710977400     -1.3140820434     -1.6083359759      0.0041379690      0.0110546264     -0.0010596194      0.0988344631
H      -0.1044978054      0.8602636683     -1.5058132776      0.0104541649      0.0099990936      0.0121313460      0.0792262698
H      -1.6691803017     -2.0423088200      1.0173464469     -0.0029597185     -0.0001978280     -0.0141661850      0.1230734045
H       1.8102911616     -0.3131738318      0.3721228831      0.0060901794     -0.0156426263      0.0024282862      0.0481934170
H       2.2433739023     -2.0306138795      0.1406853681     -0.0025534245     -0.0064336613      0.0020047677      0.0563840280
H       1.1048209017     -1.5658582940      1.4304181520      0.0041562212     -0.0081633781     -0.0034047362      0.0596848438
H      -1.8812627804      2.5124269892     -0.8739146952      0.0017460309     -0.0066703660      0.0029459117      0.0416323865
H      -3.4946667728     -0.4766467443      1.8086978642      0.0049685782      0.0084054645     -0.0068319213      0.0499607457
H      -3.5514597906      1.8540194090      0.9017049145      0.0008471962      0.0083705142      0.0084809952      0.0477385892
C      -2.7578379851     -3.3082930733     -0.9107716454     -0.0093084677     -0.0106943055     -0.0009973200      0.9153280222
O      -3.1171312854     -2.0890010408     -0.8387694798      0.0008539359     -0.0041008342     -0.0127786336     -0.7353378695
O      -1.7718245331     -3.8828943095     -0.4156351643      0.0015170584     -0.0105216511      0.0248551529     -0.7847519369
C      -3.7339792766     -4.1644130084     -1.7805682151     -0.0046329584     -0.0035656586      0.0000026043      1.3232848420
F      -3.6950465979     -3.7500013980     -3.0863573511     -0.0187819796      0.0024076118      0.0015295290     -0.4566969654
F      -5.0239193885     -4.0391510612     -1.3486285975     -0.0093308291     -0.0168897746     -0.0108379258     -0.4542874590
F      -3.4273517729     -5.4858583714     -1.7663982451      0.0090590913     -0.0105731146     -0.0013575856     -0.4498397984
