47
Properties=species:S:1:pos:R:3:forces:R:3:charge:R:1 energy=-267.6293531175098 homo_lumo=0.13204451469002676 dipole="-0.04443549840793327 -2.9679129010474794 3.4369889059477874" free_energy=-267.6293531175098
N       1.3515113090      2.2580965452      0.0366378207     -0.2746702719     -0.0849413849     -0.7291340119     -0.5027026866
N      -0.8532287927      2.4160158562     -0.2068912386      0.2896015990     -0.0527353772     -0.1835951954     -0.5054812553
C       2.7306000597      1.8468698560     -0.2163073251      0.7841466054     -0.1384332227     -0.0486191296     -0.0268620867
C      -2.1918353178      2.2328049753     -0.7652031841     -0.5898705969     -0.1017928809     -0.8379295031     -0.0238427997
C       3.0048245436      0.4552883594      0.3721293697     -0.3074886793     -0.0433041460     -0.1632028925     -0.1857928864
C      -2.4481333469      0.7571526543     -1.1073213723      0.0751709640     -0.0000262056      0.3630546329     -0.2031900005
C       2.0957818027     -0.6190629471     -0.2453827787      0.3132200563      0.0423040520      0.3342752291     -0.2244678161
C      -2.3913889271     -0.1405597401      0.1379087835     -0.0071177726     -0.0633015737     -0.4903157107     -0.2026835319
C       0.3162758473      2.1413547331     -0.8166275644      0.0698511266     -0.6374447038     -1.9601519794      0.5379146372
C       0.8217165052      2.6261044434      1.2207825469     -0.9610200081      0.4180145425      1.5621130124      0.2121590287
C      -0.5455708813      2.7315519490      1.0676577054      0.7202704480      0.1820275915      1.6825471274      0.2283275764
C       2.4677870366     -2.0183119157      0.2537968490     -0.1930002348     -0.0354135513     -0.1452606767     -0.2053865268
C      -2.5851582122     -1.6139146004     -0.2353504546      0.0419654768      0.0093509700      0.2539787083     -0.2168857849
C       1.5150685476     -3.0702000690     -0.3082465068      0.0156676601     -0.2264595626      0.0657290885     -0.1201092972
C      -2.5156916882     -2.5072988029      1.0001959031     -0.0439958264     -0.2577152227     -0.0556383370     -0.1033019393
H       3.4241398170      2.5864449236      0.2387975659     -0.4029637203     -0.0161607901     -0.1804016852      0.1286166559
H       2.9279469654      1.8323058582     -1.3110361224     -0.3370318892      0.2196498133      0.3435984134      0.1428394452
H      -2.2880343909      2.8466237439     -1.6866655605      0.1812237421      0.0454003499      0.3125421981      0.1558538687
H      -2.9604124928      2.5841582000     -0.0421179072      0.5641657038      0.0230841218     -0.0681729242      0.1173800041
H       2.8542567518      0.4836308250      1.4735402676      0.1195914696     -0.0393542092     -0.2221793627      0.1030881715
H       4.0682192040      0.1963323800      0.1769974926     -0.2271645219      0.1588786199      0.0831537732      0.1113394611
H      -3.4531791028      0.6711206544     -1.5745893853      0.2928567491      0.1120723813      0.0143703484      0.1145857813
H      -1.6968414012      0.4152010181     -1.8523351378     -0.2432376348      0.0661363142      0.0998215534      0.1185211605
H       2.1845031949     -0.5887375078     -1.3538677285     -0.1092101426      0.0164279811      0.2012088486      0.0916195241
H       1.0394708620     -0.4119232391      0.0308188490      0.1638846549     -0.0400653457     -0.1615015201      0.1577798305
H      -3.1859778209      0.1704250722      0.8512510959      0.2183187673     -0.0414950625     -0.0538631216      0.0849674459
H      -1.4057931917     -0.0273990920      0.6388160021     -0.2170846346      0.0175112614      0.0011654683      0.1349289718
H       0.4050388915      1.7896464420     -1.8375660489      0.0374201627      0.2205406745     -0.0324112740      0.1123153995
H       1.3791955030      2.7531855865      2.1398067010      0.2229733394      0.0793728393     -0.0994884211      0.0469401118
H      -1.2647434681      2.9565249470      1.8446766793     -0.1905338312      0.1013474139     -0.1676241359      0.0471332621
H       2.4194788141     -2.0466465261      1.3642987885      0.1526021454      0.0629009832     -0.2227989159      0.0878009203
H       3.5050112110     -2.2640268996     -0.0620995458     -0.1754263805      0.1196151371      0.1979835872      0.0904204221
H      -3.5736119815     -1.7507493077     -0.7255783587      0.2803113197      0.0522544217     -0.0351835863      0.0916162539
H      -1.7911323963     -1.9259221324     -0.9487124363     -0.2526555065      0.1335349760      0.0304735473      0.1096503760
H       1.5496626271     -3.0692944103     -1.4186094980     -0.1012982067     -0.0634272648      0.2940119895      0.0386338232
H       0.4757627010     -2.8651893611      0.0244142582      0.2341387398     -0.1202343057     -0.1607528562      0.0955846358
H       1.8119277794     -4.0756048279      0.0572386274     -0.2180848012      0.1928121271     -0.1912381015      0.0451546542
H      -3.3371739883     -2.2547729693      1.7039678362      0.2814313727     -0.1288875417     -0.0976790589      0.0486683424
H      -1.5402436968     -2.3798924106      1.5166745624     -0.2967674729     -0.0791007673     -0.0501380439      0.0448325804
H      -2.6199156633     -3.5703743905      0.6969694244      0.0321983539      0.2412958999      0.2574789662      0.0528165359
C       0.3930617428      5.2675554475     -4.5189606940     -1.0288505081      0.7683579103     -0.5960603765      0.8329017625
O      -0.3793981480      5.7578566104     -3.7103040929     -1.3483194740      0.4560067990      3.9324087794     -0.7510789108
O       0.2386901443      5.4874325360     -5.7095796785      1.2606067951     -0.6161624513     -3.5489483240     -0.7299522542
C       1.5273097729      4.3990789886     -4.0594072145     -0.0112905154      0.5455900888     -0.4262442676      1.2282296037
F       1.3950719475      3.1368269941     -4.6080472508      0.6139720372     -0.0925627368      0.5725519364     -0.4733153453
F       1.5319842671      4.2931002416     -2.6799918154      0.6665012722     -0.6104897540     -0.2031301467     -0.4810240350
F       2.7273371743      4.9492534914     -4.4699280951     -0.0950079309     -0.7949792092      0.5291963506     -0.4565430900
