47
Properties=species:S:1:pos:R:3:forces:R:3:charge:R:1 energy=-269.72646237511634 homo_lumo=2.8849907874275016 dipole="-0.517882191823124 -2.4435836846836327 0.45320128327725734" free_energy=-269.72646237511634
N       1.3720527351      1.5359433649      1.9731714612     -0.0028109660     -0.0030042537      0.0036932665     -0.4969151472
N      -0.6888967088      2.0431346213      1.5488216635     -0.0032276547     -0.0041465506      0.0024803568     -0.5017830168
C       2.8079368183      1.3288023298      1.7720045829     -0.0015530874      0.0013620343      0.0036853427     -0.0075872234
C      -1.8611573907      2.5132041767      0.7977038419     -0.0019469386     -0.0007613256      0.0024488499     -0.0082508848
C       3.1142312456     -0.1550124647      1.5745861950      0.0002468469     -0.0008822455     -0.0002881814     -0.1761430856
C      -2.1326296461      1.5992653444     -0.3940418467     -0.0021910918      0.0010695023     -0.0022033877     -0.1908352793
C       2.3111906189     -0.8053597638      0.4498295483     -0.0006673087      0.0006176928     -0.0033825323     -0.2137904833
C      -2.2992223260      0.1264878881     -0.0260526113     -0.0009576412     -0.0025518028     -0.0026569022     -0.2042562661
C       0.5593253091      2.0875819286      1.0629415817     -0.0027646858      0.0006173344      0.0018848552      0.5900358601
C       0.6278633930      1.1182323483      3.0566153837     -0.0041666313     -0.0015311224     -0.0015187697      0.1887521926
C      -0.6729444510      1.4392811227      2.7882891252     -0.0014840902     -0.0029851521     -0.0002554585      0.2010578334
C       2.6038797328     -2.2977936255      0.2990493137      0.0024886680     -0.0013789181     -0.0037487674     -0.2031812824
C      -2.5631382994     -0.7593331422     -1.2424025866     -0.0002556839     -0.0023329017     -0.0068390242     -0.2080036874
C       1.7574943574     -2.9556549043     -0.7880450064     -0.0029175233      0.0009368927     -0.0023681027     -0.0987560222
C      -2.6859441606     -2.2385263517     -0.8863213522      0.0031909477     -0.0027615536     -0.0009922715     -0.0855747283
H       3.3312884668      1.7474936134      2.6444136151      0.0002382168     -0.0033253595      0.0008324829      0.1171678875
H       3.0786307301      1.9486432616      0.9051915147     -0.0013350199      0.0002180066      0.0025192882      0.1469212174
H      -1.6228893885      3.5417609118      0.4777803884     -0.0069409208     -0.0019465087      0.0054278130      0.1828903467
H      -2.7041020446      2.5230437102      1.5039746309     -0.0065669399     -0.0086033896      0.0014517875      0.0870779177
H       2.9247969512     -0.6994535021      2.5184300988      0.0023172354     -0.0012386420     -0.0009598050      0.0928432145
H       4.1958946917     -0.2491959969      1.3749570028      0.0000736208      0.0055503406     -0.0041138026      0.1016554751
H      -3.0399715298      1.9726481296     -0.8999994463     -0.0047757902      0.0031177433      0.0032461038      0.0990539947
H      -1.3069161566      1.7143789155     -1.1188626450     -0.0047933832      0.0046719479     -0.0014419663      0.1151211066
H       2.5183337478     -0.2853623337     -0.5044388318      0.0009366466      0.0010098575     -0.0020178221      0.0899135670
H       1.2309632360     -0.6788408379      0.6469919401     -0.0001584095     -0.0000848990     -0.0010316619      0.1542862588
H      -3.1276193189      0.0133060274      0.6998916490     -0.0014830796     -0.0025413646     -0.0049380381      0.0751404381
H      -1.3868756394     -0.2342033956      0.4842432869     -0.0011040495     -0.0007622656     -0.0020530109      0.1432142473
H       0.8583914081      2.6227396568      0.1621200378     -0.0037458648      0.0064965435      0.0096436474      0.1250560443
H       1.0798997758      0.6455471516      3.9194128260     -0.0010405855      0.0025787433     -0.0005139468      0.0407816427
H      -1.5743494657      1.3051605340      3.3725977996     -0.0020914648     -0.0026036277     -0.0003083198      0.0383656682
H       2.4187816824     -2.7990437378      1.2670957253      0.0007468970     -0.0011397103     -0.0040296567      0.0821552647
H       3.6765256503     -2.4405996726      0.0759579214      0.0006874386     -0.0017318596     -0.0043804865      0.0846610563
H      -3.4859878103     -0.4184697708     -1.7453402893      0.0017829190     -0.0052338558     -0.0080739209      0.0863349749
H      -1.7437504859     -0.6195246008     -1.9705984160      0.0030886403     -0.0041697821     -0.0038294286      0.0956379103
H       1.9508048424     -2.4980039840     -1.7713879067     -0.0034241094      0.0037284154     -0.0037767504      0.0315712799
H       0.6832710882     -2.8414115196     -0.5720400171     -0.0004198881      0.0019110719     -0.0001351251      0.0849662274
H       1.9715038732     -4.0323299679     -0.8695112923     -0.0001267653      0.0046959515     -0.0015457364      0.0349175568
H      -3.5073582980     -2.4069958002     -0.1710618400      0.0029535442     -0.0023931095      0.0000010679      0.0287494902
H      -1.7575400461     -2.6106215249     -0.4240936102      0.0036746410      0.0007456190      0.0018706560      0.0637350766
H      -2.8849169964     -2.8521246685     -1.7783684573      0.0057804957      0.0007821924      0.0022534147      0.0366678711
C       1.1895031955      4.9349980575      0.6713471073      0.0163379668      0.0111840338      0.0135405442      0.8986036947
O       0.1587277778      4.6662123400     -0.0018916134     -0.0010130298     -0.0158562218      0.0014602726     -0.8200140239
O       2.2376207595      4.2673030839      0.8422525039      0.0196383676      0.0066201861      0.0086837168     -0.8041777266
C       1.1039867154      6.2895133693      1.4483125375      0.0028046314     -0.0008723082     -0.0004429816      1.2850216099
F       2.2606067742      6.6266006010      2.0847583701     -0.0014654246      0.0152889579      0.0083117554     -0.4572004144
F       0.1266627851      6.2166216887      2.4199353865     -0.0019438380     -0.0007472469      0.0007691831     -0.4686095481
F       0.7738506822      7.3359663339      0.6336427136      0.0003841417      0.0023829097     -0.0063585472     -0.4572781056
