47
Properties=species:S:1:pos:R:3:forces:R:3:charge:R:1 energy=-253.77413962592183 homo_lumo=0.20452080674015843 dipole="-6.061195340073819 -0.9753174659370333 4.65964523248581" free_energy=-253.77413962592183
N      -1.6262279713     -0.2870755731     -0.1733744587      0.1201237668     -0.3638999685      0.0989762038     -0.5478896227
C      -1.9153274316      1.1233652922      0.2276934445     -0.5709229356      1.7396736859      0.2305702439     -0.0338907979
C      -2.6286841471     -1.2093306938      0.4481304740     -1.5226388618     -0.9838803029      0.5988433388     -0.0259325325
C      -0.2836563980     -0.7060441787      0.3513196314      1.9535451114     -0.0828490317      0.3148746166     -0.0401562258
C      -3.3629189043      1.5608195966     -0.0668149917     -0.0524379747     -0.1713832061      0.0004340946     -0.1732866186
C      -4.0946063580     -0.8277149247      0.1740559595      0.0340536630      0.0615537469     -0.0415476072     -0.1782237678
C      -4.3663457658      0.6151266410      0.5869047098     -0.3028155394      0.1080496008     -0.0756390709     -0.1690814765
C      -1.6487823181     -0.4346437034     -1.6543497952     -0.0724067553      0.0070936836     -1.4317494297      0.0088332414
C       0.9371782735      0.0731136979     -0.1995915169     -0.4293922125     -0.1206816134     -0.0354993236     -0.2224416373
C       2.2355982357     -0.4595924423      0.4238607600     -0.1353010825      0.0621997627     -0.0126713239     -0.1633639234
C       3.4657106697      0.2660909945     -0.1345028543     -0.0343694346     -0.3069250571      0.0973617295     -0.1851452865
C       4.7548817229     -0.2853985156      0.4868411146      0.0251113310      0.1705881399     -0.0866834839     -0.2087181889
C       5.9844870450      0.4200678648     -0.0762328186      0.2450836448     -0.0754531167     -0.0298890710     -0.0979155123
H      -1.2447813442      1.8330251408     -0.3030460833      0.0632224064     -0.6185085198      0.1149030716      0.1714420702
H      -1.7342199149      1.2576144045      1.3191626175      0.0979308050     -0.4534233946     -0.3778355782      0.1486499544
H      -2.5011192479     -1.2246934456      1.5562733985      0.3503538295      0.2647797747     -0.4685674804      0.1509415160
H      -2.4692159717     -2.2547987125      0.0978128112      0.3476445482      0.5231725702     -0.0378920600      0.1498943173
H      -0.2656885009     -0.6120660366      1.4620749402     -0.4244356384      0.0715603792     -0.4032583083      0.1423844843
H      -0.1158980037     -1.7859564483      0.1292124045     -0.4311051068      0.3671917815     -0.0767308116      0.1512444966
H      -3.5211468285      2.5848903370      0.3347355988      0.2886010526     -0.2227050370     -0.1881007317      0.1304570514
H      -3.5426863336      1.6103557813     -1.1614896305      0.0735996588      0.0428525552      0.2219664787      0.1166719891
H      -4.3577002298     -0.9814296678     -0.8926303772      0.0781170696      0.0069749956      0.1911271608      0.1115078296
H      -4.7560330995     -1.4994221571      0.7628389348      0.3297502939     -0.0088624756     -0.1953429680      0.1290637491
H      -4.2964178884      0.7049085932      1.6932467458     -0.0583676379      0.0016504247     -0.2142040856      0.0989325202
H      -5.3970742911      0.8985487846      0.2826680970      0.2442812747     -0.0468305562      0.2195698453      0.1094867043
H      -0.9954771898      0.3142888459     -2.1491824036     -0.0484114168     -0.2831901201      0.4639496900      0.1392402793
H      -1.3212470853     -1.4530354188     -1.9598539769     -0.0283152550      0.3864701627      0.3841486453      0.1222765756
H      -2.6568146064     -0.2727660387     -2.0813813139      0.1722598236     -0.0582284356      0.4920362868      0.1343395662
H       1.0128658169     -0.0499666052     -1.2995292917     -0.0155832200      0.1421117093      0.2215613185      0.1476614495
H       0.8520826837      1.1527988014      0.0408164842     -0.0047269452     -0.2009920683     -0.1480708622      0.1184992560
H       2.1977442869     -0.3216489785      1.5270441735      0.0080709971     -0.1430138048     -0.1688033130      0.0797300990
H       2.3269124041     -1.5473102219      0.2083623887     -0.0070374425      0.2069961758      0.1233222166      0.0948523124
H       3.3852694024      1.3529957736      0.0876243332      0.0276526766     -0.2017239465     -0.1544117539      0.0868925178
H       3.5035406082      0.1318785807     -1.2382501532      0.0333766193      0.1873770371      0.1718492338      0.1547768673
H       4.8380009543     -1.3739508916      0.2751903487     -0.1118444883      0.1994520001      0.1222306017      0.0847748907
H       4.7317309317     -0.1424996653      1.5892253948     -0.0876556314     -0.1610172372     -0.1538527688      0.0674483021
H       6.0395052241      0.2748338167     -1.1746444139      0.0339916949      0.1684908651      0.2751434284      0.1103609091
H       5.9428175727      1.5073095751      0.1463279927      0.0839315508     -0.2696327843     -0.1451203890      0.0319805518
H       6.9014898649     -0.0037884417      0.3850427134     -0.1621037196      0.2149865428     -0.1904278749      0.0323467698
S       5.3039367677      0.5114056707     -5.1095064081     -7.3742539101      7.2637706177     -2.5769302397      1.5494931680
O       4.0129529018      0.3447868322     -4.2943082747      2.2881972127     -2.0301724399      0.6641457374     -0.7969036435
O       5.6803300023      1.9814914222     -4.8731322306      1.9853575555     -2.6395989282      0.6567634137     -0.7624386190
O       4.8031812473      0.5089084426     -6.5614553843      2.3143469156     -2.0782391389      1.3150173187     -0.7599263113
C       6.6127981062     -0.6912787083     -4.7451973543      0.4600069655     -0.3149922849     -0.1042841450      1.1111133264
F       6.1521683329     -1.9670414038     -5.0078410216      0.6936531055      0.6099458420      0.3128984892     -0.4384928021
F       6.9703869695     -0.5969278083     -3.4149833648      0.1207893478     -0.4258251543     -0.7667471419     -0.4492064190
F       7.7144635912     -0.4269921068     -5.5358726263     -0.5989277123     -0.5449134311      0.7925666587     -0.4322833799
