45
Properties=species:S:1:pos:R:3:forces:R:3:charge:R:1 energy=-253.84373753842263 homo_lumo=0.48532897578514284 dipole="-5.174504204629495 0.00011278384423205737 0.7450056756904202" free_energy=-253.84373753842263
N       2.3629099614      0.0285593734     -0.5236086895      0.7047892598     -0.0009213643     -0.0532584114     -0.5303247750
C      -1.4512956444      0.0497197430     -0.7044009999      0.1941918173     -0.0111122166      0.2608562962     -0.1798071616
C      -0.0508277593      0.0201511953     -0.0837928443     -0.0504361649      0.0048032352     -0.0909042516     -0.1951692909
C      -2.5283436286     -0.0114024684      0.3848545097     -0.0747849326      0.0225838350     -0.4284762099     -0.1694093824
C       1.0402909672      0.0751252468     -1.1572220224     -0.8127735482      0.0202471309     -0.2350139138     -0.0137505931
C      -3.9331131114      0.0057040368     -0.2265251732     -0.0213586621     -0.0158185935      0.2559724252     -0.2089065511
C      -5.0044019896     -0.0589048465      0.8583635021     -0.2522637087      0.0005137177     -0.0623273417     -0.0855634282
C       2.9475105966     -1.1808218842     -0.2623985014      0.8362734095      0.4021087657      0.5127565942      0.2546893552
C       2.9759263896      1.1919775264     -0.1454889298      0.8646406990     -0.5007628319      0.5057353959      0.2566560886
C       4.1736297905     -1.2460909432      0.4023588511     -0.6660715676      0.6196062369     -0.2767844633     -0.0028946841
C       4.2031294904      1.1619596858      0.5198354786     -0.6783797925     -0.5236735948     -0.3553996867      0.0156892410
C       4.7999253225     -0.0662231288      0.7990834333     -0.0761694630      0.0133857284     -0.0918725006      0.0789453084
H      -1.5697568564     -0.8187024180     -1.3894453835     -0.0075749877      0.2506251337      0.0645361244      0.0971961907
H      -1.5748882117      0.9850890240     -1.2937071238     -0.0056189181     -0.2581803849      0.0328929430      0.0972852844
H       0.0694366641      0.8887236504      0.6005720862      0.0177739066     -0.2556220547     -0.0719836233      0.1194730544
H       0.0707481216     -0.9125637245      0.5098725311      0.0146545908      0.2560020576     -0.0451027682      0.1194363779
H      -2.3978826817     -0.9427203564      0.9794832331     -0.0160753257      0.2532353011     -0.0339708404      0.0944772138
H      -2.4126880725      0.8608098367      1.0658969365     -0.0127246051     -0.2529364690     -0.0597797364      0.0946864658
H       0.9330019396      1.0066798457     -1.7570665297      0.3164787765     -0.2895903270      0.2454636494      0.1335614742
H       0.9221026489     -0.7785018108     -1.8617955696      0.3071049162      0.2480691601      0.2820476250      0.1323119018
H      -4.0736520077      0.9370663797     -0.8173634270      0.0941525611     -0.2560481630      0.0054851973      0.0917155837
H      -4.0564786877     -0.8650383476     -0.9069034978      0.0907604645      0.2572425707      0.0344319942      0.0915182942
H      -4.9183386800      0.8156701035      1.5380345163     -0.0904175430     -0.2949125574     -0.1121265586      0.0429712447
H      -6.0106593442     -0.0469058529      0.3892488529      0.1987534517     -0.0112196671      0.2859563476      0.0513253652
H      -4.8989315499     -0.9936608677      1.4494831697     -0.0964465209      0.3016100944     -0.0812057160      0.0426455279
H       2.4594555135     -2.1034358114     -0.5540281063     -0.4252159702      0.1335857997     -0.2764505506      0.1050771455
H       2.5099259207      2.1502700035     -0.3430523755     -0.4204297236     -0.0941546101     -0.2964648534      0.1079049152
H       4.6300272893     -2.2044348114      0.6136138439      0.0642554736     -0.2734032596     -0.0471253535      0.0824017568
H       4.6824773929      2.0837051139      0.8231008314      0.0986681211      0.2553481966     -0.0615755054      0.0802727135
H       5.7451671296     -0.1030949804      1.3230189854      0.4920614091     -0.0162745810      0.0435549777      0.1187315481
N       9.2454294443     -0.0698321548     -1.5896828331     -0.0166088737     -0.0293210514     -0.1100870285     -0.8490783800
S       8.9306720048     -1.2227141865     -0.4685311927      4.2687097855      3.5441836528      4.2991875572      1.5738705155
S       8.4007168760      1.3313511707     -1.6853018891     -4.6326375112     -3.5241364399     -3.3616286023      1.5799460661
C       7.7617852160     -2.3887677817     -1.1374374616     -0.8188797220     -1.0793804922     -1.1271762428      1.1563641759
C       9.3027504003      2.6174666514     -0.8478334824      1.4163271572      1.1762207810      1.0477181853      1.1573466717
O      10.2041466095     -1.9480370749     -0.1389739953     -2.1468372712      0.1552249670     -1.6713359904     -0.7112171838
O       8.3674729861     -0.6067512115      0.7817012922     -0.8084849827     -1.2417690276     -1.4993339119     -0.7576754159
O       7.0448342689      1.1828866505     -1.0552936714      1.3354871268      0.9600748160      0.4516815559     -0.7717193363
O       8.2421974198      1.7121775410     -3.1296149173      1.4468362367      0.1387896827      2.1003334576     -0.7165743744
F       7.4629152132     -3.3420694477     -0.1827018544     -0.0428917163      0.5916597542     -0.8472278363     -0.4388390543
F       8.3098748162     -3.0058211201     -2.2460152484     -0.7993281315      0.2848065543      0.9063054651     -0.4231566403
F       6.6044722468     -1.7316789758     -1.5081669587      0.5452666375     -0.8384709377      0.1931577310     -0.4419127565
F       8.5846310000      3.7965317922     -0.9066327935      0.7019268140     -0.8450991425      0.1533918646     -0.4321000970
F      10.5286453155      2.7953865632     -1.4607954325     -0.9839409265      0.1038236975      0.7092511882     -0.4240888381
F       9.4983008571      2.2650975705      0.4742867963     -0.0527620454      0.6190568971     -1.0941046780     -0.4243115368
