26
Properties=species:S:1:pos:R:3:forces:R:3:charge:R:1 energy=-153.9129738626679 homo_lumo=2.4592798322000875 dipole="-0.2208374501379789 -1.2133068422678175 -1.6152475806758098" free_energy=-153.9129738626679
N      -0.4785338204      0.3271230737     -0.1978656033      0.0005982941      0.0060909968     -0.0026713823     -0.5122300020
N       1.6547844928      0.1287748975      0.1619876493      0.0031063247      0.0021798436      0.0006382144     -0.5383712820
C      -1.9272531050      0.0978340289     -0.0744569422     -0.0020859594      0.0035399450     -0.0037394173     -0.0518520612
C       0.4699536969     -0.4782976863      0.3018118210      0.0001186949     -0.0063546052      0.0031210860      0.5915793318
C       0.1172013302      1.4907072993     -0.6335016499     -0.0009448307      0.0107052596     -0.0006699928      0.2438576486
C       1.4569527214      1.3651221850     -0.4109269890      0.0052677231      0.0089608937     -0.0010644352      0.2501577652
C      -2.3948220060      0.3394911142      1.3523856028      0.0046671677      0.0040807230     -0.0002431196     -0.1098959250
C       2.9082778206     -0.3064591561      0.7703784591     -0.0015615417      0.0056998538     -0.0004240947      0.0915392654
H      -2.4060149783      0.7885076632     -0.7830666728      0.0022678447      0.0136272335     -0.0010795525      0.1114087209
H      -2.1317189136     -0.9265971592     -0.4223171694      0.0027569897     -0.0040037395     -0.0075750184      0.1019027415
H       0.3044963704     -1.4381931421      0.7711510541     -0.0022366603      0.0015731646      0.0049440766      0.0996455260
H      -0.4619160682      2.3273351713     -0.9993904897     -0.0019621730      0.0048582833     -0.0058812082      0.0438836331
H       2.2649814520      2.0736379278     -0.5290404884      0.0052868452      0.0112431297      0.0137351259      0.0470609136
H      -1.9796882564     -0.4171809904      2.0343008919     -0.0051801093     -0.0024922794     -0.0022910142      0.0575689057
H      -3.4922481832      0.2829358173      1.3970352226     -0.0089652405      0.0038712869     -0.0127553365      0.0403019639
H      -2.0440565254      1.3238790534      1.7024043575      0.0035668250      0.0009495195      0.0060935551      0.1357168952
H       2.7887363602     -1.3315729985      1.1366134677     -0.0028451570     -0.0005561237     -0.0072567177      0.0483166583
H       3.7093530250     -0.2669431693      0.0215806140     -0.0058239472      0.0054234809     -0.0063740446      0.0589519641
H       3.0962341937      0.3868018611      1.6073895183     -0.0004921672      0.0014960952     -0.0003743056      0.1247331297
C       0.7811901295      2.0589610993      2.5218869017      0.0005830657     -0.0106928696      0.0128340701      0.9060862365
O       2.0019924019      2.1432077213      2.2357707674      0.0147731153     -0.0099887866      0.0004883726     -0.8021776026
O      -0.2289542989      2.5849806755      2.0041071226     -0.0098014727     -0.0181446708     -0.0111216300     -0.7868406027
C       0.4962318029      1.0652831514      3.7118139828      0.0020649548     -0.0019071976      0.0064033408      1.2560640584
F      -0.7764750633      1.1135421899      4.2001062073     -0.0053387755     -0.0135301019     -0.0006015697     -0.4619877652
F       1.3356225927      1.2446098376      4.7690227491     -0.0029828677     -0.0179447229      0.0183199633     -0.4530929960
F       0.6851350555     -0.2577080023      3.2894617491      0.0051630573      0.0013153881     -0.0024549656     -0.4923271214
