26
Properties=species:S:1:pos:R:3:forces:R:3:charge:R:1 energy=-153.7896085822242 homo_lumo=3.467620364005237 dipole="-0.9475494121179368 -0.8270476220021823 -1.3240769758197803" free_energy=-153.7896085822242
N       0.2683078423      0.3161196133     -0.2466122097     -0.5612315366     -0.2136863040     -0.0099091052     -0.5053796406
N       2.2949663114     -0.2249892150     -0.7445129544      0.5749269317     -0.2160081370     -0.2229561631     -0.5290542082
C      -1.0052835884      0.3865989197      0.4613480238      0.1812844385      0.3617692852      0.3912423867     -0.0420291462
C       1.2610983939     -0.5309248868      0.0409859488     -0.0803037757     -0.1771364566     -0.1228612312      0.6247444130
C       0.7260792218      1.2535412669     -1.1436685771     -0.0175641176      0.1926826780     -0.1734423633      0.1965641616
C       1.9990926884      0.9105754051     -1.4556060805     -0.0087719291      0.1196229241     -0.1698838679      0.2403559602
C      -0.9159851923      1.3829565720      1.6127073504     -0.2006909370     -0.3276128444     -0.1806409585     -0.0785257046
C       3.6022719039     -0.8530422348     -0.6611039391     -0.1776884071     -0.2869344607     -0.1540928776      0.1016842757
H      -1.7735992844      0.6837932529     -0.2588946822     -0.1351759010     -0.0655609854     -0.2032251468      0.0979534692
H      -1.2356422259     -0.6157915551      0.8328631001     -0.0572823844     -0.2168897088     -0.0221016473      0.0986249972
H       1.1745794068     -1.4134802246      0.6483759969     -0.0028206161     -0.1352764349      0.1473543472      0.0867966062
H       0.1067088353      2.0642984795     -1.4841555169     -0.1200589881      0.1982493283     -0.0615984387      0.0284985099
H       2.7153463727      1.3718912001     -2.1120393660      0.1674257135      0.1117191078     -0.1066238081      0.0299705257
H      -0.1426538445      1.0735487987      2.3143870087      0.2639254695     -0.0494261523      0.1269556975      0.1145549178
H      -1.8755581278      1.4228053592      2.1263946416     -0.3552802120      0.0676465196      0.1507276096      0.0289730317
H      -0.6674350604      2.3752533936      1.2395321898      0.0611301392      0.2918070819     -0.0654698737      0.0562008343
H       3.6218713666     -1.7577995807     -1.2718361280     -0.0372689407     -0.2156302773     -0.2350930465      0.0570527084
H       4.3484407580     -0.1421597163     -1.0068551363      0.1793620519      0.1331739119      0.0408859906      0.0699196255
H       3.7967897518     -1.0955836345      0.3821202526      0.1205618339      0.0888937569      0.2421771505      0.0729383861
C       2.8618728934      1.2026363391      1.8607021512     -0.0607029765      1.4997611779      0.9493998302      0.9316115141
O       3.8155800139      1.2676013775      1.1013120586      1.3633210321      0.1934811789     -0.8953100368     -0.7808473195
O       1.9795503405      0.3359817520      1.9925919000     -1.0815283157     -1.1568355607      0.7156132409     -0.8151959521
C       2.6344224952      2.4684814918      2.8196455155      0.1060891939     -1.0076432747     -0.8611371480      1.3097742815
F       2.4531964301      2.1232528535      4.1031440788     -0.1318724363     -0.3872085720      1.0898371811     -0.4611952507
F       1.5117182871      3.1232553555      2.4318301921     -0.8465266092      0.5815364591     -0.2959148925     -0.4780358857
F       3.6320849031      3.3553260572      2.7793740069      0.8567412789      0.6155057589     -0.0739328292     -0.4559551105
