53
Properties=species:S:1:pos:R:3:forces:R:3:charge:R:1 energy=-293.9132233940877 homo_lumo=5.177806826859041 dipole="0.20790909265635218 -0.08333208644196637 -2.4790700173863094" free_energy=-293.9132233940877
N       3.1597018758      0.8680524264     -1.6861283671      0.1669273051      0.3779033750      0.0966239662     -0.5107597878
N       3.0885450597     -1.2819662937     -1.7484653393      0.1491354324     -0.4343688963     -0.0913917969     -0.5128450777
C       2.0272178464      2.9890431785     -1.1340018785      0.0957806339     -0.5996192746      0.3843733177     -0.1838932684
C       3.3580216894      2.2349338028     -1.2047165050     -0.1961126160      0.4291943251     -0.1095499943     -0.0083171247
C       2.1223774530     -3.0060002113     -0.2618329283     -0.1492488325      0.2358089458     -0.5182386832     -0.2058671770
C       3.1619152035     -2.6843644930     -1.3415013411     -0.2107410534     -0.1898431005      0.5493230512      0.0029030551
C       1.0306472160      2.2928279537     -0.2046162370     -0.0951753188      0.7502835524     -0.4304699522     -0.2306534552
C       0.7088566572     -2.5595818942     -0.6418188459      0.2934771570     -0.3316828278      0.5771802078     -0.2013284003
C      -0.2945971824      3.0505833176     -0.1083650712      0.2234740894     -0.7509851339      0.3232894415     -0.1495893632
C      -0.2545532301     -2.7611648891      0.5320538882     -0.1909742546      0.4177346432     -0.7090566285     -0.1765011265
C       3.4780812636     -0.2378975877     -1.0184456868      0.2889158640     -0.0130616626      0.0594295084      0.6023025351
C       2.5461999394      0.5255554683     -2.8617875353     -0.1563113085      0.0616270603     -0.2643865128      0.2033141256
C       2.4965684531     -0.8312908897     -2.8974685489     -0.1112492553      0.0149369800     -0.2644055307      0.2126019780
C      -1.2583437956      2.3079120847      0.8233328757     -0.2199823732      0.6210362915     -0.2993262775     -0.2458709613
C      -1.6370522118     -2.1849451335      0.2139404567      0.1359843019     -0.3124555174      0.5845514580     -0.2268780508
C      -2.5847881967      3.0504053132      0.9686082680      0.3112389557     -0.3454489694      0.0348506584     -0.0440251803
C      -2.5844180789     -2.3288820962      1.4036020869      0.1208605043      0.1341652499     -0.4390877371     -0.0526408405
H       2.2446112148      3.9952068946     -0.7635353663      0.0703947428      0.2978400079      0.0231747980      0.0910401815
H       1.6053675490      3.0865395214     -2.1398582159     -0.1201987807      0.1362567963     -0.2907560726      0.0779849479
H       2.4168371799     -2.5190887593      0.6686694247      0.0756180394      0.0257126731      0.1699913692      0.2023878952
H       2.1465379453     -4.0874207626     -0.0996883190      0.0411281433     -0.3209446823      0.0676747039      0.0741166646
H       4.0489170083      2.7378444899     -1.8885504208      0.2134723405      0.0273719130     -0.1586205487      0.0972726692
H       3.8141798410      2.1656823758     -0.2149737029      0.0385656116     -0.0675180615      0.1277646498      0.1591210183
H       4.1693588576     -2.8730263130     -0.9609033024      0.2415385753     -0.0449015149     -0.0225763908      0.1101866336
H       2.9992869843     -3.2890855789     -2.2378637859      0.0195698428     -0.0391179196     -0.2318018584      0.0949980782
H       1.4697199260      2.2073728074      0.7918576934      0.0607691914     -0.1143517837      0.1552328496      0.1716186057
H       0.8403682204      1.2805245004     -0.5734790306     -0.0618557070     -0.2177761606      0.0265142516      0.1500536476
H       0.3615703237     -3.1161558849     -1.5202483550     -0.1511310612     -0.1351627720     -0.2824238083      0.0515733468
H       0.7257363758     -1.4965281596     -0.9020374770     -0.0706172400      0.2303455192     -0.0289307578      0.1547548041
H      -0.1147298910      4.0604356883      0.2762870530      0.0167542808      0.3011853899      0.0818657189      0.0668541589
H      -0.7418527527      3.1464489777     -1.1048442777     -0.1633536379      0.0927106908     -0.2738703721      0.0549881602
H       0.1516184576     -2.2585462384      1.4147119252      0.1188304308      0.0944203268      0.1998710571      0.1607496719
H      -0.3403274593     -3.8287050255      0.7609270198     -0.0303837655     -0.3013030711      0.0969046259      0.0606651712
H       3.9654976043     -0.2813084742     -0.0590695810      0.0893152456     -0.0370264997      0.2379003604      0.1635887800
H       2.2018413885      1.2601175484     -3.5679503759     -0.0934769968      0.1790413892     -0.1366636225      0.0394863450
H       2.0991107196     -1.5031689428     -3.6377284376     -0.1043803840     -0.1655828292     -0.1494137499      0.0329257783
H      -1.4446506387      1.3047473355      0.4243266718      0.0270136506     -0.2662880126     -0.0430335734      0.1386801322
H      -0.7924719815      2.1931228839      1.8069378632      0.1663849957     -0.1371293165      0.2071905933      0.1082146050
H      -2.0600749209     -2.6979686280     -0.6574432570     -0.1019898560     -0.0839565432     -0.2820519184      0.0527390496
H      -1.5359296356     -1.1237012249     -0.0400838936      0.0654482420      0.2443194501     -0.0968303561      0.1270348832
H      -2.4232018625      4.0447837254      1.3875019043     -0.0008092225      0.3172348272      0.1235364620      0.0215095734
H      -3.0733142560      3.1581950660     -0.0014489272     -0.1971389100      0.0718058124     -0.2802729210      0.0146079601
H      -3.2502928182      2.4983771007      1.6327053878     -0.3081281666     -0.0826167999      0.2015820241      0.0309141269
H      -3.5610181264     -1.9103027324      1.1582967332     -0.3582223300      0.0979910991      0.0370905826      0.0228530261
H      -2.1868782604     -1.8001593329      2.2705559440      0.0988702341      0.1444051609      0.2889126874      0.0429257708
H      -2.7122252713     -3.3799929736      1.6664715032     -0.0687044809     -0.3081565204      0.1213891547      0.0238371669
P       2.6651850230     -0.0923229571      2.4006346056     -0.1821544037      0.0342223162     -0.1917907982      2.2445767535
F       1.8153801945     -1.3258324964      3.0470473779     -0.0893115433     -0.1737537817      0.1230406350     -0.5080000103
F       1.8073339887     -0.2837307820      0.9605077146     -0.0364144714     -0.0283176086      0.2986798580     -0.5336710798
F       1.5550900493      0.9985773849      2.8934910528     -0.1216331299      0.1479739442      0.1161444425     -0.5081839226
F       3.5317985220      1.1292564437      1.6455947943      0.1339913505      0.0758340870      0.0955308517     -0.5397773825
F       3.5389876814      0.0985728994      3.7503346434      0.1464240233      0.0261683281      0.1950842043     -0.4901838037
F       3.7914257952     -1.1783832251      1.8033498558      0.1798159158     -0.0861608948     -0.0097476278     -0.5343952871
