52
Properties=species:S:1:pos:R:3:forces:R:3:charge:R:1 energy=-286.0390443503781 homo_lumo=0.002581370014300478 dipole="8.084831594520072 2.1556343731734247 -1.808148280627298" free_energy=-286.0390443503781
N      -0.0681423145      1.4765838461     -0.0031972929      0.0482007169     -0.0949831164      0.0167667243     -0.5191545899
C       0.5167357468      2.4111311757      1.0076906434      1.1581881539      1.0774162584      1.7198401823     -0.0009873260
C      -0.7301160241      2.3626177637     -1.0090930892     -1.3306068876      1.0173048715     -1.6659499105     -0.0067234256
C       1.0185557031      0.6929747054     -0.6755664214      1.1697501649     -1.1946208312     -0.3308741630     -0.0368336247
C      -1.0822807937      0.5990823457      0.6657572951     -1.1406816274     -1.3171601335      0.2977308569     -0.0466862842
C      -0.0149613499      3.8040278796      0.7282328779     -0.4763401971      0.3635756894      0.5616248805     -0.1311335665
C      -0.2802492975      3.7870650835     -0.7506384207      0.4027003768      0.3807750386     -0.5490558289     -0.1287993933
C       1.7746470085     -0.2901473236      0.2498592209     -0.3439543360      0.2763304118     -0.1408278235     -0.2141052776
C      -1.7779399955     -0.4182453346     -0.2696065458      0.3136824418      0.3271910384      0.1687737945     -0.2123927754
C       2.9869206305     -0.8890068501     -0.4749461077     -0.1583095814      0.0568081596      0.1666322921     -0.1693345765
C      -2.8720261742     -1.1806760295      0.4882124820      0.1035767221      0.1064021159     -0.1567430154     -0.1730547657
C       3.7246770999     -1.8982465130      0.4119833683      0.0756653936     -0.0070278148     -0.1586723717     -0.2118950888
C      -3.5869457225     -2.1844394403     -0.4228088048     -0.0758553249     -0.0756792863      0.1577586455     -0.2078669684
C       4.9314575296     -2.4896566940     -0.3124756034      0.1352352737     -0.1539044619      0.0927190104     -0.0886714451
C      -4.6582909733     -2.9544480069      0.3445088033     -0.1442086410     -0.0650535843     -0.0693983927     -0.1035351250
H       1.6270903589      2.4696422248      0.9355162124     -0.3684508484     -0.4731214675     -0.3225197941      0.1288118673
H       0.2864170550      2.1243455121      2.0595409055     -0.0214183714     -0.3337583576     -0.5743578256      0.1336229341
H      -1.8399662990      2.3548189739     -0.9104415600      0.4602673780     -0.4701158003      0.2921906133      0.1524220832
H      -0.5052369162      2.0797205920     -2.0630506784      0.0389462338     -0.3321881163      0.5521463494      0.1281446681
H       1.7587387690      1.3972283484     -1.1221218912     -0.4506819882      0.1341027913      0.3093676239      0.1344700406
H       0.6099371652      0.1156027571     -1.5338832179     -0.2283719648      0.3161446779      0.4006563204      0.1579624308
H      -1.8687138498      1.2353029717      1.1349655737      0.4579561059      0.1428767946     -0.3052127137      0.1518046936
H      -0.6171394774      0.0392894757      1.5069031781      0.1841522543      0.3382587176     -0.3845029518      0.1594146499
H       0.7166376389      4.5930953514      1.0071686433     -0.2522744921     -0.2567076624      0.1193383204      0.0848799771
H      -0.9677910895      3.9633857496      1.2806946417      0.3024380902      0.0737881814     -0.0816812268      0.1015995485
H      -1.0572203272      4.5278754762     -1.0392621187      0.2926853095     -0.2625832445     -0.1122708859      0.0959674777
H       0.6614410623      3.9939547774     -1.3062766583     -0.2648503034      0.0631857369      0.0672715679      0.0838137845
H       1.1014256518     -1.1202242635      0.5492920801      0.1202167748      0.2262695288      0.0269269961      0.1337832143
H       2.1235948594      0.2246709707      1.1692987957     -0.1240059578     -0.1148727322     -0.1452091016      0.1146836693
H      -1.0414086030     -1.1555848530     -0.6496728644     -0.1175509378      0.1930397119     -0.0196890775      0.1209907415
H      -2.2353679419      0.0990377112     -1.1387083273      0.1350852361     -0.1093004039      0.1266807400      0.1174771643
H       3.6858977651     -0.0715472079     -0.7583632713     -0.1367178408     -0.1974795299     -0.0525586274      0.0924374612
H       2.6442900546     -1.3982196144     -1.4026334825      0.1576715417      0.1571362401      0.1272555901      0.0992314829
H      -3.6162365803     -0.4574200490      0.8885989919      0.1490910203     -0.2199189422      0.0211291998      0.1115341683
H      -2.4122767199     -1.7236025009      1.3433531168     -0.1841726134      0.1473107729     -0.0942388798      0.0960640837
H       3.0354776885     -2.7235540687      0.6941437622      0.0893932060      0.2565402347      0.0530743325      0.0973981318
H       4.0733154800     -1.3967972159      1.3408333959     -0.2090364715     -0.1245992484     -0.1286932871      0.0940667104
H      -2.8513222048     -2.9075024677     -0.8370490989     -0.0676489091      0.2453829626     -0.0416909611      0.0790798656
H      -4.0676194893     -1.6459149255     -1.2682909974      0.2119040695     -0.0961423793      0.1083481320      0.0953128270
H       5.4408330658     -3.2223048463      0.3481915035     -0.0434253459      0.1847150339     -0.2982678673      0.0584598728
H       4.6092415532     -3.0120866222     -1.2383259370      0.1915871149      0.1444492823      0.2258523560      0.0472846822
H       5.6541906490     -1.6886329592     -0.5768245150     -0.1474166823     -0.2878526627      0.0029180079      0.0449191258
H      -5.1687435161     -3.6663362004     -0.3375582470      0.0359722775      0.1945271930      0.3361660682      0.0610140723
H      -4.1997510530     -3.5283486694      1.1778237010     -0.2233271622      0.1415368100     -0.1878507976      0.0344111496
H      -5.4139684805     -2.2526934623      0.7558332541      0.1112443368     -0.3526234650     -0.0590047100      0.0955859505
C      -9.7883907668     -1.6454310206      2.1246426640     -0.7998842501      0.8429213555      0.7471326121      0.8202959273
O     -10.7777493174     -1.8578480844      2.8078435116     -2.6381379455     -2.4698020907      1.4703320666     -0.7383551585
O      -9.3579584541     -0.5076987147      2.0246104668      2.8765828242      2.6820010210     -1.5704981244     -0.7600282425
C      -9.1000520356     -2.7704547618      1.4098116074     -0.5248237525     -0.0146246843      0.2145127491      1.2318936435
F      -9.1191222494     -2.5330608194      0.0476867787      0.4034995841     -0.6777501611      0.1837594107     -0.4695921523
F      -9.7359571264     -3.9726598359      1.6667715235      0.8716450518      0.1558303666     -0.6061548946     -0.4598658071
F      -7.7887803320     -2.8558855824      1.8387566347     -0.0251852206     -0.5439508200     -0.5109822113     -0.4798225070
