22
Properties=species:S:1:pos:R:3:forces:R:3:charge:R:1 energy=-116.61785174876825 homo_lumo=5.992558418085641 dipole="-0.24763351831728483 -2.5248101124660933 0.7566505736048147" free_energy=-116.61785174876825
N      -0.2933310215      0.4652999507     -0.2599226746     -0.0195295185     -0.2260583543      0.0765406231     -0.6298085781
C      -0.4326144945     -0.9507258708      0.1646291613     -0.0099088286     -0.0539609175      0.0133483279      0.1038425402
C       0.2443335281      1.2707657599      0.8713562219      0.1013596337      0.1438942633      0.2026158149      0.0686175844
C      -1.6258834770      0.9959854026     -0.6594197584     -0.2406108554      0.1087656981     -0.0725397243      0.0682343287
C       0.6414176987      0.5458805937     -1.4163851527      0.1636705932      0.0155278166     -0.2027232047      0.0678885146
H       0.5449776210     -1.3330000825      0.4530683185      0.2707332762     -0.0962657880      0.0758560519      0.0794487116
H      -1.1149929925     -1.0022034662      1.0112675887     -0.1882064007     -0.0035944477      0.2303271791      0.0792087868
H      -0.8279384605     -1.5332539514     -0.6656962185     -0.1068959686     -0.1493817325     -0.2339327573      0.0795165616
H       0.3427612859      2.3052239541      0.5439242083      0.0290924781      0.1462343170     -0.0155299199      0.2032509373
H      -0.4479652597      1.2060847571      1.7085830246     -0.2313712232     -0.0752082998      0.2111490177      0.0530677116
H       1.2163899211      0.8721950095      1.1553437946      0.2653348091     -0.1727342024      0.0432257066      0.0533928721
H      -1.5070131302      2.0343975362     -0.9674824691     -0.0109796179      0.1342094201     -0.0505179431      0.2034387023
H      -2.0082551518      0.3993687059     -1.4853514872     -0.0620044137     -0.2202016629     -0.2289622806      0.0532219244
H      -2.2993167710      0.9333156676      0.1932726707     -0.1494260979     -0.0666092132      0.2811302293      0.0532055494
H       0.7355706551      1.5898278203     -1.7135762308      0.0337647517      0.1329498586     -0.0618147532      0.2033345844
H       1.6098301366      0.1526657317     -1.1131192482      0.2493106527     -0.1435690864      0.1454466710      0.0532301484
H       0.2363347265     -0.0431967258     -2.2369292024     -0.1615917102     -0.2022435140     -0.1936156015      0.0534550896
B       0.0516227876      3.9755085919     -1.3125192107     -0.0439862053     -0.3475366883      0.1042558418      1.3890949531
F       0.1777838208      5.2712145956     -1.7003949018      0.0917507404      1.0289734590     -0.3054038109     -0.5124298853
F       1.2925596590      3.4088097161     -0.9156542290      0.8033859619     -0.0166771999      0.1398888816     -0.5743360891
F      -0.4566562874      3.1496585456     -2.3508542122     -0.2799509593     -0.1780361055     -0.7334957635     -0.5743254488
F      -0.8314888172      3.8270555163     -0.2091789735     -0.5039410974      0.2415223797      0.5747514139     -0.5745494992
