31
Properties=species:S:1:pos:R:3:forces:R:3:charge:R:1 energy=-165.2868215524238 homo_lumo=3.3390222462918597 dipole="-1.032497920303475 0.29482588969211665 2.1338761170633425" free_energy=-165.2868215524238
N      -0.2193040967     -0.0787318952      0.0963196380     -0.0011885496     -0.0076449650     -0.0002006480     -0.4843686972
C      -0.6171240606     -1.2782973786     -0.7537591761     -0.0106270541     -0.0024109006      0.0039845714     -0.0293833227
C      -1.4004532809      0.0830255181      1.0248529249     -0.0046465009     -0.0043443234     -0.0051309310      0.0168143565
C      -2.1072091214     -1.0797201734     -1.0122308891      0.0110908031      0.0011326877      0.0125251072     -0.1422304168
C      -2.6330865078     -0.2158645863      0.1665281995      0.0048445908      0.0030797300     -0.0026479180     -0.1551767970
C       1.0363439284     -0.3564029367      0.8853707285     -0.0015555228     -0.0007741434     -0.0039413066     -0.0101986623
C      -0.0738174884      1.1414477259     -0.8092535058     -0.0058269475     -0.0032732669      0.0154494389     -0.1043066818
C       2.2737001965     -0.6122385855      0.0454870504     -0.0025612071      0.0072518553      0.0058865460     -0.2398144094
C       0.4735638098      2.3696280772     -0.1145842338     -0.0029572194     -0.0158197570     -0.0050071414     -0.1025373026
C       3.4653728003     -0.9192170013      0.9503740646     -0.0127970102      0.0046097688      0.0049225747     -0.0650770219
H      -0.4235437895     -2.1643698870     -0.1284755089     -0.0037879220      0.0037622098      0.0051698804      0.0952145105
H       0.0187301024     -1.2753515487     -1.6757471936      0.0039411006     -0.0080281593      0.0055265650      0.1917351407
H      -1.3803320742      1.0851953089      1.4729221304     -0.0017683930     -0.0063720324      0.0045669520      0.1248372537
H      -1.2730675953     -0.6669308381      1.8199036390     -0.0050078945      0.0009785775      0.0000585047      0.1153165291
H      -2.6151882897     -2.0524932135     -1.0727005964      0.0001993902      0.0048806167     -0.0070128625      0.0947434912
H      -2.2576297032     -0.5731450624     -1.9775488429      0.0080022208      0.0022921097      0.0001487054      0.0977876446
H      -3.0997190520      0.7121215007     -0.1957024984      0.0056451483     -0.0017047645     -0.0008126404      0.0819766412
H      -3.3867887725     -0.7434868768      0.7688209542     -0.0051155227      0.0024814580     -0.0026022911      0.0937784347
H       0.8010768623     -1.2386659551      1.5045272688      0.0066798738      0.0026099479     -0.0022706859      0.1145980747
H       1.1779710448      0.4991429352      1.5651896804      0.0021995628     -0.0015034029      0.0025293247      0.1318535191
H       0.5560550602      0.8022341961     -1.6696292693     -0.0048505749      0.0022346183     -0.0015078178      0.2044549894
H      -1.0817137622      1.3315725762     -1.2048564910      0.0063306212      0.0012401639      0.0093594803      0.1498327527
H       2.0947616993     -1.4380501829     -0.6610669540      0.0014353126      0.0082157062     -0.0055686952      0.1451561770
H       2.4947551768      0.2490341908     -0.6034162845     -0.0029629210      0.0006189938      0.0032538495      0.1409859956
H      -0.1057828233      2.6800525613      0.7699417180      0.0076878540      0.0031489960     -0.0041517284      0.0245987515
H       1.5277009216      2.2494656231      0.1735423866     -0.0077277387      0.0018809977     -0.0008384089      0.0567739400
H       0.4320635920      3.1976413695     -0.8388855982      0.0053123240      0.0047654322      0.0023009390      0.0775207069
H       3.7042188424     -0.0711816271      1.6132194517     -0.0065977869     -0.0031908141     -0.0013350281      0.0274369243
H       3.2784131337     -1.8018475464      1.5841994070     -0.0021563133      0.0041647719     -0.0088246735      0.0259730269
H       4.3544018873     -1.1287863376      0.3388790250      0.0133763311      0.0021707860     -0.0019437246      0.0583422744
Cl      1.3262603919     -0.5185411177     -3.2455753111      0.0053899455     -0.0064528980     -0.0218859378     -0.7366378229
