30
Properties=species:S:1:pos:R:3:forces:R:3:charge:R:1 energy=-171.68154640468418 homo_lumo=2.901877573314355 dipole="-1.7400479222908771 -1.0788449932310424 1.0817667728579679" free_energy=-171.68154640468418
N       0.5512002415     -1.2377665288     -0.1024760399     -0.0005422443     -0.0048287742     -0.0092189073     -0.5036136730
N      -0.6953379780      0.1697866819     -1.1880943855     -0.0035017984     -0.0046351195     -0.0084737641     -0.5363017786
C       1.5856375515     -2.2539605193      0.1644499414      0.0053050791     -0.0054347941      0.0011146108     -0.0066099074
C       2.3515585178     -1.9642818189      1.4496064245      0.0079543857      0.0103727956     -0.0067334101     -0.2554419517
C       0.2685784783     -0.7499465633     -1.3167893526      0.0002589825     -0.0055338077     -0.0114254316      0.6004283777
C      -0.2377899739     -0.5975126443      0.8282023768     -0.0137859255      0.0014906556      0.0032045557      0.1996857923
C      -1.0126394958      0.2953242411      0.1468033638     -0.0107004989     -0.0048645246      0.0073922504      0.2306625352
C       3.0865519882     -0.6266918851      1.4184735495     -0.0083159637     -0.0051739435     -0.0089603250     -0.0866080324
C      -1.1480981091      1.0550531800     -2.2559259592      0.0050887154      0.0069435301     -0.0075042689      0.0869296559
H       2.2674477857     -2.2085426252     -0.6978592757      0.0015526666      0.0096426257     -0.0056996778      0.1554017242
H       1.0867083475     -3.2362191078      0.1990004277      0.0120641077     -0.0015033470      0.0103546454      0.1063193284
H       1.6728067028     -2.0343074489      2.3192450003     -0.0068911327      0.0030894987     -0.0004984595      0.0819596445
H       3.0679066252     -2.7952097007      1.5711024025      0.0038241471     -0.0071974082     -0.0010350046      0.1105366444
H       0.7882259580     -0.9953307539     -2.2360902266     -0.0075075656     -0.0083060786     -0.0052418864      0.1171542648
H      -0.1767310769     -0.8158249040      1.8855905607     -0.0038408784     -0.0018764524     -0.0008860422      0.0565999589
H      -1.7451638705      1.0121073831      0.4958941091     -0.0069221636     -0.0080342352      0.0027242147      0.0396011564
H       2.4003306021      0.2177994869      1.2546854669     -0.0067962335      0.0050763672      0.0069022020      0.0925062256
H       3.7995504921     -0.6000773145      0.5818968759      0.0074209034      0.0048608052      0.0009004700      0.0882778301
H       3.6271683722     -0.4601989979      2.3613819924      0.0007812958     -0.0107806698      0.0128014789      0.0310684214
H      -0.9720826603      0.5646421814     -3.2181543914      0.0095560334      0.0101442684     -0.0118189364      0.0818947298
H      -2.2181207443      1.2529454629     -2.1191357924      0.0059435106      0.0120733124      0.0035774129      0.0656222075
H      -0.5488483860      1.9741557013     -2.2175431794      0.0070137420      0.0040038726      0.0065598541      0.1076701469
S       2.5829849204      1.0564742864     -2.1621521693     -0.0057675859     -0.0033292942      0.0088488314      1.7426890905
O       1.7780196059      1.1033423994     -3.4001420042     -0.0019732148     -0.0029536697      0.0208830293     -0.7994112648
O       3.1890523560     -0.2663264101     -1.8823239574     -0.0056440048      0.0082900037      0.0058096621     -0.8114512573
O       1.9493175175      1.7050993474     -0.9949955377      0.0105752382     -0.0028543568      0.0004401180     -0.7964432471
C       4.0681306242      2.1383354464     -2.5270841177     -0.0115791059     -0.0075844378     -0.0011620465      1.1292551523
F       3.6823852125      3.3991186994     -2.8565438897      0.0012512432      0.0060407701     -0.0034181354     -0.4431565349
F       4.7947221051      1.6376232359     -3.5583892765      0.0032143259     -0.0051554576     -0.0093271533     -0.4407797806
F       4.8806086035      2.2180372065     -1.4390552946      0.0119639397      0.0080178655     -0.0001098865     -0.4444454593
