30
Properties=species:S:1:pos:R:3:forces:R:3:charge:R:1 energy=-171.7108286067588 homo_lumo=3.0661419216611483 dipole="-0.23655706935849907 -1.9523467282735048 1.7277959289066935" free_energy=-171.7108286067588
N      -0.0581202066     -0.4257376637     -0.6011140120      0.0007509787      0.0032201979     -0.0069966137     -0.5150718194
N      -2.1178479826      0.2186930634     -0.3808466865      0.0011596082      0.0027728115     -0.0045073803     -0.5513110797
C       1.2418720405     -0.7332330534     -1.2272421263     -0.0005113013      0.0084821545      0.0022290070     -0.0094716889
C       2.4097948676     -0.1431841903     -0.4437340596     -0.0033347683      0.0027472983     -0.0042222489     -0.2460667047
C      -1.1349741632      0.0104044727     -1.2680134087      0.0072076322      0.0071609337      0.0092126854      0.6127277930
C      -0.3567378072     -0.4872180302      0.7441739857     -0.0033882117     -0.0067652477     -0.0036700542      0.1947246905
C      -1.6522545386     -0.0801785635      0.8827896580      0.0020781842     -0.0105957404     -0.0054093677      0.2221422108
C       2.3360162011      1.3734368637     -0.2960492483      0.0004710070     -0.0143459646      0.0033563878     -0.0952380966
C      -3.4334746428      0.7590743269     -0.7215379465      0.0081175418     -0.0002363994      0.0025294899      0.0804475657
H       1.1920679669     -0.2888687870     -2.2317338023      0.0057490829      0.0121917673      0.0041968453      0.1608870222
H       1.3218741061     -1.8294392698     -1.3059538282     -0.0022326346     -0.0000378113     -0.0023207479      0.1068982753
H       2.4919421063     -0.6363379843      0.5419670233      0.0004551436     -0.0098732638      0.0003471173      0.0822102178
H       3.3206050211     -0.4309059588     -0.9966026208      0.0049752011     -0.0051989896      0.0020347843      0.1112194192
H      -1.1822382071      0.2646841591     -2.3232407673      0.0059228845      0.0205979076      0.0038654387      0.1512001455
H       0.3737658517     -0.7847570079      1.4848272811     -0.0091072882     -0.0233983520     -0.0051074603      0.0546178256
H      -2.2690401733      0.0393877362      1.7648001264     -0.0025292252     -0.0164662936     -0.0057001659      0.0406286776
H       1.4407172522      1.6813940734      0.2637621925      0.0125517580     -0.0040525128      0.0073887603      0.0766865524
H       2.2777545063      1.8579092956     -1.2811345167     -0.0023969261     -0.0038935807      0.0095119830      0.0992110846
H       3.2179107016      1.7528770605      0.2396655796      0.0107057722     -0.0125886916      0.0080612965      0.0325776793
H      -3.2907369719      1.4835790236     -1.5360288485     -0.0009349497     -0.0034157569     -0.0067542075      0.1418872149
H      -4.0985904401     -0.0569578352     -1.0336741714      0.0011837024     -0.0012242954      0.0110074619      0.0613792100
H      -3.8401369066      1.2592415378      0.1641123142      0.0079591374      0.0104317370     -0.0059373541      0.0529134933
S      -0.5904306701      2.8288106194     -3.0673247189     -0.0092504325     -0.0022105510     -0.0106504276      1.7601906987
O      -0.3502325730      3.8926804177     -4.0347258414     -0.0131045451      0.0014402686      0.0097040979     -0.7433872002
O       0.4675536500      1.7971829456     -2.9382567912     -0.0064964936      0.0205018314      0.0069971360     -0.8206637503
O      -1.9584893285      2.2516141751     -3.0324308178      0.0060689343      0.0105589748      0.0104151217     -0.8194267924
C      -0.5014309093      3.7182833329     -1.4048073993     -0.0047880956      0.0134102330     -0.0012993233      1.1238298902
F      -1.3978075702      4.7346651493     -1.3368580865     -0.0068653436     -0.0034098006     -0.0093112345     -0.4414168041
F       0.7336658314      4.2288299742     -1.1675024575     -0.0084074381      0.0019204539     -0.0132878068     -0.4472073010
F      -0.7893150873      2.8642068098     -0.3590142713     -0.0020089149      0.0022766821     -0.0056832202     -0.4771184295
