30
Properties=species:S:1:pos:R:3:forces:R:3:charge:R:1 energy=-171.6362382975826 homo_lumo=3.0695880647365827 dipole="-2.267149453096457 -1.128089009721965 0.770195140303185" free_energy=-171.6362382975826
N       1.2201945116     -0.9667783150      0.3141657155     -0.0044331577      0.0105775279     -0.0024219706     -0.5093777575
N      -0.0030792855      0.5339871499     -0.6626615516     -0.0036996326     -0.0034118091      0.0034453466     -0.5457101388
C       2.2948470892     -1.5670644560      1.1179556704      0.0125621257      0.0025645533     -0.0077150946     -0.0352982566
C       1.9370987157     -1.6639301319      2.5986798298      0.0016967832     -0.0129868165      0.0063664422     -0.2085902246
C       1.0481548526      0.3509904650      0.1481513780      0.0076235125      0.0120005210      0.0015514115      0.6011466069
C       0.2686688981     -1.6415729472     -0.4219041659     -0.0036251407      0.0102575134      0.0189498488      0.2051225699
C      -0.4985253703     -0.6974836943     -1.0414384194     -0.0073561342      0.0088565978      0.0164693549      0.2153251485
C       1.7825190976     -0.3061418548      3.2796236243     -0.0072960757      0.0085566193      0.0071090607     -0.1043655193
C      -0.4201156411      1.8301161250     -1.1901942960      0.0074772253      0.0096630828     -0.0092712945      0.0998786888
H       3.1765450032     -0.9258025214      0.9579069726      0.0050568281      0.0038921698      0.0022390079      0.1995302871
H       2.4957290947     -2.5548396916      0.6794679943     -0.0081297727      0.0031120720      0.0086072758      0.1016174765
H       1.0231019469     -2.2714780184      2.7265137627     -0.0024087984      0.0138825939     -0.0144038150      0.0877906181
H       2.7585858324     -2.2259071236      3.0762544523     -0.0094416827      0.0096874822     -0.0014978013      0.1055308798
H       1.7274320968      1.1103926153      0.5252074213      0.0184827854      0.0028999298     -0.0165075552      0.1575492725
H       0.2327666656     -2.7230258577     -0.4591723313     -0.0162537798      0.0069225026      0.0179675664      0.0407321655
H      -1.3364290095     -0.7913618309     -1.7206707047     -0.0016972524     -0.0080196535      0.0063731469      0.0404271861
H       0.9116372414      0.2474634503      2.8951988635     -0.0095761938     -0.0124135736     -0.0138469908      0.0552452640
H       2.6782697406      0.3155584083      3.1229983352     -0.0036326705      0.0015574219     -0.0108267959      0.0678420738
H       1.6351317187     -0.4295570187      4.3630498679     -0.0077968869     -0.0036033098     -0.0123291422      0.0580703448
H       0.3271344191      2.1594956821     -1.9243330733      0.0123186028      0.0037681462     -0.0010953586      0.1151808984
H      -1.4117771331      1.7171965456     -1.6417987099      0.0035782936      0.0075773267     -0.0096620011      0.0562085961
H      -0.4730716849      2.5538918748     -0.3683777267      0.0002757437     -0.0002837332     -0.0045497927      0.0633163476
S       3.9251184992      1.4951306145     -1.1030779222      0.0051697400     -0.0270217284     -0.0040344597      1.7555150867
O       2.6083461060      1.8820298954     -1.6611582999     -0.0094267649     -0.0112273931      0.0154314198     -0.8160826615
O       3.8449550674      1.0322086814      0.3092254031      0.0004308820     -0.0124011679      0.0151558356     -0.8236828216
O       5.0542472985      2.3575966866     -1.4313227185      0.0078878945     -0.0253721870     -0.0062998396     -0.7445171900
C       4.2869257147     -0.1030648133     -2.0303945916     -0.0039409632      0.0060379823      0.0083634331      1.1171223106
F       4.3328999093      0.0954505242     -3.3704193111      0.0145807181      0.0131789282     -0.0028693884     -0.4407401415
F       3.3070720049     -1.0435846703     -1.7954973396     -0.0022614185     -0.0052753386     -0.0124219508     -0.4714750090
F       5.4664805490     -0.6518278947     -1.6421348713      0.0038351897     -0.0129762605      0.0017241006     -0.4433121010
