30
Properties=species:S:1:pos:R:3:forces:R:3:charge:R:1 energy=-171.4551272810702 homo_lumo=3.1879513803160275 dipole="-2.1527475118461954 -1.106191691138482 0.683265361968864" free_energy=-171.4551272810702
N       1.2402419323     -0.9414895205      0.3085586638      0.4034774144     -0.2702150902      0.2001555855     -0.5091510783
N       0.0329431410      0.5468273534     -0.6670143907     -0.3604932820      0.4182450441     -0.1182843999     -0.5386692094
C       2.3075285746     -1.5619589599      1.0878727125     -0.1256615036     -0.1763824168      0.6016581436     -0.0292680140
C       1.9281532771     -1.6668117571      2.5659763338      0.0669328813      0.4230287967     -0.1957923248     -0.1973765811
C       1.0653096694      0.3679626153      0.1538823487      0.0641850069      0.2847912284      0.1699545308      0.6158894297
C       0.3049922073     -1.6117878021     -0.4310801826     -0.1730716551     -0.2233438250     -0.1630320128      0.2107031364
C      -0.4536709455     -0.6714790741     -1.0541571948     -0.1884316153     -0.2308253803     -0.1121507352      0.2244442237
C       1.7999016248     -0.2991802517      3.2327813556      0.0050213421     -0.4113675012     -0.1256056111     -0.0839647887
C      -0.3688473924      1.8371916306     -1.2023052350      0.0802895064      0.0126876015     -0.0947528584      0.1148882100
H       3.2035483478     -0.9484419684      0.9585805794      0.1297283805      0.1620324171     -0.1130057550      0.1936902730
H       2.4849007063     -2.5538242609      0.6665214180      0.0234560924     -0.1515902624     -0.1990907429      0.0947041522
H       0.9906779225     -2.2231106957      2.6662724618     -0.2125635882     -0.2318459911      0.0546628133      0.0838942798
H       2.7165410806     -2.2397777388      3.0618573652      0.1903077645     -0.2148591885      0.1037859486      0.0959455791
H       1.6755562683      1.1417371791      0.5875601830      0.2421514475      0.0846949168      0.0416976691      0.1407129461
H       0.2637097881     -2.6863077403     -0.4647307556      0.0099629801     -0.2402963768     -0.0079518038      0.0309463413
H      -1.2848803622     -0.7688605857     -1.7302264945     -0.1755272815     -0.0130358363     -0.1643629741      0.0302433527
H       0.9477282868      0.2489585562      2.8284227515     -0.2447734930      0.2078159418     -0.0243795255      0.0506270331
H       2.7031774376      0.2890684450      3.0704087767      0.2777458901      0.2348729251     -0.0315921938      0.0614637045
H       1.6500230576     -0.4240069398      4.3047888728     -0.0934730854      0.0581520719      0.3332639003      0.0492292525
H       0.3817672275      2.1477484047     -1.9319401919      0.1718901718      0.0729821240     -0.0957813747      0.1092279420
H      -1.3442223716      1.7414257489     -1.6746673833     -0.2715891489     -0.0564727857     -0.0111342191      0.0491323490
H      -0.4096056742      2.5643319886     -0.3928855849     -0.0550711166      0.1743356054      0.1625057783      0.0557353496
S       3.8666447007      1.4439167628     -1.0611894293      0.0772219861     -0.1160559278     -0.3009186824      1.7806675279
O       2.5409687512      1.7913894916     -1.5651869579     -1.1204692532      0.2554459180     -0.5801006342     -0.8288266055
O       3.8429665789      0.9895592371      0.3275677094      0.0050987848     -0.5083693873      1.3743288164     -0.8323491162
O       4.9211570043      2.3570574135     -1.3989092614      1.2147833874      0.8458914213     -0.4742577048     -0.7558527813
C       4.2451191423     -0.1235135738     -1.9825807943     -0.3856197181      0.8278212662      0.6077344859      1.1458231917
F       4.2327964757      0.0477150492     -3.2969230162      0.0195237737      0.2578354785     -1.3878636908     -0.4429533325
F       3.2997239644     -1.0375363986     -1.6846314443     -0.8812267432     -0.9875102161      0.1596645419     -0.4749664334
F       5.4160135276     -0.6387147300     -1.6327799579      1.3061946741     -0.4884625713      0.3906450293     -0.4445903342
