34
Properties=species:S:1:pos:R:3:forces:R:3:charge:R:1 energy=-199.77549808148314 homo_lumo=1.813975237266786 dipole="-2.8152541714598027 -0.07772139358949592 0.40278904245905023" free_energy=-199.77549808148314
N       2.4683234301      0.1561896387      0.0179470458     -0.0031992190     -0.0007884649      0.0106786818     -0.5260307094
C       0.0014655288      0.1177480694      0.0866449839      0.0055522070      0.0007572280      0.0038824258     -0.1872080490
C      -1.3021053607      0.1480611709     -0.7066823960      0.0011886186      0.0013867343      0.0117334688     -0.1750304938
C       1.2426271854      0.2201221298     -0.7933462581     -0.0003773063      0.0014182355     -0.0021940405      0.0011252197
C      -2.5190307283      0.0489994028      0.2134599504      0.0000704213      0.0016127105      0.0049301093     -0.2058983308
C      -3.8486581091      0.0669573686     -0.5339531523     -0.0015915919      0.0009928136      0.0063752545     -0.0675722352
C       3.0087904627     -1.0520403624      0.3328928359     -0.0060538782     -0.0032979516      0.0098584180      0.2554338180
C       2.9711826709      1.2926877851      0.5811293984     -0.0025046588      0.0032830205      0.0113380801      0.2461924658
C       4.0606087690     -1.1539366153      1.2036993768     -0.0094750193      0.0121498298     -0.0022510695     -0.0181833761
C       4.0241328338      1.2430794482      1.4526217409     -0.0123318541     -0.0089618708     -0.0058183813     -0.0025666229
C       4.6375732904      0.0077287461      1.7503785371     -0.0060143918      0.0011497971     -0.0114352992      0.0348993880
H       0.0576847979     -0.8164091327      0.6741680385      0.0135247624      0.0017098637      0.0007369044      0.1138490560
H       0.0122765546      0.9470341828      0.8171866279      0.0138014905      0.0008677784      0.0015548436      0.1120668392
H      -1.3179802871     -0.6869010117     -1.4321046897      0.0023843621      0.0017034168      0.0090654490      0.0910620240
H      -1.3602699780      1.0802036544     -1.2989866690      0.0024021858      0.0001680421      0.0086974869      0.0910621204
H       1.2852876897     -0.5998074373     -1.5267037857      0.0128265403     -0.0000094160      0.0058115509      0.1147623633
H       1.2619739681      1.1654541329     -1.3569242448      0.0124698463     -0.0008457474      0.0035692505      0.1138418624
H      -2.4878046645      0.8849479306      0.9357903563     -0.0038401997      0.0012720768      0.0078436511      0.0908182732
H      -2.4405488321     -0.8784462211      0.8093142627     -0.0041467694      0.0028143895      0.0091171303      0.0911984563
H      -3.9659029316      0.9959675234     -1.1141075394      0.0105762634      0.0059275578     -0.0059251261      0.0371931226
H      -4.6953913624     -0.0020650571      0.1660944748      0.0007911693      0.0042048495     -0.0139954497      0.0450503124
H      -3.9218451973     -0.7798351554     -1.2347118709      0.0109922800     -0.0012095637     -0.0051750256      0.0372984854
H       2.5589887095     -1.9165355337     -0.1525308904     -0.0158190003      0.0061869397      0.0117255710      0.0814559009
H       2.4877520299      2.2226025316      0.2874970050     -0.0139662441     -0.0056514697      0.0095599757      0.0807087544
H       4.4774802652     -2.1360836366      1.4206079373      0.0001929522     -0.0047250000      0.0002365621      0.0569561686
H       4.4153654800      2.1680972343      1.8739479364      0.0027075572      0.0078537854     -0.0040571702      0.0574834017
H       5.3557308577     -0.0665886281      2.5615066483      0.0082939842      0.0032020650     -0.0126238775      0.0826658630
C       7.1480925526      0.2247646162     -0.2958137238     -0.0159451621     -0.0056972531     -0.0073519975      0.9240888151
O       8.3016475502      0.4607389395     -0.6592730081      0.0071163222      0.0140315545     -0.0217493105     -0.6952588559
O       6.6459022670      0.3504703232      0.8744179182      0.0116838541     -0.0103578761     -0.0185683408     -0.7500122471
C       6.1724804919     -0.3083894648     -1.3985482417     -0.0044094215     -0.0096916934     -0.0076323534      1.2619450737
F       5.7682787049     -1.5999332405     -1.1352325124      0.0031291754     -0.0112418715     -0.0045085842     -0.4706387430
F       6.7235059843     -0.3157452471     -2.6346094373     -0.0147537248     -0.0049591828     -0.0128467704     -0.4449165058
F       5.0189872994      0.4466478974     -1.4898425400     -0.0052755507     -0.0052553274      0.0094179823     -0.4778416152
