34
Properties=species:S:1:pos:R:3:forces:R:3:charge:R:1 energy=-199.3675985497294 homo_lumo=3.7460341518491775 dipole="-1.5081104113607835 -0.2289017211484525 0.16932001479511333" free_energy=-199.3675985497294
N       2.3880736889      0.5241575037     -0.3053236674      0.0271176811     -0.0497531275     -0.2878230673     -0.5596523018
C      -0.0112553997      0.2023304829      0.1079567706     -0.1748123014     -0.2644372775     -0.8506023529     -0.1761512349
C      -1.3443487546     -0.2101520914     -0.5220341211      0.1469590648      0.2564344586      0.8281143132     -0.1655572160
C       1.1297214221      0.1151378031     -0.9134730766     -0.1510364198      0.1973162271      0.7902139915      0.0223113717
C      -2.4888375114     -0.1250581322      0.4930729149     -0.1118308257     -0.2078637955     -0.6895164483     -0.1959835873
C      -3.8199134785     -0.5373073316     -0.1329955357      0.3103785971      0.1481029277      0.3412758249     -0.0449701605
C       3.1469581481     -0.3862848696      0.3926030865     -0.2760152527      0.2072157906     -0.1494229967      0.2429533319
C       2.7310675706      1.8557370233     -0.2545259612     -0.2114746406     -0.3469901566     -0.0422898954      0.2380186674
C       4.2321248872     -0.0336074156      1.0927395520      0.2406099239      0.6234472484      0.4271960746     -0.1112078246
C       3.7981416110      2.2974602268      0.4210822006      0.5506224323     -0.1445564164      0.5611458659     -0.0891385773
C       4.7120616278      1.3781654027      1.1681067546     -1.3006795236     -0.4213247947     -0.3108690493      0.0799896668
H       0.2174425666     -0.4503175271      0.9564350555      0.0881613879     -0.1283777194      0.2579365134      0.1023685059
H      -0.0782447462      1.2284316039      0.4832764703      0.0140984862      0.2689680784      0.1395461200      0.1028316282
H      -1.2661774997     -1.2354942762     -0.9000028430     -0.0109990720     -0.2711245262     -0.1486531041      0.0829154028
H      -1.5617739920      0.4434982377     -1.3739424672     -0.0854079936      0.1437287388     -0.2665921659      0.0828457876
H       1.2362404006     -0.9110229906     -1.2780905847      0.0562256490     -0.1762689990     -0.1535673896      0.0925166795
H       0.9270696904      0.7680024988     -1.7678852600      0.0021707475      0.0892807316     -0.2308826130      0.0919900989
H      -2.5650175189      0.9007106354      0.8693763728      0.0291035575      0.2520593068      0.1533705899      0.0831147242
H      -2.2685674663     -0.7779548876      1.3444226051      0.0946918543     -0.1068931833      0.2561054396      0.0831693784
H      -4.0665880069      0.1155509197     -0.9714461855     -0.1183007949      0.1744846955     -0.2675390248      0.0285190435
H      -4.6175504332     -0.4690285629      0.6069158863     -0.3452945219     -0.0150715527      0.1458784492      0.0330401741
H      -3.7696584482     -1.5647090623     -0.4962945402     -0.0308836854     -0.3056230594     -0.1284614018      0.0285903393
H       2.8077474286     -1.4151339882      0.3466026499     -0.0738963729     -0.1753374264     -0.0661019573      0.0563759284
H       2.0761470517      2.5307643763     -0.7941494559     -0.1275571827      0.0903309525     -0.1317353815      0.0566022902
H       4.8083891140     -0.7835788938      1.6181490739      0.0776940516     -0.2407087362      0.1677623102      0.0536105041
H       4.0435487111      3.3511588955      0.4291331648     -0.0228308963      0.3208694598      0.0125468072      0.0504335326
H       4.8358181792      1.7017772916      2.2140901239      0.2532741092      0.0318510113     -0.0275844294      0.1445962630
C       6.7413696265      1.2001318212     -0.3923130418     -1.2157409758     -1.1007143064     -1.1396522242      0.9144194549
O       6.1139376343      1.5460004958      0.6970368511      0.6295277054      0.7762878387      1.2412370893     -0.6631286664
O       7.8596228354      1.5383066187     -0.6431727322      1.3288288415      0.4644040038     -0.1607433538     -0.6367438981
C       6.0124690765      0.2514912616     -1.4252330362      0.4130324099      0.6063977195      0.5624520923      1.3195421825
F       6.7563112426      0.1336399558     -2.5192045629      0.6855767015     -0.0526534811     -0.8651521043     -0.4417911024
F       4.8146230540      0.7145174887     -1.8027091871     -0.7890093505      0.4028416558     -0.3688114684     -0.4548151880
F       5.8363204731     -0.9777872458     -0.9223039259      0.0976966094     -1.0463222865      0.4012189465     -0.4516151986
