27
Properties=species:S:1:pos:R:3:forces:R:3:charge:R:1 energy=-156.7174572466323 homo_lumo=2.2261952181487072 dipole="-2.812134644197664 -1.1510478364182324 0.6632654244096893" free_energy=-156.7174572466323
N       1.4492834041     -0.5928141155     -0.0285883447     -0.0030054837      0.0022402974     -0.0047126456     -0.5075963129
C       2.5521389211     -1.4487335025      0.4885739722      0.0039502406     -0.0073588854      0.0034542195     -0.0895652343
C       1.6040569343      0.7478951906      0.0034569638      0.0057046362      0.0011731830      0.0002556876      0.2826093242
C       0.3537028673     -1.1580169447     -0.5808508034     -0.0028783501      0.0013010422      0.0007123696      0.2889732159
C       2.6992662747     -1.3348500115      1.9941332686     -0.0035072940     -0.0025629097      0.0029755792     -0.0943443785
C       0.6217195622      1.5728442917     -0.5197152821      0.0066590931     -0.0024348444      0.0047769704     -0.0097645602
C      -0.6474503689     -0.3754026306     -1.1192986144      0.0047400332     -0.0001573626      0.0065007302     -0.0341998965
C      -0.5133828478      1.0125873186     -1.0906993973      0.0056246415      0.0010224700      0.0058915600      0.0411065917
H       2.3168873476     -2.4758620134      0.1775663676      0.0009785122     -0.0045534227     -0.0041827594      0.1007596174
H       3.4610062094     -1.1225635983     -0.0366460825      0.0033434228     -0.0032053864      0.0016827479      0.2244134446
H       2.5401539890      1.1149652024      0.4275956309      0.0091011410     -0.0052171946     -0.0058790756      0.1929603962
H       0.3233343086     -2.2457213867     -0.5838399844      0.0007207566      0.0058319110      0.0073116444      0.0944402573
H       2.9755241405     -0.3126417520      2.2868995910     -0.0021147171     -0.0056696311     -0.0014423299      0.0873734640
H       3.5224464855     -1.9928006461      2.3089056230     -0.0109706063     -0.0006356006      0.0055763749      0.0737646897
H       1.7799084279     -1.6404215454      2.5153142347     -0.0062909679      0.0004858473     -0.0067060057      0.0476865099
H       0.7871114992      2.6496547682     -0.5050566984      0.0078291923     -0.0023191957      0.0018561510      0.0694149988
H      -1.5163994198     -0.8569367422     -1.5679805472      0.0028630332      0.0059898592      0.0090554522      0.0602906634
H      -1.2863683750      1.6479264625     -1.5255797825     -0.0013146524      0.0086451834      0.0026953264      0.0635535808
N       5.6196725374      1.5748460496     -1.4293645973      0.0059065630      0.0071790350     -0.0049729632     -0.8394960754
S       4.2232997684      1.6191650393     -2.2037757820      0.0071642567     -0.0078356348     -0.0050598626      1.9273885828
S       5.7250833846      0.9156252539      0.0224303815     -0.0080151201      0.0140390251     -0.0048760091      1.9325016619
F       3.3733458806      2.8090199640     -1.3747475800      0.0057547225      0.0115019629     -0.0010751410     -0.4840518480
F       5.6691982492     -0.7270010775     -0.3007659973     -0.0106542509     -0.0054744919     -0.0153611518     -0.4783609478
O       4.4257115812      2.1824032481     -3.5165661417     -0.0098678880      0.0007043209     -0.0020324759     -0.6979853885
O       3.3589212955      0.4500832552     -2.0317497623      0.0047404963      0.0059581445      0.0080426177     -0.7673343868
O       4.5580835969      1.0951020211      0.8897267603     -0.0089061191      0.0007616281     -0.0111477756     -0.7880494284
O       7.0510934827      1.1308917028      0.5468136222     -0.0075552915     -0.0194093504      0.0066607645     -0.6964885414
