27
Properties=species:S:1:pos:R:3:forces:R:3:charge:R:1 energy=-156.46296241488693 homo_lumo=2.5169917086498077 dipole="-1.0914499351790117 1.013781459114069 -2.054465362588145" free_energy=-156.46296241488693
N       1.0014969453     -0.6671003394      0.1700947470      0.0480686277     -0.0297712411     -0.1610675545     -0.5077286702
C       2.0344863659     -0.2139825772     -0.7831437129      0.3175049467      0.3995206412     -0.0998318928     -0.0569567356
C       0.3146680447      0.2161370929      0.9133495644     -0.3371916089      0.1834946155      0.1996100755      0.2847011143
C       0.7997681472     -1.9865297213      0.3129608746     -0.2301908138     -0.3456722231     -0.0181333901      0.2819394580
C       2.8304532905      0.9807687277     -0.2771756310     -0.2716483490     -0.2621491429     -0.1036130663     -0.1126079388
C      -0.6155108009     -0.2133853085      1.8343057106     -0.0294447226     -0.0296188380     -0.1359556936      0.0049363998
C      -0.1152745006     -2.4661136983      1.2263868093     -0.1341090074      0.0445804188      0.0183147459     -0.0058638287
C      -0.8350049951     -1.5738116597      2.0078665127      0.0430009608      0.0800067617     -0.2798906378      0.0526882279
H       2.7052977837     -1.0613757333     -0.9409113565      0.0181285702     -0.1510143981      0.0756569424      0.1420028255
H       1.5285437831      0.0206220784     -1.7254908255     -0.1659962040      0.0105528302     -0.2090869521      0.1229636336
H       0.5313703159      1.2656897495      0.7671700790      0.1120357067      0.1096020948     -0.0439108420      0.1215274509
H       1.4081173308     -2.6475532504     -0.2918389791      0.1043194106     -0.0087280305     -0.0810785448      0.1068683737
H       2.2573481322      1.9047985272     -0.3408629531     -0.1114560292      0.3249412993     -0.0591878283      0.0259774922
H       3.7179456624      1.0829095301     -0.9002595236      0.2365453839      0.0897871978     -0.2073100716      0.0660157165
H       3.1426489229      0.8203089819      0.7533764591      0.1125263714     -0.0846744456      0.2800757190      0.1280457766
H      -1.1369297904      0.5167786572      2.4394125993     -0.1059476216      0.1989223561      0.1239100574      0.0522364180
H      -0.2286573978     -3.5353557168      1.3483666377      0.0121496901     -0.2443422963      0.0276662360      0.0738776488
H      -1.5306234395     -1.9299631699      2.7565783341     -0.1795857210     -0.1030171298      0.1585185234      0.0703637884
N       2.2089818700     -2.8756639071      3.0147382081      0.0828302010      0.0112426445      0.0090043235     -0.8826650626
S       3.1090550144     -1.7120262935      2.4414347296      0.2277052198     -0.3469280202     -0.1418614412      1.9960336423
S       1.5742337587     -2.6592288598      4.4647756324     -0.1189080191     -0.4338516930     -0.3254138658      1.9405454673
F       4.4974095975     -1.7707755549      3.2512466331      0.5234445047     -0.1014164908      0.4225641655     -0.4490641726
F       0.5073314478     -1.4323424590      4.2115333640     -0.3545796389      0.5546499971      0.1051991861     -0.4767368317
O       3.4637426500     -2.0811714630      1.0958187046      0.5251399047     -0.4724557178     -1.2101469824     -0.7828655405
O       2.6368514634     -0.3676322561      2.6355610552     -0.3923941235      1.1384731060      0.4765184743     -0.7588612433
O       2.4362028941     -2.1622113881      5.4800066069      1.1532234193      0.7688731974      1.0125694148     -0.7056303580
O       0.7330495142     -3.7793287509      4.7221908151     -1.0851710589     -1.3010074933      0.1668808995     -0.7317430517
