34
Properties=species:S:1:pos:R:3:forces:R:3:charge:R:1 energy=-191.19762266817364 homo_lumo=3.466785482817538 dipole="1.622051613188848 1.6951843000859539 0.5352949105658615" free_energy=-191.19762266817364
N       0.1955377213      0.7461239555     -1.2654238488      0.0565890941      0.2246330337     -0.1130585342     -0.4890769826
C      -1.7033952451      0.6980195686      0.3173883698     -0.2349666823      0.3734708189     -0.3479332781     -0.2301920812
C      -3.1822868667      1.0913864900      0.3521217146      0.3428515279     -0.4596682393      0.4377339097     -0.1608385225
C      -0.9524874316      1.5081827668     -0.7491775035     -0.2594544292     -0.1365753378      0.4277516649     -0.0027786966
C      -3.9583792007      0.1703197027      1.2990255907     -0.2745106224      0.4741327240     -0.3107051947     -0.2084624058
C      -5.4335430038      0.5594294489      1.3617409304      0.3907942512     -0.1765890268      0.1149236477     -0.0460194943
C       0.2483540540      0.4337697353     -2.5671651751      0.2402361761      0.0171860150     -0.3559667439      0.3111387802
C       1.1067672784      0.2657987741     -0.4024156063      0.3507275339     -0.1394600010      0.1157258674      0.2768452567
C       1.2365685768     -0.4011323580     -3.0517268335      0.1761563970      0.0179521631      0.0926526942      0.0100925294
C       2.1165793205     -0.5628045265     -0.8379697633     -0.0357201553      0.0432820624     -0.0324077286     -0.0088382200
C       2.1809515838     -0.9188374077     -2.1804364782     -0.1751335557      0.1967959824      0.0246449853      0.0565875827
H      -1.6281679807     -0.3623458406      0.0718311100      0.0288771051     -0.1845182021     -0.0506208500      0.2188668697
H      -1.2450970123      0.8563628694      1.2981354856      0.0854595597      0.0564831696      0.3059469564      0.0674671330
H      -3.5975572158      0.9977077004     -0.6562390039     -0.0917641251     -0.0546558308     -0.2637992714      0.1102932885
H      -3.2854304677      2.1354601091      0.6686865821     -0.1027437455      0.3106967741      0.0798426836      0.0658690486
H      -1.6095898709      1.7089732529     -1.5974702706     -0.0408264598      0.0137445932     -0.1369332538      0.1311400763
H      -0.5821168568      2.4560474483     -0.3478403328      0.1324078784      0.2471706491      0.0206124366      0.1036347397
H      -3.5220978915      0.2228680075      2.3026732779      0.1505530749     -0.0181337405      0.2603106423      0.0656809239
H      -3.8669227157     -0.8604829776      0.9436229757      0.1077158728     -0.2104825934     -0.0777568113      0.1347783942
H      -5.5492596076      1.5708442015      1.7552678809     -0.0984594405      0.3087427502      0.1110433870      0.0171618057
H      -5.9725894034     -0.1301319703      2.0115530878     -0.2710421322     -0.1530918561      0.1813127900      0.0307025705
H      -5.8809466424      0.5206686598      0.3677273818     -0.1756107833     -0.0163677776     -0.2902903160      0.0340030734
H      -0.5255502295      0.8368092488     -3.2068150975     -0.0967899041      0.0537999450      0.0004806203      0.1046382820
H       0.9975760732      0.5487761033      0.6369646394     -0.1042842260      0.0522070763      0.1285011578      0.1048451117
H       1.2268617844     -0.6729489545     -4.0987556102     -0.0200020736     -0.0162057350     -0.2271106867      0.0636996219
H       2.8309211691     -0.9481626308     -0.1218122074      0.1539518326     -0.0713129238      0.1909985465      0.0485273504
H       2.9461926271     -1.5991072941     -2.5331802137      0.1839188282     -0.1645520750     -0.0973777651      0.0525889376
P      -1.8908293692     -2.2123392916     -2.1741724726      0.1709157182      0.0171456105      0.0694213412      2.2276722846
F      -1.6187932513     -3.8055343673     -2.0103257097      0.0389323393     -0.2238121614      0.0161493336     -0.4928224996
F      -2.8942443471     -2.1969090833     -0.8719116087     -0.1144024926     -0.0330957832      0.0842985696     -0.5141434016
F      -0.6003069291     -1.8877396333     -1.1466663835     -0.0769013588     -0.1707170280      0.0137767932     -0.5345380073
F      -2.1227354237     -0.5422356305     -2.3274499520     -0.2045059825     -0.0651814370     -0.0735579977     -0.5371041645
F      -0.8329372013     -2.1305451366     -3.4528638743     -0.0367912310     -0.0961707862     -0.1407998037     -0.5192505886
F      -3.1352440836     -2.4667417289     -3.1860470741     -0.1961777894     -0.0168528324     -0.1578097918     -0.4921685959
