34
Properties=species:S:1:pos:R:3:forces:R:3:charge:R:1 energy=-191.31749995262345 homo_lumo=3.08005775374942 dipole="1.64627061009936 -2.2972357165782014 -0.5869717561583019" free_energy=-191.31749995262345
N       1.4005261278      0.2497272975     -0.5803568538      0.0036275605     -0.0038996520     -0.0064299637     -0.5040296322
C      -0.9432733913     -0.3051835508     -0.0081560157     -0.0145341244     -0.0076881173      0.0010438603     -0.2183319499
C      -2.3744466559     -0.2750516208     -0.5408272724      0.0107111774     -0.0213475919     -0.0010197698     -0.1764578600
C       0.0753955066     -0.1412526121     -1.1334221571     -0.0151185360      0.0010406878      0.0148101365     -0.0123396118
C      -3.3978984549     -0.2534187484      0.5944958369      0.0081273355      0.0028585011     -0.0025309044     -0.2136265405
C      -4.8309940357     -0.1546091483      0.0804233562     -0.0152095253      0.0057483425      0.0147414827     -0.0673448439
C       2.1169309141     -0.6641530746      0.1173861063     -0.0009448167      0.0007159520     -0.0059834994      0.2725659597
C       1.8037707737      1.5329440562     -0.6670515551      0.0040389369     -0.0026180454      0.0044176387      0.3071877117
C       3.2940247651     -0.3052582927      0.7372093685     -0.0037405168      0.0201305853     -0.0052578126     -0.0274919927
C       2.9788958599      1.9406661611     -0.0542554073     -0.0000313578     -0.0094309422      0.0050172253     -0.0030963769
C       3.7351184453      1.0189631693      0.6531161124     -0.0139094510     -0.0150050313     -0.0058441071      0.0386373596
H      -0.7545692710     -1.2453788821      0.5422755505      0.0006791147      0.0020420123      0.0036961005      0.0751959137
H      -0.8065992742      0.5329911962      0.6918634752      0.0006632268      0.0091706222      0.0078547827      0.2067722129
H      -2.5620924139     -1.1380454383     -1.2084544423     -0.0030553486      0.0116259355      0.0027639117      0.0677295862
H      -2.5001841856      0.6434674922     -1.1409409814      0.0011258519      0.0128605764     -0.0012291217      0.1232194009
H       0.2236320092     -1.0592344322     -1.7231702049      0.0015024212     -0.0116186744     -0.0038462987      0.1034980751
H      -0.2309582614      0.6714183445     -1.8034775218     -0.0015172589      0.0137090523     -0.0011520426      0.1470338207
H      -3.1747605663      0.6140630804      1.2395040492      0.0015607508      0.0020424602     -0.0018815187      0.1338887594
H      -3.2817882528     -1.1593433155      1.2174351698      0.0021303761     -0.0080829255      0.0028662272      0.0695553154
H      -4.9610499245      0.7551486620     -0.5274114339     -0.0007785368     -0.0017162324      0.0042124213      0.0444897478
H      -5.5500567740     -0.1068525944      0.9128144743      0.0097016305     -0.0065784023     -0.0082345871      0.0389792071
H      -5.0939496788     -1.0223621525     -0.5456084232     -0.0011115644     -0.0104419135     -0.0116313089      0.0236728131
H       1.6996625491     -1.6684033237      0.1594989181      0.0082114081      0.0056449924     -0.0087959121      0.0997513243
H       1.1406553900      2.2207180610     -1.1881285491      0.0050110934      0.0021091819      0.0048787804      0.1528360204
H       3.8530119602     -1.0569344722      1.2941169322      0.0032516271     -0.0009388707     -0.0041795454      0.0583430067
H       3.2441389175      2.9962524973     -0.1103605365      0.0026192392     -0.0071314054     -0.0043117484      0.0787852212
H       4.6543809668      1.3241240111      1.1556156807     -0.0046517624     -0.0013480235     -0.0052566558      0.0627216824
P      -0.6149700197      3.6740953405      0.6802183875      0.0015897445     -0.0031203740      0.0010861563      2.2083632196
F      -1.4500875292      4.9036549444      0.0084914540      0.0010166859      0.0129902833      0.0105014309     -0.4915076145
F      -0.3243506213      4.5285963822      2.0391026699      0.0027183860      0.0104422516      0.0005024325     -0.4925957973
F      -1.9851696776      3.0223211276      1.3160206721     -0.0051130284      0.0041616141     -0.0022488282     -0.5088255587
F       0.2626222148      2.3801006526      1.3154062230      0.0003709631     -0.0022931939     -0.0012008027     -0.5297043699
F      -0.8640943074      2.7548430976     -0.7215074025      0.0069127559     -0.0016323925     -0.0030545097     -0.5407862122
F       0.8027769500      4.2326018628     -0.0070270699      0.0041455422     -0.0024012627      0.0056963500     -0.5270879975
