34
Properties=species:S:1:pos:R:3:forces:R:3:charge:R:1 energy=-191.08375458846146 homo_lumo=3.5018743647889963 dipole="-0.2790002392770763 1.2905891556123512 -1.9357840886867657" free_energy=-191.08375458846146
N       2.5484383126     -0.0127318097     -0.9945557372     -0.0801487378      0.1923582803     -0.2704184096     -0.4853642818
C       0.4598300102     -0.6353278223      0.1581691378     -0.4835905716      0.3805156230     -0.5507058836     -0.2141352374
C      -1.0648605718     -0.5308391489      0.1170456087      0.4686315546     -0.2974340001      0.4404410341     -0.1552499759
C       1.0849198661      0.1066510074     -1.0280010810     -0.2989789017     -0.3512688291      0.5720429916     -0.0029302594
C      -1.6786458840     -1.2714242834      1.3103541688     -0.4152559639      0.3286630960     -0.4919744754     -0.1995669775
C      -3.2033768276     -1.1900019249      1.2912490943      0.4302343970     -0.0849805956      0.1247061092     -0.0435336775
C       3.1380708651     -1.0672554376     -1.5806344051      0.4087314097     -0.0403071310     -0.2403552747      0.2932418209
C       3.2667283377      0.8705764813     -0.2824758123      0.4407041977      0.1980777641     -0.0952747389      0.2933418506
C       4.5070475875     -1.2237512726     -1.5310322041     -0.0094010677      0.1245783398     -0.0561931982      0.0094688497
C       4.6390161952      0.7589784900     -0.2048270092     -0.0183085814     -0.0009064302     -0.1467199481      0.0107520480
C       5.2752310256     -0.3039802412     -0.8308754232     -0.2931016321      0.0933031967     -0.1108614378      0.0595177630
H       0.7635727690     -1.6835653161      0.1254228252      0.1247537915     -0.1847424198      0.1020583824      0.1561539408
H       0.8390222966     -0.2066008322      1.0881608289      0.1338964231     -0.0353773654      0.2082318259      0.1532204632
H      -1.4396417800     -0.9626098152     -0.8180085715     -0.1839170526     -0.0917532989     -0.2686253716      0.0691229055
H      -1.3642786347      0.5231800748      0.1426861910     -0.1641825208      0.2920243813     -0.0171380374      0.0690903780
H       0.7352891660     -0.3115712069     -1.9757527617     -0.0195766866     -0.0217110593     -0.2457051320      0.1014706718
H       0.8334928066      1.1702742058     -0.9965864856     -0.0024469897      0.2362767423     -0.0779519632      0.1012805591
H      -1.3000040538     -0.8346281282      2.2395871933      0.1831113940      0.0363662163      0.2370221831      0.0984458544
H      -1.3672766778     -2.3201775305      1.2830336628      0.1682073968     -0.2399875523      0.0550240654      0.0996750323
H      -3.5329602845     -0.1508472584      1.3377077351     -0.1572760024      0.3036581761      0.0108421055      0.0234252632
H      -3.6142579361     -1.7230941213      2.1485953147     -0.2459731644     -0.1403259151      0.2346580414      0.0359017702
H      -3.6003864454     -1.6395932376      0.3797413136     -0.1796462185     -0.1247622973     -0.2715345658      0.0232388178
H       2.4915793347     -1.7744470813     -2.0841839435     -0.1542216218     -0.0643799030     -0.0649762844      0.0939078399
H       2.7208683469      1.6603572408      0.2172133956     -0.1543220242      0.1036509883      0.0419992448      0.0945475522
H       4.9574604916     -2.0878794339     -2.0018542537      0.0701194813     -0.2083092646     -0.1020702145      0.0530052813
H       5.1952929415      1.4766205020      0.3838152113      0.0916953191      0.1682727192      0.1494407836      0.0532601386
H       6.3475356125     -0.4285755330     -0.7517111285      0.2558767988     -0.0311195912      0.0247896529      0.0558160906
P       3.3737545090     -2.0715778766      2.0545981354     -0.0650288263      0.1240116098     -0.1784620296      2.2286025512
F       1.8475643536     -2.3385339746      2.5895276481     -0.1709948673     -0.0439008440      0.0839403320     -0.5074549585
F       2.8487647830     -2.4155538403      0.4871479713      0.0111833431     -0.2843646497      0.1889363335     -0.5328233566
F       2.9605247049     -0.4553272646      1.7849459195      0.0178216297     -0.0699311872      0.3478013573     -0.5321502415
F       4.8742865443     -1.7429596628      1.4280665643      0.1503752285     -0.0798489784      0.1133800050     -0.5171781729
F       3.8834755947     -1.6835038432      3.5481221204      0.0779275923      0.0610176954      0.2284714274     -0.4931263419
F       3.7718521107     -3.6343272301      2.2568064683      0.0631014734     -0.2473635163      0.0251810900     -0.4929739615
