33
Properties=species:S:1:pos:R:3:forces:R:3:charge:R:1 energy=-187.5650992613248 homo_lumo=1.662289985979135 dipole="-0.836146703134818 -5.066758151759302 -0.07057325410390913" free_energy=-187.5650992613248
N       1.0079752519      0.3364315509      0.4667198038     -1.0343241589     -0.7765478982     -0.0872913434     -0.5115129297
N      -1.0122740350      0.3491173823     -0.4607878364      0.9371543154     -0.8296949023      0.0366098476     -0.5115013224
C       2.2568299451     -0.1435854380      1.0548463439      0.8788872618     -0.1096047329      0.3209337404     -0.0247046906
C      -2.2629061935     -0.1165065039     -1.0569980427     -0.8280948637     -0.0996925622     -0.3089378155     -0.0235661213
C      -0.0017900875     -0.4178373253     -0.0080063058      0.0028069004     -1.6428251969     -0.0279186358      0.5427441761
C       3.4334068650      0.0652487138      0.0953898910      0.0942032796     -0.0332150151     -0.2497544151     -0.2391382994
C      -3.4396928794      0.0819476141     -0.0954969284     -0.0896296849     -0.0649911508      0.2317256655     -0.2373259621
C       0.6243703034      1.6192906548      0.3101346167     -0.6036398903      1.6128607284     -0.2204465757      0.2375899851
C      -0.6301155370      1.6275905439     -0.2660610870      0.6492924303      1.5806749112      0.3152460502      0.2252890624
C       3.2749020426     -0.7509349099     -1.1866471267     -0.0003258410      0.0401127088     -0.1122326091     -0.1081260019
C      -3.2802007294     -0.7453438894      1.1793217320     -0.0049932618      0.0520093812      0.1269060783     -0.1086760178
H       2.1707318429     -1.2241236521      1.3056478640     -0.2663023186      0.3830598947     -0.1583187222      0.1146956454
H       2.4498695555      0.4037626440      2.0027435285     -0.3356300503     -0.0652899298     -0.2787686131      0.1440132926
H      -2.1813620234     -1.1936958279     -1.3235070862      0.2598164350      0.3874500551      0.1615420737      0.1173092265
H      -2.4527889950      0.4455151766     -1.9968415923      0.3309000560     -0.0858980497      0.2632954856      0.1412541762
H      -0.0017212483     -1.5009447132     -0.0226249108     -0.0034879599     -0.0080474341     -0.0058589807      0.0904499132
H       3.5285531158      1.1428402271     -0.1601322348      0.0248627376     -0.2211977162      0.1939805025      0.1459648751
H       4.3689911740     -0.2500493199      0.6055168823     -0.3065329932      0.1888004157      0.0557601404      0.1175745988
H      -3.5363036148      1.1570136994      0.1695957053     -0.0303843204     -0.2279128439     -0.1825077477      0.1326705741
H      -4.3748854241     -0.2299931914     -0.6084447141      0.2996818602      0.1919531911     -0.0507266952      0.1177886652
H       1.2083833989      2.4824537383      0.6002750811      0.1988558273      0.2985152210      0.0210808730      0.1283197618
H      -1.2162205226      2.4999345027     -0.5257617711     -0.0960821587      0.0979597005     -0.0405578734      0.0919357356
H       2.4114863948     -0.3801338717     -1.7782969837      0.2541233134     -0.1790840171      0.0658160932      0.0722684337
H       3.1191937238     -1.8242117930     -0.9461718029      0.0562097023      0.2297636804     -0.1535555904      0.0374985708
H       4.1915468086     -0.6555385690     -1.8053882138     -0.3497836038     -0.0749603290      0.0919589810      0.0783353131
H      -2.4162181644     -0.3798275268      1.7734750685     -0.2531186819     -0.1847638488     -0.0733496108      0.0746353683
H      -3.1249211913     -1.8165200353      0.9294465415     -0.0572240147      0.2383532088      0.1548095137      0.0413557522
H      -4.1962464632     -0.6549294181      1.7997061949      0.3460626192     -0.0816657116     -0.0932012401      0.0773002462
B       0.9278754973      5.8425164697      0.0934226163      0.0859190270      0.9205784872     -0.1000337800      1.2920119191
F       1.3165330987      6.8796703434      0.9825627367      0.0061376079     -0.1188437368      0.0672007153     -0.5511780462
F       2.0270870820      4.9700258055     -0.1241897947      0.3023102057     -0.6579028381     -0.0103847962     -0.5734564947
F       0.5208220848      6.4078981298     -1.1442109185     -0.0684392487     -0.1330656560     -0.1236602837     -0.5547116702
F      -0.1522293613      5.1139517638      0.6591674804     -0.3992305283     -0.6268880145      0.1706395675     -0.5771077349
