43
Properties=species:S:1:pos:R:3:forces:R:3:charge:R:1 energy=-239.25871191951506 homo_lumo=3.3841822687461387 dipole="-2.367045970246246 1.3351204879440537 1.719524392489106" free_energy=-239.25871191951506
N       0.2924707604     -0.3564092537      0.3920767533      0.1104407639      0.2206229003      0.0157311314     -0.5027466954
C      -0.2813214777      1.0216086380      0.5302842213     -0.5987849962      0.1815570493      0.0696489780     -0.0058543450
C       0.1410027021     -0.7951870305     -1.0397168421     -0.6898341419     -0.2969268080     -0.3873848560     -0.0431904232
C      -0.4014798359     -1.2940466780      1.3393834299      0.1457253342     -0.5683727565      0.0363662664     -0.0346519933
C       1.7736666363     -0.2970912592      0.6723355307      0.2017396644      0.1226732854      0.7873294043     -0.0759071899
C      -1.7294351294      1.1218342314      0.0616143381      0.3340098849     -0.0706876645     -0.3428381731     -0.1496845881
C      -1.2967621501     -0.7532326340     -1.5316515057      0.1881425048      0.5131658094      0.1981059136     -0.1599347391
C      -1.8751241799      0.6529316134     -1.3851896552     -0.0435786445     -0.3149969387      0.3652226052     -0.1526757600
C       0.1849297651     -2.7047893078      1.4019062839     -0.4642885466      0.3026697641      0.2068239614     -0.2777887608
C       2.1623769979      0.1706794875      2.0706904491      0.0496285768     -0.1155464284     -0.3547641228     -0.2453114124
C      -0.6945845715     -3.5736023469      2.2996986997      0.2417896138      0.2743191903     -0.2481785338     -0.0453536435
C       3.6776856400      0.0259706723      2.2249300469     -0.4182409529      0.0461264360      0.0281210073     -0.0439087497
H      -0.2070919531      1.3128298252      1.5798639823      0.1211059114      0.0359842775      0.2084748143      0.1330234214
H       0.3498045743      1.6850396210     -0.0672852293      0.2120089711      0.1016614549     -0.1395565916      0.1300749340
H       0.7608508064     -0.1249338752     -1.6381087347      0.2670874481      0.0392618402     -0.0676276650      0.1510251092
H       0.5603038413     -1.7961187345     -1.1275029694      0.2541336469      0.0006051166     -0.0496821180      0.2301745150
H      -0.3697184588     -0.8318423295      2.3295785369     -0.0070974128      0.1725510104      0.1795845309      0.1239003903
H      -1.4473501712     -1.3523136154      1.0323885489     -0.1638896793      0.0387009764     -0.0529849575      0.1691446143
H       2.1647195834     -1.2962884383      0.4874907632      0.0900021955     -0.0225164751     -0.2261085171      0.2715935820
H       2.2075623231      0.3660757953     -0.0779941639      0.0793196685     -0.0093225560     -0.2645687733      0.1479003713
H      -2.3849854045      0.5395981694      0.7150705906     -0.1989110013     -0.0805517763      0.2020511714      0.0900003339
H      -2.0265505570      2.1707322613      0.1456588398     -0.1019173298      0.2703249085      0.1353313142      0.1009862679
H      -1.2846916178     -1.0403142379     -2.5859675278      0.0354184909     -0.1977263389     -0.2475704164      0.1085787813
H      -1.9200230902     -1.4771119439     -0.9994651965     -0.1976051358     -0.2463001446      0.0674257009      0.0837310321
H      -2.9301851138      0.6572229727     -1.6685164316     -0.2790147278      0.0914114835     -0.1526108096      0.0790684688
H      -1.3401562400      1.3402603312     -2.0479510352      0.1325427385      0.1928035323     -0.2107416464      0.0877138239
H       0.2301721438     -3.1486118998      0.4062011508      0.1097907306     -0.0729069324     -0.1761007870      0.1601673444
H       1.1979112515     -2.6849532891      1.8081489189      0.2456856236      0.0057701093     -0.0103689599      0.1357232869
H       1.8816237370      1.2169670446      2.2239398149     -0.0846337207      0.2575345941      0.1054854423      0.0842361339
H       1.6682246772     -0.4300872302      2.8389077700     -0.1444068688     -0.1374326301      0.2374828699      0.0949846212
H      -0.2771794193     -4.5782522482      2.3507988451      0.0660582013     -0.3196459272      0.0652673312      0.0538573910
H      -1.7083806644     -3.6377695820      1.9022307069     -0.3313718980     -0.0756342155     -0.0713438850      0.0247895184
H      -0.7402946340     -3.1632820446      3.3094564017     -0.0626950375      0.0633222501      0.3428614203      0.0256228474
H       3.9691692184     -1.0196629194      2.1267482991      0.1509213985     -0.2858013537     -0.0663488919      0.0569333975
H       3.9848772285      0.3859519064      3.2061249501      0.1640394369      0.1015882847      0.2792221306      0.0335174086
H       4.1967408092      0.6027459466      1.4596144376      0.2144065950      0.1412616455     -0.2240439549      0.0478465690
C       3.4835371251     -2.1773647552     -2.0247658987     -0.7913870797     -1.4184689480      1.1467442625      0.9224635084
O       4.4160678264     -2.4127489268     -2.7527958686      1.6681191565     -0.4683982336     -1.2887329978     -0.7283749433
O       2.8097929085     -1.1767768331     -1.7628863215     -0.7738990129      1.3195418781      0.2168682087     -0.8440907238
C       2.9472679818     -3.4715044613     -1.1367250175      0.5135624050      1.3110227294     -0.8449815916      1.2055828844
F       3.0512784495     -3.2164784663      0.2033542395      0.2944905322      0.0659403917      1.0904656381     -0.4958049495
F       3.5497565548     -4.6407904052     -1.3478969289      0.5166448590     -0.8097074907     -0.2316096879     -0.4511789868
F       1.6105525886     -3.6795816524     -1.3370877296     -1.0552581658     -0.3594772998     -0.3264661660     -0.4961826527
