43
Properties=species:S:1:pos:R:3:forces:R:3:charge:R:1 energy=-239.67057552938195 homo_lumo=4.030700113050084 dipole="-0.08332802154691654 0.6741067812511818 -2.423159328325284" free_energy=-239.67057552938195
N      -0.3439283510     -0.0529489721      0.1326965053      0.0366098920      0.2735449414     -0.2329510972     -0.4927270463
C      -1.1000830297      0.6475825139      1.2336453008     -0.4654546977     -0.0940764841      0.4420729554     -0.0394012097
C      -1.1994710459     -0.0409267133     -1.0995613804     -0.4664168523     -0.3961285122     -0.1355819223      0.0019648810
C       0.0128405527     -1.4511660689      0.5576216181      0.2846752022     -0.4197149779     -0.4381054667     -0.1193302112
C       0.8939501784      0.7469242261     -0.1819294784      0.5150557749     -0.0457918074      0.4204982402     -0.0128455956
C      -2.4626151646      0.0278483911      1.5071185114     -0.0151354046      0.2106997899     -0.5972569886     -0.1687023230
C      -2.5599485792     -0.6943266521     -0.8806550566      0.0815947181      0.4820477854      0.1577046855     -0.1612770535
C      -3.3204769113      0.0058855339      0.2455780138      0.3618150381     -0.3135026285      0.0614986456     -0.1369650160
C       0.7594093569     -2.2858407636     -0.4783972030     -0.2206785369      0.0445672162      0.3646752068     -0.2513406949
C       1.9527387205      0.7728869531      0.9202708242     -0.1009582389      0.3501222840     -0.4573484253     -0.2530271939
C       1.0938888171     -3.6405348133      0.1498620525     -0.0155172181      0.3498050301     -0.2583694376     -0.0495235488
C       3.0528927046      1.7610993463      0.5369762457     -0.3066407704     -0.3076563336      0.0264842264     -0.0420264517
H      -0.4874135596      0.6184896949      2.1353346869      0.2085243144     -0.0754625489      0.2498736338      0.2229412377
H      -1.2184577430      1.6874918520      0.9146349255      0.0071828768      0.2499304554     -0.2004759741      0.0880235802
H      -1.3337677547      1.0081105186     -1.3795480300      0.0248881835      0.2636544972     -0.0177293121      0.1208664566
H      -0.6502220693     -0.5443761035     -1.8973294527      0.2086997952     -0.0492307808     -0.1531829944      0.1282394114
H       0.6239639991     -1.3535365031      1.4566627879      0.0060224625      0.1404928005      0.3512732439      0.2685269404
H      -0.9119428838     -1.9570279084      0.8343110589     -0.1044285570      0.0106678661      0.0897115423      0.2008610724
H       1.3195801287      0.3339690196     -1.1006107978      0.0289356119     -0.0950874579     -0.2482223044      0.1233239318
H       0.5561327364      1.7655177181     -0.3948087099     -0.1534578429      0.2026313198     -0.0625115891      0.1219981578
H      -2.3551992480     -0.9790221874      1.9140939584      0.0156656958     -0.1373537356      0.2482513855      0.1454986082
H      -2.9354309951      0.6338620176      2.2830851241     -0.0145404360      0.0421887990      0.3039166195      0.1136081833
H      -3.1163355083     -0.6131189700     -1.8184751062     -0.0956216131     -0.0699370325     -0.3002852146      0.0917191923
H      -2.4422379583     -1.7569920574     -0.6547720928      0.0236049836     -0.3003803248      0.0061848891      0.1049581365
H      -4.2561657201     -0.5228841485      0.4401229179     -0.3151592016     -0.0625635488      0.0337303885      0.0793010148
H      -3.5636277451      1.0290822466     -0.0605669255     -0.1088690170      0.2939096395     -0.1103824175      0.0689061823
H       0.1489306190     -2.4441016472     -1.3723481394     -0.1123259950     -0.0296086496     -0.2856298627      0.0822787728
H       1.6863102782     -1.7914344844     -0.7812100200      0.2361251760      0.1406568161     -0.1122572507      0.0956285067
H       1.5137342462      1.0690069666      1.8744963657     -0.0880112145     -0.1084934208      0.2464567201      0.1564010437
H       2.3908568302     -0.2182462642      1.0525860611      0.0364324374     -0.2464959396      0.1321865528      0.1240995162
H       1.6631861024     -4.2439751308     -0.5563404480      0.1599240619     -0.2356309242     -0.1871767424      0.0319936471
H       0.1800829311     -4.1734156593      0.4116526400     -0.2259303472     -0.2005747749      0.1485755156      0.0415897881
H       1.6850822218     -3.5040814389      1.0551222061      0.1308299941     -0.0248220421      0.2665190707      0.0691040355
H       3.8176480327      1.7680933082      1.3123999753      0.2727863916      0.0578850639      0.1986085439      0.0523259256
H       2.6488474279      2.7694663287      0.4378373161     -0.0565037143      0.3449251370     -0.0420610789      0.0245855678
H       3.5175834793      1.4764139912     -0.4082457726      0.2196951320     -0.0096086219     -0.2968699961      0.0225696050
C      -0.2318791170     -1.0614523160      3.8030178872      0.0268638805     -1.8832185104      0.1671203714      0.8850293071
O       0.8261881534     -0.6026796650      3.3616761937      1.5428732504      0.7134868340     -0.4920972263     -0.8165157913
O      -1.2935465366     -0.5331857261      4.0950876689     -1.4836011709      0.6562328492      0.6580633189     -0.7738455871
C      -0.2609879354     -2.6840607652      3.8291826101      0.1498863976      1.5019542645     -0.1573288230      1.2715922492
F       0.9147495688     -3.2303369721      3.4628633343      0.9300363206     -0.4615866900     -0.1284231002     -0.4745859515
F      -1.1604670471     -3.1005607812      2.8898461074     -0.8455656925     -0.4695730104     -0.6536643453     -0.4899280561
F      -0.6211218746     -3.2479684288      4.9847910830     -0.3139110701     -0.2929046323      0.9945058134     -0.4558932210
