38
Properties=species:S:1:pos:R:3:forces:R:3:charge:R:1 energy=-210.09509924065551 homo_lumo=3.030641624705421 dipole="1.662309454070561 -0.5847509309417398 4.258369438276811" free_energy=-210.09509924065551
N       1.9066177646     -0.9496626683     -0.2202602579      0.5892048096      0.8923193163     -0.8086064642     -0.5170039211
N       3.1267499414      0.9057158828     -0.1144522754     -0.6238873816     -0.4745203417     -0.7652335339     -0.5562924134
C      -0.3806082822     -1.8774942397     -0.0761601536      0.0333002443      0.3868988735      0.0000541649     -0.1932555840
C      -1.0329470163     -0.5108682790     -0.3318941006     -0.0638458478     -0.3282595721      0.0557203340     -0.2089749295
C       1.0050898018     -1.9840718788     -0.7253295336     -0.6543129567     -0.8649048688     -0.3894728418     -0.0368682368
C      -2.4453804007     -0.4569440508      0.2592661159      0.2405957381      0.3418172478     -0.1730646928     -0.1645541302
C      -3.0842524712      0.9176743629      0.0317108271     -0.1952290879     -0.1511156032      0.0623991347     -0.2109296405
C       2.3611572392      0.1224859238     -0.8977515436     -0.4583705988      0.1992616571     -1.3813752884      0.5711121642
C       2.4060261227     -0.8435117031      1.0279895376      0.7079617357      0.4202087115      1.5365517038      0.2237608790
C      -4.4982617793      0.9675012550      0.6029074416     -0.1267330630      0.2259466816     -0.0131795463     -0.0828966916
C       3.1629033265      0.3095491725      1.0933059415     -0.1517887970     -1.0397183178      1.6024034534      0.2372942442
C       3.7588886247      2.1662269810     -0.4818839202      0.2927269022      0.5870536723     -0.2913353892      0.0568622572
H      -0.2907478184     -2.0518766556      1.0180974742     -0.0843386774     -0.0589072190     -0.1959442096      0.0933108387
H      -1.0266060753     -2.6778731710     -0.4989669404      0.2879017869      0.1272445494      0.1157511472      0.1191052478
H      -1.0830134965     -0.3224506114     -1.4269640739      0.1045985147      0.0427159817      0.2228237311      0.1585448004
H      -0.4164734055      0.2877457783      0.1359493703     -0.1239557741     -0.0933347240     -0.1669961491      0.1031688076
H       0.9016433644     -1.8944486578     -1.8286205149      0.2479657150      0.2693429647      0.3241852891      0.1753169622
H       1.4383101560     -2.9847744967     -0.5111002191      0.1608704275      0.4077935264     -0.0227253308      0.1224608188
H      -3.0741468536     -1.2400644042     -0.2191260971      0.1200375685      0.1380032859      0.1859944525      0.0941454481
H      -2.3949314575     -0.6614204520      1.3517831522     -0.1004394364     -0.0563844241     -0.2081345338      0.0762424109
H      -2.4693616589      1.7027621159      0.5239175078     -0.0387140358     -0.1608062446     -0.2215605149      0.0805358048
H      -3.1276824153      1.1362831198     -1.0577023669      0.1761287649     -0.0061455425      0.2575755094      0.1161954202
H       2.1188171746      0.3392696950     -1.9294036698     -0.1251634656      0.0712262078     -0.3892402349      0.1772366419
H       2.2226652150     -1.5430380311      1.8331598879     -0.1126298136     -0.1613866675     -0.1015991404      0.0570110204
H       3.6868381014      0.6912104802      1.9599392693      0.1230351252      0.1752896150     -0.0778380719      0.0549330603
H      -4.4793779833      0.7740222272      1.6966202293     -0.1272344565      0.0246670342     -0.2744744951      0.0310007081
H      -4.9353292887      1.9728827269      0.4272310769     -0.0363526104     -0.3191105684      0.1191417283      0.0477366943
H      -5.1407769899      0.2089642232      0.1072316308      0.1010743400      0.2239442379      0.2147054696      0.0427311613
H       4.8588787963      2.0820778798     -0.3594305950     -0.3959968362     -0.0632231733     -0.0310195211      0.0881184474
H       3.5328287065      2.4215727275     -1.5395021744     -0.0146694657     -0.2586278600      0.4260858135      0.1177588841
H       3.3781094070      2.9792434443      0.1714289430      0.0606441803     -0.3577895273     -0.2055137381      0.0892132292
P       0.3013022680      0.7659029389     -5.1350819199     -0.5585507226      0.3736377773     -1.5613674292      2.1175539371
F       0.4616865912      2.0516260277     -6.2625891330     -0.0745151344     -1.1945441921      1.2198370972     -0.5005063842
F      -0.7815953153      1.7080078894     -4.1914015128      1.0425888486     -0.8872176557     -0.6593809721     -0.5112588238
F      -1.0147374943      0.1561032230     -6.0551911265      1.2485720942      0.4613905362      1.1056964094     -0.5005075849
F       0.1362370833     -0.5248515697     -4.0148171803      0.2487413896      0.8201382884     -0.3955237884     -0.5330342317
F       1.3904580098     -0.1918798774     -6.0554240958     -0.9538978268      0.8690513288      1.0175183627     -0.5040149896
F       1.6268393930      1.4041581306     -4.2496831733     -0.7653221972     -0.5819549913     -0.1328579148     -0.5312523269
