38
Properties=species:S:1:pos:R:3:forces:R:3:charge:R:1 energy=-209.62745096939787 homo_lumo=2.309797444515445 dipole="-1.5792017596364254 5.3440131625267595 0.6802143130957699" free_energy=-209.62745096939787
N       1.9043982006     -0.9419252743     -0.2333301604      0.5462455384      0.9550365011     -0.7788229710     -0.5102545719
N       3.1375565110      0.9048577368     -0.1180843276     -0.5701363827     -0.3483111102     -0.7654081624     -0.5563723795
C      -0.3788899199     -1.8746252146     -0.0760450534      0.0729510234      0.4414773904     -0.0628089730     -0.1967334323
C      -1.0391641104     -0.5128388936     -0.3310063382     -0.0496283033     -0.3905269122      0.2651288720     -0.1888095818
C       0.9989780155     -1.9711102648     -0.7418862112     -0.6340217826     -1.0320373288     -0.2638670043     -0.0539186866
C      -2.4504487981     -0.4626538255      0.2606802629      0.2111833361      0.4037484148     -0.2350749039     -0.1655351789
C      -3.0869814392      0.9131762022      0.0345174415     -0.1945016384     -0.1864090257      0.1408076329     -0.2060745946
C       2.3660478218      0.1309639249     -0.9058744145     -0.4731288222      0.1005719316     -1.2885816796      0.5823836955
C       2.4033450477     -0.8440722415      1.0157406791      0.6530947495      0.3732427302      1.4186045306      0.2510601947
C      -4.4997872681      0.9650436790      0.6061584522     -0.1481727102      0.2588693781     -0.0364050026     -0.0842943924
C       3.1693257242      0.3023305958      1.0863545607     -0.1918303514     -0.9991998434      1.5490578970      0.2442224383
C       3.7703203516      2.1683793286     -0.4727136783      0.2856354045      0.5162048396     -0.2179709335      0.0626670299
H      -0.2751240671     -2.0446453217      1.0178945049     -0.0951130157     -0.0654584832     -0.2579546063      0.1134308076
H      -1.0247273339     -2.6807210667     -0.4883633345      0.3291956659      0.1109069024      0.1451407160      0.1298105352
H      -1.0924913495     -0.3265709295     -1.4261581766      0.0530067875      0.0353915623      0.2018628297      0.0869771916
H      -0.4246359070      0.2889565410      0.1348031741     -0.1288186399     -0.0786226140     -0.1776692687      0.1054340797
H       0.8830361989     -1.8687998513     -1.8434892228      0.3366630677      0.1509850061      0.4142153309      0.1239127450
H       1.4347152641     -2.9724665050     -0.5426725505      0.2987961040      0.2567511238     -0.0949885846      0.2229962477
H      -3.0786704442     -1.2443784899     -0.2207872426      0.1248994479      0.1336499606      0.2144417623      0.0990361576
H      -2.4006047144     -0.6698790620      1.3525123796     -0.0804948897     -0.0502454286     -0.2515013696      0.0937338965
H      -2.4708752354      1.6968644458      0.5270280266     -0.0317867570     -0.1511377141     -0.2122210766      0.0805558011
H      -3.1311582264      1.1321772649     -1.0547488148      0.1451428861      0.0004179723      0.2254128923      0.0875086483
H       2.1231110897      0.3567190243     -1.9372590509      0.0461275482     -0.0538693894     -0.0185910688      0.1033352286
H       2.2108130158     -1.5433472357      1.8193971228     -0.0453191561     -0.2398843064     -0.1492924402      0.0780073902
H       3.6962286021      0.6764358235      1.9547869450      0.1385027893      0.1519085527     -0.0916364187      0.0619493865
H      -4.4795673901      0.7709727262      1.6995282198     -0.1273414703      0.0265376277     -0.2937216444      0.0422563598
H      -4.9334122951      1.9718502941      0.4307443777     -0.0564084312     -0.3175263163      0.1335586757      0.0462105340
H      -5.1430886116      0.2081391118      0.1095529301      0.0951775813      0.2195867514      0.2282788922      0.0454783225
H       4.8697160074      2.0857898607     -0.3435813982     -0.3906004888     -0.0585851688     -0.0511776407      0.1009527105
H       3.5505567095      2.4317025815     -1.5295721406      0.0369928714     -0.2526880104      0.4579202670      0.0888667517
H       3.3839013950      2.9756609263      0.1844500195      0.0775295536     -0.3389655534     -0.2066910214      0.0893192993
P       3.8506043749     -5.7667894234     -0.9587189774      0.6292161488     -1.1131149477     -0.1030185973      2.1036981323
F       2.6144472531     -6.6432316035     -1.7675987522      1.0427243941      0.8784843048      0.7824711927     -0.5072777728
F       3.5612142310     -4.4356827186     -2.0054670274      0.0884424320     -0.8098842307      0.8688052992     -0.5258774589
F       2.6964278150     -5.1803166538      0.1693023932      0.5893741733      0.0161659929     -0.8524340263     -0.5286166669
F       5.0763588360     -4.8557148638     -0.1727598955     -1.1168710046     -0.6707789837     -0.6090396381     -0.5132292650
F       4.1358527106     -7.0970592303      0.0896332767     -0.3123435737      1.2874280723     -0.9018309449     -0.5037204389
F       5.0205922909     -6.4130028003     -2.0377473331     -1.1543840851      0.8398803516      0.8750011868     -0.5030891639
