55
Properties=species:S:1:pos:R:3:forces:R:3:charge:R:1 energy=-295.73207813333045 homo_lumo=5.232541446728529 dipole="-2.354987789349738 0.6378470449916901 2.0914029604480815" free_energy=-295.73207813333045
C       2.8490945138     -0.4620876466      1.7213175886     -0.0697636928      0.1145337045      0.0436734338     -0.1484190025
C       2.2160676005      0.6647415983      0.9083970209      0.4757647609     -0.0718769169      0.2147264533     -0.0241489838
H       1.6949862688     -1.4107426005     -0.8013313388      0.0922775833      0.1232461656     -0.1198014758      0.2828630664
H       0.2590615207     -1.8838919036      0.1424847671     -0.2535727434     -0.0534959003     -0.0693515292      0.0964206095
H       2.8247546583     -2.4970582299      0.9314475377      0.0916937222     -0.1864577215     -0.0732013775      0.1350987302
H       1.5559194643     -2.1719568847      2.1243702063     -0.1082155836     -0.1388222216      0.2173209862      0.0629345562
H       2.7394812846     -0.2875232254      2.7935694549      0.0219240501      0.0427545804      0.2704380273      0.0681828558
H       3.9132122803     -0.5191281787      1.4866416244      0.2165946130      0.0375647496     -0.0294601871      0.1314418596
H       2.0234791971      1.5701700729      1.4846987853     -0.1087740346      0.2750613480      0.0726090244      0.0803218412
H       2.8358153267      0.9105959379      0.0481675229     -0.0207361717      0.0135635684     -0.1259756179      0.2382246918
H      -1.0419815102     -0.2200175893      1.1153248258     -0.2040650757     -0.1211758779     -0.0747645115      0.0865229261
C      -0.1351111381      0.2948284843      1.4241659885     -0.0575151403     -0.0437351256      0.0308354896      0.0806582101
H       0.2217772932     -0.1304591979      2.3595512860      0.1176406038     -0.1311853139      0.2532748980      0.1112000232
H      -0.3368899264      1.3566251401      1.5542401900     -0.0377739906      0.2904871975      0.0329431228      0.0754931103
C       0.5496831062      0.8579541194     -0.8755094076     -0.5274930448      0.0871538089     -0.3141201229     -0.0394407347
H       0.4570580580      1.9091758154     -0.5890643636      0.0483688624      0.2475799482      0.1607840079      0.1046959195
H       1.3993226544      0.7573936315     -1.5532214699      0.1775224844     -0.0584309720     -0.0397906385      0.2242716746
H      -1.5223739626      0.1824630547     -0.8568190124     -0.3113102725      0.0557906723      0.1382559947      0.0906021337
H      -1.6279457908     -1.8217275181     -4.0786185000     -0.0572248469     -0.2510183328     -0.2517631073      0.0465867728
C      -0.5441398582     -0.7882665665     -2.5315050849     -0.5154904197      0.3030106486      0.0213775797     -0.2695279768
H       0.3336511525     -0.6179703505     -3.1599716102      0.2362227710     -0.0134574127     -0.0637574497      0.1458354925
H      -0.3768132044     -1.7083437321     -1.9659280557      0.1324467616     -0.2039460080      0.0474904650      0.1233861612
C      -1.7754605063     -0.9689259754     -3.4168601910      0.3957836632     -0.0560179370      0.2827277468     -0.0414917227
H      -1.9430958406     -0.0805068666     -4.0267241358     -0.0911616504      0.2595291541     -0.2157193254      0.0264492618
N       0.9134800963      0.1252349006      0.3866408044     -0.2397247824      0.2724796497     -0.0275854935     -0.5266812651
C       1.1944232155     -1.3258974234      0.1610116367      0.2250730306     -0.5306010096      0.0672511313     -0.0693029175
C       2.1235198074     -1.7450132342      1.2943464933     -0.1676672147      0.0384197852     -0.0719270642     -0.1355114561
H      -2.6638591260     -1.1480086551     -2.8092844856     -0.3383480447     -0.0614841056      0.1268916882      0.0176563723
C      -0.7302920669      0.4002008620     -1.5785318581      0.6085928665     -0.3669142226     -0.0381959219     -0.1794328712
H      -1.0646004210      1.2603692209     -2.1684156999     -0.1323363183      0.2259951046     -0.1059354948      0.1090957600
P       4.3084603251     -1.0207837734     -2.5469670428     -0.2895584058     -0.2793208931      0.1882642344      1.6997134258
F       4.0467177839     -1.4019594102     -0.9078348189      0.0383691232     -0.0673720698     -0.0455393243     -0.5516069045
F       5.9379166110     -1.3187583605     -2.4398210963     -0.1713352657     -0.0139113635     -0.0346393114     -0.5107520873
F       2.6149122283     -0.7031772594     -2.6371829648      0.3382493998     -0.0400398475     -0.0282401864     -0.5488593151
C       4.0449410901     -2.9525323948     -2.8168551715     -0.5647747966      0.9880598873      0.1704529038      0.5511236184
C       4.6519928829      0.8383989634     -1.8751566435      0.3779596894     -0.5567509803     -0.8176307249      0.5121442959
C       4.4129002565     -0.4103388652     -4.4476373486     -0.3466034554     -0.7378277308      0.6536961148      0.5483087299
C       2.6546085111     -3.6100516235     -2.6015440148      0.4446189969      0.7141787790      0.0060608031      1.3927896733
C       5.7695726510      1.7706877303     -2.4391168775     -0.3368901611     -0.5394647422      0.0639068269      1.4081333631
C       3.8558451902     -1.1671531236     -5.6884107891      0.0954317361      0.0457035366      0.8531987193      1.4152738681
F       4.8608889887     -3.5925754043     -1.9608593381      0.7496004223     -0.8216815618      0.8427170208     -0.4404247339
F       4.4470861224     -3.2795864190     -4.0575061079      0.3683440853     -0.5649560139     -1.0819881996     -0.4558515152
F       4.9704387769      0.7381344646     -0.5627782764      0.5964751727     -0.0361152227      1.1498172255     -0.4629759803
F       3.5087658689      1.5704016990     -1.9097180535     -0.9540064710      0.9212587846     -0.1190161892     -0.4741197978
F       5.6884500454     -0.0944841420     -4.7274162813      1.2120766989      0.0969885369     -0.4937894282     -0.4460472409
F       3.7144731055      0.7491841935     -4.4164656188     -0.8437419961      0.9654227946     -0.2775255913     -0.4543309520
F       2.6849477906     -4.8934046606     -2.9476424474      0.1916606932     -1.2542552415     -0.3776992357     -0.4469516030
F       1.6769005186     -3.0262514264     -3.2896536852     -0.7685557663      0.3118687019     -0.6592760536     -0.4615579049
F       2.3127202598     -3.5529021332     -1.3037638224     -0.2242360410     -0.1085821016      1.0605806751     -0.4783064606
F       5.9628835429      2.7639179319     -1.5607028760      0.1099843748      0.9989532759      0.8639162463     -0.4571408538
F       6.9216007959      1.1297231158     -2.5808806730      0.9917533438     -0.5597287172     -0.0385883191     -0.4404423780
F       5.4470577170      2.3314331818     -3.5959758183     -0.2907923205      0.6056032345     -0.9474524975     -0.4460997744
F       4.7430650269     -2.0112975315     -6.1948585952      0.9141709501     -0.6812954235     -0.5042818963     -0.4446650824
F       3.5326416689     -0.2962748856     -6.6448914176     -0.2236057402      0.9079099430     -0.9012211341     -0.4507201899
F       2.7479693107     -1.8428901764     -5.3742812362     -1.0133270129     -0.3931965727      0.1150265900     -0.4606192991
