48
Properties=species:S:1:pos:R:3:forces:R:3:charge:R:1 energy=-259.67575134297476 homo_lumo=2.2069320285588585 dipole="-6.016944096874695 -2.8744980340811965 4.192904403635573" free_energy=-259.67575134297476
N      -0.5539771289      0.3043924064      0.1569573922      0.1655563027      0.3238056753     -0.0604630998     -0.5478870746
C      -1.5479606023      1.2403321226     -0.4598010753     -1.5350968922      1.0282715752     -0.6047316073     -0.0318049494
C      -0.8931311843     -1.1102067945     -0.1886951770     -0.6228375796     -1.7155387982     -0.1558545300     -0.0333803273
C       0.7852342524      0.6641119839     -0.4189120783      1.9318789810      0.0406103137     -0.4125904553     -0.0485854703
C      -3.0183281377      0.8980013806     -0.1535727868      0.0419134747     -0.0642863226      0.0376573254     -0.1787078448
C      -2.3449580288     -1.4949889503      0.1474377541     -0.0503801386      0.1597075192     -0.0246853862     -0.1707468307
C      -3.3302848635     -0.5469566694     -0.5265455545     -0.3230311189     -0.0867396648      0.0769620822     -0.1701513916
C      -0.5252884693      0.4974671984      1.6328239601     -0.0384486167      0.0639832078      1.3943114568      0.0175958878
C       1.9868344328     -0.1662731070      0.0976025267     -0.3852393541      0.0974868700     -0.0252656024     -0.2142497308
C       3.2936382067      0.3213556807     -0.5417977275     -0.0019451909      0.1626794567     -0.1021806385     -0.2323017121
C       4.4894205150     -0.4913921645     -0.0544127524      0.1407479594     -0.0412813768     -0.0051880616     -0.0882992594
H      -1.4422542543      1.2387181291     -1.5699365581      0.3717681967     -0.2613062662      0.4652709911      0.1625057672
H      -1.3582792402      2.2865438328     -0.1270063658      0.3470713623     -0.5236618062      0.0159784945      0.1548260415
H      -0.2359396499     -1.8210558806      0.3572916734      0.0918903069      0.6255388720     -0.1593079952      0.1637259349
H      -0.7344640551     -1.2898194352     -1.2770220782      0.1128778645      0.4711078809      0.3605150021      0.1565035488
H       1.0050064263      1.7386154201     -0.2166948114     -0.4261297925     -0.3422547017      0.0632077309      0.1639850683
H       0.7618990231      0.5578662080     -1.5286258765     -0.3832933079     -0.0232270059      0.4332315299      0.1620876241
H      -3.6746536639      1.5698989216     -0.7482086992      0.3502827200      0.0170694625      0.1962341702      0.1339306878
H      -3.2611311017      1.0813110210      0.9133570503      0.0640219040     -0.0065037933     -0.1842749754      0.1068402605
H      -2.5056615202     -1.4945694683      1.2463886699      0.0512850859     -0.0523071881     -0.2147258699      0.1092309460
H      -2.5378853766     -2.5291064166     -0.2117315719      0.2959084326      0.2272396455      0.1807583965      0.1293501562
H      -4.3647175310     -0.7974539919     -0.2066470839      0.2390295758      0.0476101960     -0.2242953531      0.1084664764
H      -3.2710511167     -0.6693814347     -1.6306009090     -0.0585143142      0.0099220335      0.2308525114      0.1047858650
H      -1.5296354147      0.4131279927      2.0901720638      0.1533077704      0.0277678990     -0.4854606803      0.1326092690
H       0.0958810432     -0.2743737469      2.1341490150     -0.0765442173      0.2642324762     -0.4956869722      0.1202111557
H      -0.1253429069      1.5014009721      1.8980369066     -0.0942837157     -0.3830444046     -0.3979449017      0.1191327314
H       1.8541600091     -1.2377214948     -0.1584788632     -0.0092414095      0.1826427236      0.1511472108      0.1118155736
H       2.0885256142     -0.0646694511      1.1973605222     -0.0735737556     -0.1165072782     -0.1766968461      0.1113118286
H       3.4604669879      1.3886867838     -0.2800511094     -0.0709403184     -0.2193479040     -0.2548486575      0.1361125787
H       3.2272831924      0.2340169750     -1.6483356027      0.0101191920      0.2086963128      0.2532321653      0.1282185531
H       4.3604057899     -1.5634629795     -0.3149403251      0.1111557415      0.2490069292      0.1331280609      0.0311603982
H       4.6004012218     -0.3914562081      1.0463644861      0.0418267415     -0.1076089932     -0.2855685570      0.0307045578
H       5.4148698887     -0.1161342633     -0.5399507575     -0.2556740200     -0.1128449928      0.1775160829      0.1069658078
N       5.7274138423      2.4360199285     -4.2710508078     -0.2256926101     -0.3680195667      0.3844610286     -0.8778396454
S       5.8710824884      3.4647367004     -3.0032837045      7.3260019705     -0.4290828961     -1.0026495870      1.5623753076
S       5.8591832944      2.9296180333     -5.8287971788     -6.3544207754      3.0383387266      0.1300835828      1.5581377839
C       4.2667879478      4.1181858315     -2.5877045295     -1.3317133811      0.9549658206     -0.2161689446      1.1490393453
C       7.5053831427      2.5890007948     -6.4158310258      1.9229375010     -0.3211299659     -0.2584961167      1.1544426360
O       6.4135753029      2.7159739507     -1.8191374027     -2.2432753543      0.3179022939     -0.9967427386     -0.7481847205
O       6.7967575110      4.5987644762     -3.3471298039     -2.2837946714     -0.6558319332      0.6181159110     -0.7188914917
O       5.5828595310      4.4029201800     -5.9468490297      1.5878397383     -1.6875813950     -0.1228099767     -0.7293142641
O       4.8777274695      2.1663408309     -6.6720413101      2.2331452099     -0.2409903131      1.0093338524     -0.7348378009
F       4.3716267234      4.9232489639     -1.4693607770     -0.4285819859     -0.6039021738     -0.7831183697     -0.4355383094
F       3.3969785705      3.0783938589     -2.3233477115     -0.0464059000      0.6958823250      0.0680996706     -0.4602398089
F       3.7773819158      4.8633053797     -3.6430204380      0.0658811164     -0.6463828974      1.2441452551     -0.4190136029
F       7.6240617578      3.0086839917     -7.7272434902      0.0665881836     -0.4429234146      1.1161335635     -0.4289083093
F       7.7502217473      1.2307014910     -6.3460290576      0.1572130236      0.9581260702     -0.1976068978     -0.4342620295
F       8.4263880464      3.2610277728     -5.6351364207     -0.5611899349     -0.7202892329     -0.8930132546     -0.4229272177
