35
Properties=species:S:1:pos:R:3:forces:R:3:charge:R:1 energy=-191.76911770199882 homo_lumo=5.734047527325599 dipole="-0.29484556056409955 2.9794446543081174 0.2805039631781725" free_energy=-191.76911770199882
N       0.3577496612     -0.2954195632     -0.2569712088      0.0693401709      0.0018189721     -0.1221825122     -0.4976908895
C      -0.5276345110      0.4726349722     -1.1911105721     -0.5051747320      0.4039685076      0.1607179800      0.0015426481
C      -0.3586302391     -1.5600538363      0.1305736341     -0.6071842520     -0.0695652040      0.3768526525     -0.0613431307
C      -1.9019292785      0.7729542008     -0.6017549600      0.1215760024     -0.4777022266     -0.1465858585     -0.1618432324
C      -1.7333550499     -1.3314790382      0.7354020605      0.0336897319      0.2479605660     -0.4484899166     -0.1505309159
C       0.7019242082      0.4813660145      0.9766266138      0.2239777888      0.5552786248      0.0238833932     -0.0662325779
C       1.5969967290     -0.6671104931     -1.0432217517      0.6052746329     -0.1063166204      0.1157779974     -0.0751325276
C      -2.6160606973     -0.5206979941     -0.2103563421      0.3094977594      0.2419966481      0.3183573050     -0.1549892995
C       1.4580448197      1.7783941352      0.7275438380     -0.2533284048     -0.4369826486     -0.0274613039     -0.0816500644
C       2.6999227828     -1.3332221717     -0.2381485331     -0.4091053811      0.2998762260     -0.0817886924     -0.1007931159
H      -0.6387533980     -0.1460084176     -2.0857055602      0.0626057379     -0.1841981173     -0.1762656138      0.1401583356
H      -0.0139517560      1.3949630429     -1.4691439759      0.2020645865      0.1398749389     -0.0961063433      0.1272958890
H       0.2761897629     -2.1114786151      0.8239967984      0.1962271134     -0.1397177215     -0.0316761185      0.1770237862
H      -0.4619833013     -2.1484372555     -0.7816395244      0.0921375700     -0.0598415219     -0.0904394610      0.1983434526
H      -2.4763096101      1.3017860342     -1.3671121755     -0.1098145873      0.2470485150     -0.1801698413      0.0976709360
H      -1.8137028330      1.4364691082      0.2632392498     -0.0090964671      0.2425427581      0.1972264213      0.0915973588
H      -1.6684333167     -0.8400660046      1.7106673206     -0.0319434971      0.0843128983      0.3062117272      0.0629956221
H      -2.1641499155     -2.3248774616      0.8860304546      0.0084878901     -0.2659195825      0.1217454872      0.1389208677
H      -0.2303196864      0.7012064768      1.4991281324     -0.1644303319     -0.0742746769      0.0707939799      0.1626887570
H       1.2939523877     -0.1836428183      1.6085451372      0.0406245220     -0.2347996782      0.0903812648      0.1519297450
H       1.2654413889     -1.3583943024     -1.8215578064     -0.1440718990     -0.1195235016     -0.0762052123      0.1818915250
H       1.9633990080      0.2489645098     -1.5143371317     -0.0330721800      0.2868306662     -0.0738857072      0.1081753643
H      -3.5680605417     -0.2846272219      0.2707172075     -0.3195148226      0.0212912695      0.0539137711      0.0763923287
H      -2.8238064065     -1.1074713062     -1.1103081958     -0.0785195588     -0.1848462662     -0.2426766603      0.0934242306
H       1.6711254924      2.2269626635      1.6977169988      0.0801919484      0.1804758905      0.2644116594      0.0655299518
H       2.4035046348      1.6068764292      0.2171784463      0.3192065656     -0.0155825262     -0.1307748681      0.0603370515
H       0.8661919053      2.4860894845      0.1492948149     -0.1531533721      0.2852506996     -0.1400196032      0.0466942799
H       3.4738147421     -1.6271779247     -0.9473938593      0.2306472367     -0.1214764658     -0.1792632550      0.0650202894
H       3.1457867313     -0.6635831696      0.4956473069      0.2087730066      0.2671007528      0.2006315497      0.0188385368
H       2.3418528174     -2.2363074275      0.2522139987     -0.0419258490     -0.3378308523      0.0660667909      0.1344062004
B       0.6195790517     -4.3730277227     -0.5831725725      0.0028665530      0.4595033490      0.0409325006      1.3935277537
F       1.2727753484     -3.9517700687      0.6064873380      0.4296583562     -0.0850331726      0.7498825807     -0.5746649850
F       0.9692514172     -5.6463736705     -0.9261897710      0.2739650522     -0.9795269586     -0.2615010993     -0.5192943041
F       1.0010456195     -3.4412393931     -1.6011341460      0.2131645708      0.1082035321     -0.7168071363     -0.5840030603
F      -0.7663214974     -4.2314625161     -0.3840993840     -0.8636414611     -0.1801970735      0.0645121421     -0.5662368069
