35
Properties=species:S:1:pos:R:3:forces:R:3:charge:R:1 energy=-191.97679847525825 homo_lumo=5.741123142260195 dipole="-2.305881763727499 -1.2718523111591022 1.6021392423066219" free_energy=-191.97679847525825
N       0.6783848323     -0.4555898431      0.0937248519      0.0030501352      0.0003936987      0.0035094766     -0.4976231134
C       0.3708735584      0.5006946967     -1.0525999243     -0.0146193539      0.0019599430      0.0031542595     -0.0728961025
C      -0.4916028417     -1.3995517405      0.2728123547     -0.0066285512     -0.0024793789     -0.0001123913     -0.0089731396
C      -0.9470939533      1.2314690167     -0.8790451323      0.0034259942     -0.0003394024      0.0096954629     -0.1716965205
C      -1.8261494884     -0.6912156073      0.4567301695     -0.0023310295     -0.0003010397     -0.0029858932     -0.1602386374
C       0.9214679651      0.2992856344      1.3909814665     -0.0008925494     -0.0000973839      0.0062616383     -0.0783281559
C       1.9130597527     -1.2528491154     -0.3108097516     -0.0026371532     -0.0057097471      0.0017928364     -0.1308979407
C      -2.1133902893      0.2623742364     -0.7013097323      0.0003663938      0.0009880788      0.0048881243     -0.1638622484
C       2.1416087868      1.1959196837      1.3918182705     -0.0075331740     -0.0046212855      0.0085877149     -0.1186831331
C       2.3662090758     -2.2890948973      0.6959518445     -0.0022001164      0.0098554672      0.0019741194     -0.1044620209
H       0.3554515423     -0.1271903244     -1.9563849557     -0.0008214361      0.0021451841     -0.0011133005      0.1401732491
H       1.2236882588      1.1851174451     -1.1600400443      0.0014506537      0.0028339651     -0.0006742662      0.2633084243
H      -0.2604134198     -2.0470606683      1.1292146956      0.0006445332     -0.0006454786      0.0033127897      0.1365426032
H      -0.5120333562     -2.0180141312     -0.6390135552      0.0006403321     -0.0013150419      0.0033333260      0.1305598916
H      -1.0806316575      1.8511668566     -1.7807482111      0.0020621759      0.0092037136     -0.0041635992      0.1175607472
H      -0.8979908955      1.9379235075     -0.0324047998      0.0057970672      0.0023066662     -0.0005499824      0.0934559049
H      -1.8481825917     -0.1490050183      1.4170850571      0.0014129636     -0.0049129539      0.0019029622      0.0962411863
H      -2.6005996769     -1.4733584242      0.5272472681     -0.0071608430     -0.0039367998      0.0006876944      0.1058547672
H       0.0122260735      0.8835005996      1.5771298803     -0.0048453261     -0.0000261504      0.0006248281      0.1601244588
H       0.9845666860     -0.4698315911      2.1755175965     -0.0067003004     -0.0065339876      0.0020463467      0.1248753626
H       1.6528421172     -1.7193314787     -1.2721555233      0.0006567413      0.0049636731     -0.0019263160      0.1335927045
H       2.7090456314     -0.5242455353     -0.5206906313     -0.0011902006     -0.0015029174      0.0005380539      0.2789519723
H      -3.0547835545      0.8065418221     -0.5254167999     -0.0111356643      0.0014652745     -0.0010091073      0.0840678873
H      -2.2448258160     -0.3234926166     -1.6298641861      0.0001602945      0.0050476154      0.0005083203      0.0903389036
H       2.1577484484      1.7283621087      2.3550209892      0.0014816430      0.0060341030      0.0079682062      0.0502194662
H       3.0820951220      0.6399014676      1.2892966453     -0.0002955249     -0.0028381508      0.0085206410      0.0840472472
H       2.1266164595      1.9411658632      0.5844173564      0.0028079627     -0.0026018073      0.0030755440      0.1138399276
H       3.2796841738     -2.7467480387      0.2866422104      0.0071857034     -0.0019679594      0.0060919107      0.0918517878
H       2.6385299859     -1.8506160579      1.6665350768      0.0078609379      0.0114561917     -0.0013984223      0.0508384059
H       1.6370681656     -3.0963264494      0.8554378217      0.0050701521     -0.0049450534      0.0111968788      0.0333926100
B       3.6733003384      1.3305854738     -2.0771512451      0.0124870430      0.0020458471     -0.0175665710      1.3850474000
F       4.6472791417      1.8831496155     -2.9033850934      0.0053435858      0.0046398722     -0.0033273681     -0.5267721599
F       4.2670630130      0.6878245334     -0.9329478130      0.0007881000     -0.0135750189     -0.0177135128     -0.5758057285
F       2.8841370166      0.3568503880     -2.7685964621      0.0059419085      0.0004433992     -0.0282978853     -0.5768617376
F       2.7778811833      2.3538227343     -1.5833850221      0.0003569018     -0.0074331364     -0.0088325185     -0.5777842689
