37
Properties=species:S:1:pos:R:3:forces:R:3:charge:R:1 energy=-198.30678973095044 homo_lumo=3.3370107028919533 dipole="-0.4086522492122299 -0.7403492562621957 -2.2040082035947166" free_energy=-198.30678973095044
N      -0.9121624618     -0.0603250916     -0.0823896221      0.0034642150      0.0037094110     -0.0053094811     -0.4808673658
C      -1.3851406278     -1.0230252016     -1.1462904742     -0.0073648798      0.0060167827     -0.0141773962      0.0152619358
C      -2.0600402726     -0.0578189196      0.9182396663      0.0001616644      0.0082187492      0.0008892638     -0.0268313144
C       0.3379187314     -0.5922735884      0.6060904704     -0.0091616004     -0.0055286122      0.0134877494     -0.0687412519
C      -2.1140188859     -2.1371390485     -0.3917492316     -0.0060336189     -0.0074945539      0.0059444453     -0.1559235390
C      -2.5238639333     -1.5098580526      0.9674273312      0.0004304174     -0.0007277979      0.0147919923     -0.1428659539
C      -0.6966000642      1.3118050657     -0.6730262168     -0.0040422837     -0.0004407709     -0.0169439370     -0.0128559742
C       1.5999414439     -0.5337389534     -0.2308237824      0.0070976877      0.0076554902     -0.0156251873     -0.2182686064
C      -0.2621264506      2.3697450916      0.3214301798      0.0083473921     -0.0027163382      0.0145906867     -0.2398961104
C       2.7482299293     -1.2027990327      0.5309411564     -0.0059219905     -0.0048877808      0.0150348307     -0.1994949555
C      -0.1497844891      3.7230236082     -0.3744523066      0.0021003034      0.0043269282     -0.0081279888     -0.0648369584
C       4.0660457738     -1.1324469794     -0.2336277678      0.0003920739      0.0028850442     -0.0029845434     -0.0661210127
H      -2.0725851689     -0.4591710756     -1.7946424261     -0.0110813610      0.0068306804      0.0079849107      0.1131512561
H      -0.5263294270     -1.3569942974     -1.7424631037     -0.0090578303      0.0106603254     -0.0082953244      0.1273799596
H      -1.6713043615      0.3446653268      1.8877204963     -0.0057856370      0.0096783004     -0.0077110597      0.1890624519
H      -2.8292546793      0.6025735294      0.4883764503     -0.0054468091      0.0017110187     -0.0081695753      0.0964458453
H       0.1052637023     -1.6336752326      0.8756685828     -0.0037916659     -0.0008454637     -0.0051148785      0.1537975684
H       0.4214382579     -0.0182253594      1.5626772168     -0.0117684728     -0.0130298574      0.0003683140      0.2096211050
H      -2.9824974429     -2.4754144246     -0.9751124985      0.0007923041     -0.0077161928      0.0020420322      0.0933775695
H      -1.4615954920     -3.0104776220     -0.2456687373      0.0040594503     -0.0020296741     -0.0005440638      0.0827195541
H      -2.0432258752     -2.0333877604      1.8073967406      0.0059420736      0.0081850466      0.0063309261      0.0960924786
H      -3.6094079050     -1.5550094941      1.1335645365      0.0041608189     -0.0067419936      0.0131821553      0.0949480965
H       0.0382873271      1.1936034713     -1.4859022519     -0.0088399333     -0.0013322679      0.0005155508      0.1280241477
H      -1.6622147064      1.5856244793     -1.1313812785      0.0114107631     -0.0019425121     -0.0001681916      0.1149508212
H       1.4796876108     -1.0361548200     -1.2099765798      0.0087293440      0.0128205056      0.0098668891      0.0792071911
H       1.8818169148      0.5136391064     -0.4345824919     -0.0015817273     -0.0060533566      0.0084738583      0.1159658767
H      -0.9647068422      2.4188207286      1.1693374547      0.0187798166     -0.0048535692     -0.0048971861      0.1480185632
H       0.6964499819      2.0979836173      0.7893285946     -0.0003728417      0.0008221743     -0.0089557964      0.1390602365
H       2.8506540782     -0.7147547353      1.5158753895     -0.0027208467     -0.0048405782     -0.0033067849      0.1182718122
H       2.4863787472     -2.2578987268      0.7298450113      0.0031080217      0.0080632059      0.0011602474      0.0839515233
H       0.5917709384      3.7002297401     -1.1901493879     -0.0026042029      0.0115129175     -0.0070467149      0.0256979679
H      -1.1157374994      4.0388585851     -0.8012422957      0.0057545965      0.0056510996     -0.0060832292      0.0258019255
H       0.1650526438      4.4907496308      0.3470047475      0.0022266960      0.0026788237     -0.0048733249      0.0577123515
H       4.8776483789     -1.6178409889      0.3284374504      0.0067343479     -0.0021803193      0.0022291617      0.0450301857
H       3.9851000597     -1.6337436038     -1.2120929695      0.0060422712      0.0010436014      0.0016490917      0.0269578337
H       4.3601813701     -0.0860382779     -0.4137748213      0.0034341431     -0.0033740894      0.0011884826      0.0369081162
Cl     -0.2099353744      1.0052686328      3.4169416520     -0.0075926998     -0.0357343769      0.0086040753     -0.7407133306
