45
Properties=species:S:1:pos:R:3:forces:R:3:charge:R:1 energy=-245.55541643529128 homo_lumo=5.193048502335615 dipole="-1.39943251010371 1.8778727557404173 2.048599216250324" free_energy=-245.55541643529128
C       2.7649173378      0.4338313701      1.5883319491     -0.0829066567      0.1185848170     -0.0528789539     -0.1412069864
C       1.9442890050      1.1337322834      0.5093955583      0.4747943597      0.1526496634      0.1915622351      0.0139615181
H       1.4477082929     -1.4686416677     -0.2911954059      0.0212648628     -0.0669500950     -0.1667477712      0.2986968272
H       0.2124682171     -1.6361394093      0.9879318152     -0.2638243379     -0.1048843800     -0.0026847926      0.0951168255
H       2.9598363116     -1.7319663698      1.4386059444      0.1138749598     -0.2174753975     -0.0644771433      0.1177263613
H       1.8254565134     -1.1955608547      2.6892088233     -0.0463138969     -0.0875852453      0.2642318720      0.0672193542
H       2.6824998054      0.9528855350      2.5456856133      0.0252189394      0.1442633295      0.2380728181      0.0703221124
H       3.8138498964      0.4173578475      1.2897328941      0.2194775976      0.0603856304     -0.0570779711      0.1207768283
H       1.7160008333      2.1761873501      0.7338822966     -0.1572991490      0.2678125132      0.0255454581      0.0882825073
H       2.4488571476      1.0690678955     -0.4555055715      0.0564237571     -0.1350635790     -0.1742766368      0.1850975989
H      -1.1526696572      0.1805643650      1.4755985917     -0.2002139983     -0.1517349375     -0.0039735058      0.0880201948
C      -0.2715963619      0.8177185497      1.4631590725     -0.0409892127     -0.0186383652      0.0389472389      0.0854157418
H       0.2306625930      0.7586501422      2.4261208383      0.1651938827     -0.0340592417      0.2619502002      0.1098420913
H      -0.5612697897      1.8471031712      1.2590717548     -0.0698858444      0.2854261496     -0.0581745717      0.0717362120
C       0.0739804507      0.5712007489     -0.9630320482     -0.5212166458     -0.0961078954     -0.1676462918     -0.0333120337
H      -0.1025806819      1.6475364668     -1.0416632412      0.0468243539      0.2903156913      0.0494817422      0.1010091114
H       0.8478371292      0.2940975395     -1.6821108683      0.1545647874     -0.0389605553     -0.0193425697      0.2094509316
H      -1.8379863463     -0.2995239245     -0.3765792703     -0.2773557386      0.0479345661      0.1864159686      0.0936712189
H      -2.0505451264     -3.1670498597     -2.8430584145     -0.0116575159     -0.3146072804     -0.1414835262      0.0647489021
C      -0.9695934645     -1.5711603705     -1.9032371021     -0.5835520455      0.2410455686      0.1859001901     -0.2745696976
H      -0.2730924336     -1.4625155546     -2.7389210212      0.1933064071     -0.0114755652     -0.1008262083      0.1407194301
H      -0.5150185419     -2.2479203823     -1.1767219993      0.1957964708     -0.1451823217      0.0011974741      0.1476285802
C      -2.2688918526     -2.1924041518     -2.4082652271      0.4495560246      0.1070638431      0.1522652518     -0.0373460707
H      -2.7275444463     -1.5624392970     -3.1714269885     -0.1974575276      0.1721828511     -0.2400651623      0.0126658535
N       0.6626035598      0.3576129070      0.4039174572     -0.2483814156      0.2383947870     -0.1057463561     -0.5363062064
C       1.0746572822     -1.0600947995      0.6530616880      0.3078701240     -0.3814477769      0.1500945324     -0.0600883374
C       2.1980234980     -0.9902039391      1.6832290993     -0.1552433225      0.0059000115     -0.0331903748     -0.1257057260
H      -2.9781757061     -2.3239582172     -1.5895914371     -0.2792902030     -0.0664914734      0.2175454674      0.0066507602
C      -1.2153701254     -0.1974670393     -1.2692114322      0.6261501368     -0.2586280929     -0.1556946754     -0.1722026299
H      -1.7756428859      0.4182804944     -1.9808362310     -0.2052489765      0.1790774098     -0.1248468092      0.0986841017
N       2.3364914405     -2.3417127818     -1.8616272056      0.2042284658     -0.0782316557     -0.2717811697     -0.9172312574
S       1.9219869771     -3.4768659708     -2.9409169787     -0.5361414161      0.0902820939      0.4029285602      1.6206411762
S       3.6443550293     -1.4796958958     -2.1750116500     -0.0392016285      0.0661345487      0.5173939924      1.6427421848
C       3.1642834602     -4.8748646256     -2.7883122688     -0.4502251200      0.7563883230      0.0637974157      1.2045647111
C       3.2325384436     -0.2962842816     -3.5773325335     -0.0381568754     -0.6478165882      0.6534600095      1.1996141849
O       0.6862759116     -4.0387526031     -2.4524228050     -0.7774819302     -0.6408200985      0.4844619265     -0.7629911925
O       1.9816892220     -3.0302954156     -4.3095401875      0.3056785697      0.3069804544     -1.1026090976     -0.7343757139
O       4.8060799240     -2.2111309247     -2.6031442020      0.8102671761     -0.5322819306     -0.5615709006     -0.7240221538
O       3.7803912315     -0.5789597146     -1.0413178330      0.0408760914      0.6911143328      0.6708126599     -0.8065750574
F       2.5302926591     -6.0230387494     -2.9646386265     -0.7359742467     -1.2387019695     -0.2654791878     -0.4353956819
F       3.6970641808     -4.8667477940     -1.5755191137      0.6045349754     -0.0758651309      1.3396106097     -0.4383531141
F       4.1161167197     -4.7666858115     -3.6897958584      1.0402960902      0.0489681081     -1.0175882822     -0.4247074269
F       3.8132435455      0.8729130621     -3.3339068564      0.7401501903      1.2320459089      0.2037227509     -0.4440369336
F       1.9107283280     -0.0892168003     -3.5935311789     -1.3252253670      0.2883011630     -0.2076618916     -0.4665609936
F       3.6193715591     -0.7330166566     -4.7514877306      0.4468948482     -0.4482421886     -1.2035745242     -0.4200181069
