62
Properties=species:S:1:pos:R:3:forces:R:3:charge:R:1 energy=-342.2644248692678 homo_lumo=3.7832918489324268 dipole="-2.0406992772910497 1.247874495930225 -1.8406902565629384" free_energy=-342.2644248692678
N       1.3512207755      1.9377102980      1.5814262613      0.1627169673      0.2897963400     -0.2926567067     -0.4976019984
N      -0.1707990131      0.8417721977      2.6387963337     -0.4031274243     -0.1304412303      0.1496576001     -0.5010795118
C       2.2064230605      2.4501795472      0.5165183752      0.5188848995     -0.2978316853     -0.0153221866      0.0022882709
C       3.3929716617      1.5117505511      0.2741500290     -0.6093669699     -0.0614518299     -0.2545275939     -0.1889593787
C      -1.2786336941     -0.0597161122      2.9403065395      0.2075845234     -0.5529500178      0.1200318075      0.0034058356
C       2.9677060264      0.2086898426     -0.4053175261      0.6434227936      0.2394631501      0.2312482821     -0.2292529459
C      -0.8066258354     -1.5169095769      2.9920690756     -0.1431897158      0.3237076271     -0.5491543308     -0.2028580161
C       0.3078969217      1.1214871354      1.4255741119     -0.1448437643      0.0050010836     -0.2526179925      0.5617136368
C       1.5571249520      2.1574821455      2.9139631309     -0.0461443274      0.2237724179      0.1601713086      0.2474324388
C       0.5952341885      1.4679547430      3.5807800164     -0.0290760392      0.2390267896      0.1753097765      0.2528598348
C       4.1825041098     -0.6813160120     -0.6842796719     -0.6406168984     -0.2048489771     -0.0893992427     -0.2172678967
C      -0.5420695205     -2.0942935239      1.5988725936      0.0045237972     -0.2286641262      0.4913317920     -0.2679597682
C       3.7648234430     -2.0112277857     -1.3071568265      0.2230242397      0.3477158423      0.1586403407     -0.0671254703
C      -0.2175541588     -3.5848324900      1.6729445390     -0.0140918821      0.4104758118     -0.1514773343     -0.0618559457
H       2.5583175381      3.4367837158      0.8281251852     -0.0654540042      0.2488575524      0.0753386424      0.1087223823
H       1.5991146266      2.5564153541     -0.3871346735     -0.1441477419      0.0754529410     -0.1479531991      0.0971534114
H       4.1079546949      2.0438646271     -0.3600086678      0.2166752360      0.1544065673     -0.1729998835      0.0833857283
H       3.8791913329      1.2940731310      1.2283528717      0.1523398760     -0.0428349327      0.2273923021      0.1708975857
H      -1.6815504858      0.2414150024      3.9101492976     -0.0947295253      0.1869541294      0.1448543356      0.1100906440
H      -2.0493554969      0.0775021296      2.1758110947     -0.1725492156      0.0808511643     -0.1128949005      0.0963302773
H       2.4494273258      0.4360578840     -1.3443473002     -0.1605379742      0.0482128643     -0.3063837865      0.0537977990
H       2.2677921298     -0.3267257258      0.2435290346     -0.0928756092     -0.1789901030      0.0942443867      0.1812356342
H      -1.5942494421     -2.0951431862      3.4838858111     -0.2230017460     -0.1813128789      0.1546417185      0.0827697383
H       0.0955971278     -1.5809133678      3.6050195964      0.1342713922     -0.0228854186      0.1917258303      0.1927112029
H      -0.1006579146      0.7879240481      0.4882565348     -0.0611564531     -0.0998122334     -0.1800701375      0.0909570127
H       2.3685018369      2.7614297707      3.2784482015      0.1811560242      0.0738389839      0.0575842668      0.0494483144
H       0.4086573201      1.3603582505      4.6343882548      0.0023056944     -0.0497391294      0.1860430053      0.0568494570
H       4.7118860004     -0.8692086735      0.2541456511      0.1233052720      0.0402307436      0.1893110607      0.1404330505
H       4.8697400490     -0.1588337966     -1.3580946211      0.2047861908      0.1767833285     -0.1288471101      0.0660510007
H      -1.4243833955     -1.9406962441      0.9661774960     -0.2592681279      0.0706581229     -0.1947542826      0.0567166990
H       0.2978352615     -1.5650923598      1.1383115810      0.1738349897      0.0690056575     -0.1311704766      0.1613633206
H       3.2780242784     -1.8499235527     -2.2703819955     -0.1511233403      0.0101665354     -0.3256852409      0.0154126911
H       3.0723548718     -2.5383866279     -0.6507822926     -0.1696115325     -0.1798464138      0.1554530910      0.0671208794
H       4.6429883823     -2.6386164568     -1.4595443532      0.1912686899     -0.3046688827     -0.0954407026      0.0292454792
H       0.6605599457     -3.7509076254      2.2951126087      0.1916777399     -0.0803749441      0.1333977086      0.0895250061
H      -0.0141298062     -3.9687295902      0.6734929161      0.0798747802     -0.2296826907     -0.2650709770      0.0265159517
H      -1.0563506304     -4.1382229630      2.0969728044     -0.2558231216     -0.1962153557      0.1158253807      0.0190378569
P       3.6456560568     -0.6759565313      4.5834177947      0.0543867867      0.2519571969      0.3879189860      1.7635446542
F       1.9611036782     -0.4789770046      4.7259239913     -0.0418373910     -0.1484736027      0.0874575198     -0.5496010055
F       3.6755446529      0.4794972778      3.3271048233      0.1644562229     -0.1766362074      0.2803219441     -0.5396765223
F       3.6439474091     -1.7986973196      5.8201742601      0.0442150528      0.1068483552     -0.2123409887     -0.5172669372
C       3.6959378062      0.8261113317      5.8503022996     -0.1488147348     -1.2134400768     -0.0925963373      0.5348981862
C       3.0460436947     -2.0689702624      3.2807232606      0.8422310272      0.2457873941      0.2693216603      0.5136531429
C       5.6017350823     -0.9926540435      4.3152169229     -0.7781546484      0.3813292016      0.5897957586      0.5445112339
C       3.2876153996      0.5758619243      7.3262380539      0.1737496359     -0.2141867486     -0.8055384141      1.3884580533
C       3.8677938870     -3.1179895311      2.4797323351     -0.1849317542      0.5443411011      0.3511153477      1.4306401214
C       6.7531974261     -0.5391222968      5.2581260271     -0.8378491306     -0.0369970226     -0.1982753104      1.4127637717
F       2.8359061206      1.7796905061      5.4075535349     -0.7902764182      1.0427852589     -0.1523050625     -0.4745568509
F       4.9101921865      1.3997271608      5.8572118119      1.0156714268      0.7145463508      0.1340704661     -0.4554406964
F       2.3581949931     -1.3846410076      2.3271231641     -0.4442564710      0.5648300726     -0.9922451959     -0.4767850004
F       2.1318245183     -2.8141899475      3.9356693454     -0.7059755448     -0.9557946777      0.6518523601     -0.4571220411
F       5.9391246731     -0.5628046640      3.0827453454      0.5658219193      0.5552323827     -1.0718247223     -0.4557352820
F       5.6813472086     -2.3412273638      4.2962434763      0.3538971049     -1.1660709034      0.2906373277     -0.4546940640
F       3.2603722364      1.7356322235      7.9908939743      0.0381189441      1.2003468427      0.5439200075     -0.4564879768
F       4.1334660923     -0.2316118989      7.9500194069      0.7827000090     -0.6207149892      0.5519657609     -0.4426702040
F       2.0670236186      0.0474124826      7.3927870213     -1.1308044831     -0.4342005980      0.0543079129     -0.4514979309
F       3.0613426299     -3.6481164211      1.5436789644     -0.7454148575     -0.5274738141     -0.7702539368     -0.4767480981
F       4.9073661527     -2.5936084956      1.8390705218      0.7647622933      0.4414996372     -0.5857268806     -0.4654342581
F       4.2846665373     -4.1146335357      3.2450469681      0.2720950453     -0.9252190621      0.7356908024     -0.4419034439
F       7.1468932872      0.7000226639      4.9812332445      0.4319390043      1.1138414931     -0.3810743486     -0.4504648947
F       7.8076704973     -1.3391924977      5.1006457951      0.9983124326     -0.7791631538     -0.2758963609     -0.4502422845
F       6.3864849464     -0.5997744278      6.5356757923     -0.2249591640     -0.2368012341      1.0639251522     -0.4516518807
