62
Properties=species:S:1:pos:R:3:forces:R:3:charge:R:1 energy=-342.4636462900458 homo_lumo=3.303519557898754 dipole="1.0076717806036959 -0.2955386891840364 -3.4626163289510363" free_energy=-342.4636462900458
N      -0.6576734158      2.8688473237      0.8779513442      0.3490885443      0.2537044603     -0.0897882263     -0.5029826874
N      -2.4639366795      1.8119667045      0.3679791506     -0.3222592601     -0.1319653020     -0.2788739822     -0.5042737831
C       0.7474900088      3.2613361938      0.9386705365      0.2740123116     -0.2167104688      0.4779630056     -0.0021169283
C       1.4951939201      2.4378031656      1.9931690503     -0.1765952327     -0.2293239357     -0.5937018716     -0.2027048286
C      -3.3860228493      0.8449463424     -0.2186966484     -0.1091380205     -0.4399486524      0.3688446471     -0.0006710114
C       1.6365500673      0.9668910294      1.5973634122      0.1561863374      0.3388815474      0.6059006383     -0.2258559483
C      -3.4483806148     -0.4303785585      0.6282622952      0.5167567774      0.1832929104     -0.3786071396     -0.1996880929
C      -1.1661154545      1.9280757891      0.0806670526      0.0904561980     -0.0713415596     -0.2912425205      0.5523891423
C      -1.6405921976      3.3400411893      1.7027283394     -0.1205330880      0.2443743088      0.0429821312      0.2326400238
C      -2.7805484275      2.6747767811      1.3787984864     -0.1379856955      0.1852428467     -0.0283202383      0.2368504001
C       2.2661511604      0.1516477793      2.7322882291     -0.2710011322     -0.2866060087     -0.5764143330     -0.2119532172
C      -2.1194073451     -1.1909588315      0.6300806332     -0.4845824784     -0.1118030820      0.2589852507     -0.2834680658
C       2.2999588420     -1.3358961490      2.3900288142      0.0582102420      0.3983001864      0.1973269783     -0.0657310242
C      -2.2533232030     -2.5431602633      1.3278268953      0.1808864807      0.3523600027     -0.1997275058     -0.0617635432
H       0.7797812360      4.3227016378      1.1962694880     -0.0637550801      0.2494565990     -0.0637374323      0.1147110149
H       1.1824185451      3.1188586586     -0.0546677305      0.0525440122      0.0253418718     -0.2170795296      0.0990718677
H       2.4849249333      2.8854450239      2.1190400191      0.2750875840      0.1521249302      0.0812455323      0.0865519508
H       0.9648451570      2.5159756296      2.9440630992     -0.0220759090      0.0687536289      0.1766315313      0.1880913301
H      -4.3704947794      1.3167862964     -0.2653022514     -0.1572938178      0.1955365603     -0.0953083741      0.1161297657
H      -3.0449359172      0.6243028318     -1.2341393554      0.0457178051      0.0128885576     -0.2150768350      0.0984519606
H       2.2485108926      0.8838729620      0.6919836596      0.1768298520     -0.0585121331     -0.2862558933      0.0585718916
H       0.6473509223      0.5561476552      1.3694471757     -0.1489193144     -0.1770043829     -0.0181058985      0.1704993569
H      -4.2355508370     -1.0612440436      0.2053122825     -0.2520303853     -0.1756962403     -0.0987018566      0.0872797288
H      -3.7345777326     -0.1705791143      1.6504082591     -0.1207641354      0.0272123658      0.1873997908      0.1812797106
H      -0.6357167378      1.3895074815     -0.6847653699      0.1209665698     -0.1424084698     -0.1206477804      0.0881365543
H      -1.4550967554      4.0829369196      2.4586308835      0.0374079329      0.1208865903      0.1973442016      0.0819211624
H      -3.7706247151      2.7309703984      1.7953903073     -0.1933036257     -0.0084360351      0.1341489534      0.0764124406
H       1.6841769240      0.2991031332      3.6470041771     -0.0903791257      0.0959397644      0.2253381480      0.1265413039
H       3.2830922922      0.5118002951      2.9182855375      0.2423544700      0.1440132304      0.0956845426      0.0755002707
H      -1.7847049206     -1.3428840827     -0.4028380033      0.1216533058     -0.0288358492     -0.3038896220      0.0636371952
H      -1.3604981552     -0.5921989850      1.1433730188      0.1747938522      0.0975289865      0.0879311039      0.1786660175
H       2.8773903608     -1.5098610394      1.4806434788      0.1824877041     -0.1094907202     -0.2830025274      0.0153819925
H       1.2878074185     -1.7135830516      2.2379680671     -0.2833965376     -0.1500497735     -0.0381652990      0.0635941193
H       2.7583298036     -1.8937632479      3.2062569808      0.1212035337     -0.2963137340      0.1928827960      0.0309426157
H      -2.5788351994     -2.4096596823      2.3585658347     -0.0768730138     -0.0212592408      0.2780628917      0.0619427658
H      -1.2900966183     -3.0529597938      1.3303323515      0.2501038925     -0.2554303260      0.0587729810      0.0420142037
H      -2.9799571724     -3.1704184960      0.8103786625     -0.2075245541     -0.2295793309     -0.1428887508      0.0265211970
P      -2.7524141833      2.3293399917      5.6463132859     -0.1540200074      0.1546278218     -0.2036591356      1.6753871723
F      -3.7352009053      3.6702237297      5.8032228925      0.0036115252      0.0170142938      0.0745710967     -0.5203244569
F      -2.5406813300      2.2708616346      7.2920036238      0.0322215660     -0.1728573362     -0.1178209437     -0.5146469211
F      -2.9074191353      2.3480495079      3.9298841784      0.0779721576      0.1447071589      0.5149762964     -0.5520598606
C      -4.4368144626      1.3153039214      5.7039917598      0.6693042934      0.7541939040     -0.6326936363      0.5587445076
C      -1.3004574026      3.6368978895      5.3642125954     -0.4056192691     -0.6480282809      0.8634472684      0.5281755358
C      -1.5353687024      0.7258728107      5.5227286943     -0.7637280756      0.6644905901     -0.5989301292      0.6381881729
C      -5.4392836865      1.5600631314      4.5348228539      0.7162171948      0.1445746930      0.3765499269      1.3844586022
C      -0.5743324763      4.2508290008      6.5865380896     -0.5650476444     -0.4715761236     -0.4142785158      1.4038230679
C      -1.4082093973     -0.0037863279      4.1631831839     -0.3761294067      0.6857318749      0.3676638926      1.4275429111
F      -5.0828512777      1.6289980171      6.8360247422     -0.7413385891      0.3137165889      1.0909846786     -0.4379537488
F      -4.2473359942     -0.0183416137      5.7086125246     -0.1085555409     -1.3672196571     -0.0032630313     -0.4569735593
F      -1.8042157868      4.6807163363      4.6694683755     -0.4382505024      1.2112929339     -0.5969174298     -0.4647973695
F      -0.3406389802      3.1212863835      4.5533770846      1.0172819606     -0.2250183893     -0.6534663663     -0.4866705769
F      -1.9094113744     -0.2025811380      6.4201769747     -0.2568595144     -0.9237860092      0.7874915554     -0.4451731429
F      -0.2800986540      1.0881141425      5.8659775311      1.2161029533      0.0680233236      0.3273675817     -0.4599786742
F      -6.6211874353      1.0168152643      4.8244260596     -1.0919470257     -0.5964058007      0.4116669094     -0.4510212039
F      -5.0054966455      0.9771617574      3.4038478306      0.2101726233     -0.6352175288     -0.9564798969     -0.4828338793
F      -5.6387880954      2.8446613389      4.2641887039     -0.2785750451      1.0987449628     -0.1747306072     -0.4509292089
F      -1.4283152537      4.9061138804      7.3627657876     -0.8146210905      0.6151240424      0.6013108901     -0.4416221358
F       0.0392657739      3.3254477781      7.3140409280      0.5801778825     -0.8364298874      0.5644662271     -0.4454040494
F       0.3545035228      5.1215769563      6.1698879235      0.8865193093      0.8454523078     -0.5305888528     -0.4612198020
F      -2.5914236916     -0.4226489197      3.7141536990     -0.8720217203     -0.4031229438     -0.1485078781     -0.4795411554
F      -0.6061626523     -1.0665804976      4.2361556887      0.7919578795     -0.9926647125      0.2890611304     -0.4688665040
F      -0.8961031620      0.8051436520      3.2203939509      0.4768370867      0.5495080706     -0.5861305379     -0.4888245733
