25
Properties=species:S:1:pos:R:3:forces:R:3:charge:R:1 energy=-132.34406817658248 homo_lumo=3.484346228937699 dipole="-0.9032674604752927 -2.1049992142974596 -0.6256793110560135" free_energy=-132.34406817658248
N       0.2617751573      0.1508925845      0.0813577730      0.0137709831     -0.0140160060      0.0106045898     -0.5110003109
C      -0.4286702386     -1.1285642233     -0.3081275719     -0.0045588503     -0.0089831216     -0.0067676285      0.0209397410
C      -0.7761063426      0.8476674279      0.9475620299     -0.0005330585      0.0014643893     -0.0015949771      0.0063032334
C      -1.8894960225     -0.7351319880     -0.5592556614      0.0048319884      0.0138616525      0.0085233150     -0.1432136358
C      -2.1012196590      0.5826017083      0.2393701575      0.0042654870      0.0049642489     -0.0009805018     -0.1575257524
C       1.5238206618     -0.0626447585      0.8946839490      0.0227375384     -0.0160422771     -0.0057512076     -0.0647604231
C       0.5520210165      1.0006485373     -1.1234736832      0.0099245293      0.0085725687     -0.0050931114      0.0477508561
C       2.6273517006     -0.7883275285      0.1530942139     -0.0150991764      0.0055107959     -0.0103305096     -0.0934109131
H      -0.3348087534     -1.8048403510      0.5554006986     -0.0072433272     -0.0041267440     -0.0018919865      0.1217851541
H       0.0784328039     -1.5723421336     -1.1744281693     -0.0048057753     -0.0070188243      0.0024973701      0.1124068438
H      -0.4350662499      1.8977569134      1.0699103681     -0.0111230591      0.0133392440      0.0079158760      0.1642536903
H      -0.7336295295      0.3410347212      1.9237749111     -0.0070541020     -0.0076522184     -0.0008638098      0.1119588070
H      -2.5574584087     -1.5416024774     -0.2235505626     -0.0025278725      0.0063532022      0.0050544208      0.0960951821
H      -2.0797448765     -0.5836456188     -1.6317042766      0.0082133588      0.0082661050     -0.0021877306      0.0861209962
H      -2.3656494648      1.4131374387     -0.4316127109      0.0163007820      0.0028005815     -0.0099475999      0.0900107579
H      -2.9137403505      0.4956911608      0.9745394978      0.0054395038     -0.0034177850      0.0022446635      0.0983556850
H       1.8218161844      0.9686153564      1.1950721328      0.0041757796      0.0088699070      0.0043704808      0.1935445137
H       1.2003512988     -0.6291549319      1.7820088593      0.0076218601     -0.0035557690      0.0020348590      0.0931397882
H       1.2276733888      0.4490316835     -1.7871092004     -0.0045466630     -0.0137353198     -0.0011756340      0.0606178817
H      -0.3917591150      1.2093404608     -1.6407755482     -0.0052370133     -0.0164254262      0.0009081842      0.0872611873
H       1.0060902567      1.9401041889     -0.7328711435     -0.0058744359      0.0091047771      0.0042611080      0.1396208140
H       3.4503506318     -0.9607828982      0.8632708319     -0.0121501177      0.0121787696      0.0026891103      0.0812534659
H       2.3184898980     -1.7709034795     -0.2371874894     -0.0016020044      0.0104150373      0.0017043808      0.0320984978
H       3.0381188772     -0.1823333685     -0.6663194737     -0.0047912039      0.0048279637     -0.0001957086      0.0570208349
Cl      1.4850570853      3.2526879696      1.0474775492     -0.0101351507     -0.0155557512     -0.0060279530     -0.7306268948
