41
Properties=species:S:1:pos:R:3:forces:R:3:charge:R:1 energy=-223.98646479458802 homo_lumo=1.4430078142684377 dipole="-6.823634541820636 -1.571768504123293 0.3428368283335409" free_energy=-223.98646479458802
N       1.0971777133      0.0133299427     -0.0208344127     -0.9743202884     -0.7613611559      0.0060133805     -0.5416383542
N      -1.1245209438      0.0162379071     -0.0249380916      0.6788221920     -0.7514620861      0.0124272622     -0.5607096753
C      -0.0145969333     -0.7473363879     -0.0272721510      0.1430684265     -1.3335726810      0.0038493218      0.5908174816
C       0.6784367394      1.2937258413     -0.0127000707     -0.8005430685      1.5072947337      0.0080556588      0.2630411504
C      -0.7019257635      1.2955841731     -0.0164689171      0.7967404715      1.5960409985      0.0229062621      0.2420964204
C       2.4789157393     -0.4465089382      0.0053181767      0.8612445316     -0.3488906797      0.0105165368      0.0287578197
C      -2.5079658181     -0.4408569911     -0.0152811573     -0.6146968877     -0.2611882369     -0.0085910588      0.0609669682
H      -0.0159229758     -1.8306818700     -0.0250594613      0.0131930550     -0.0136609522     -0.0135511527      0.1068195334
H       1.3263675168      2.1607310804      0.0016233160      0.2884824033     -0.0735019722     -0.0102571088      0.0871288287
H      -1.3470029522      2.1646553621     -0.0071174640     -0.2135965664     -0.0810752336     -0.0110223102      0.0664485095
H       2.5225941585     -1.5562561980     -0.0191850056     -0.1663637519      0.4903029939      0.0032698313      0.0854244288
H       3.0247101676     -0.0455579639     -0.8746043479     -0.1739401243     -0.0598592084      0.3418734101      0.1296823766
H       2.9673762570     -0.0890942269      0.9349442815     -0.1728336622     -0.0536827336     -0.3533793680      0.1359372949
H      -3.0191756671     -0.0630238781      0.8950250276      0.2616277272     -0.1164185908     -0.2944157574      0.0982038368
H      -3.0335037444     -0.0590820495     -0.9155663598      0.2609140171     -0.1207426370      0.2867682385      0.0987340101
H      -2.5520740285     -1.5509015892     -0.0168631429      0.1617949602      0.4893881359     -0.0041668889      0.0921081478
P       7.4679393367      1.5569216409     -0.4266412455     -0.7526430867      2.3333874527      0.4551505946      1.6449471085
F       6.9583784375      3.1848049561     -0.6555272061      0.6577277183      1.2574020012      0.6578602666     -0.5282020083
F       9.0931232211      1.4598659804      0.1393024851     -0.2833768443     -0.1344541704     -0.8690455786     -0.5119476700
F       5.7755734551      1.3846554504     -0.6888757211     -0.3123019626     -0.4657777798     -0.3976340611     -0.5386638222
C       7.3047647142      2.1487185395      1.4140631925     -0.1916278257     -0.4787019068      0.0603808954      0.5412559863
C       8.1985838828      2.1186740465     -2.1295282916      0.1158703631     -0.7529688855     -0.5706939583      0.5444049801
C       7.2886493847     -0.3560909283     -0.6407115560      1.1458138572     -0.0896707023     -0.0099530603      0.5368803752
C       5.9268617468      2.6978042585      1.8767819684     -0.0751253883      0.8249003653      0.0994295587      1.3325933376
C       9.1447305627      1.1343198045     -2.8494899109      0.7684418659     -0.0470888122     -0.5203126881      1.3289711367
C       6.6778901019     -1.1367192590      0.5402350174      0.2171190094     -0.5781264442      0.5002887451      1.3672952377
F       8.2212727621      3.1677151211      1.6435037896     -0.6665839602     -0.3469628640      0.0709501012     -0.4326148301
F       7.6412614072      1.1110105196      2.2614554292     -0.2370348646      0.3165474433      0.4616627254     -0.4544304718
F       8.9350970535      3.2862571128     -1.9546702130     -0.1969697142     -0.8563608206     -0.1968176747     -0.4322918371
F       7.1532830956      2.3911124000     -3.0012442984      0.4813311665     -0.1431317867     -0.0571072107     -0.4429305086
F       8.5455448142     -0.9000521307     -0.8396175026     -0.4420776736     -0.4857834961      0.1290538232     -0.4418646527
F       6.5374365421     -0.6358040582     -1.7751196036      0.1466234898     -0.1712286691      0.5408684964     -0.4463592623
F       5.9661990060      2.8958817403      3.2458604153     -0.2782215352     -0.0704433623     -0.6049330831     -0.4535133095
F       4.8932101972      1.8254855830      1.6103810815      0.3006366061      0.8335704564      0.5457063297     -0.4682718854
F       5.6455513714      3.9182281072      1.2895186698     -0.1794944390     -1.1195167206      0.8621900219     -0.4363551551
F       9.6767868468      1.7629001098     -3.9617293662     -0.1035392226     -0.4946418314      0.4019468517     -0.4535617367
F      10.1972303871      0.7584868738     -2.0361269672     -0.8308601534      0.1982223207     -1.1605789902     -0.4354945596
F       8.4720435217      0.0141014061     -3.2949477444      0.7618169962      0.8422854610      0.1643765996     -0.4492730721
F       7.6034095130     -1.2848667432      1.5565515913     -1.0943319387     -0.0886590449     -0.9163603252     -0.4331317921
F       6.3263402714     -2.4039129214      0.1086621219     -0.0066962588      0.4923598941      0.4151190271     -0.4573801393
F       5.5463685007     -0.5309528381      1.0343094052      0.7059103606     -0.8827687922     -0.0618436637     -0.4638802265
