34
Properties=species:S:1:pos:R:3:forces:R:3:charge:R:1 energy=-181.73876483779648 homo_lumo=3.5675305789167266 dipole="-0.38597706320948677 -1.658459745144628 -1.4727392715435959" free_energy=-181.73876483779648
N      -1.4834646346      0.6131368576     -0.1980024952     -0.0650603047      0.2979266829     -0.1595223110     -0.5266446904
C      -1.9078058875     -0.4767167908     -1.1266659576     -0.1316804965     -0.4100133946      0.0350345002      0.0346232774
C      -2.6138940746      0.6860467663      0.7857140368     -0.4988003747     -0.4845498112      0.3871714811      0.0253477825
C      -0.2194316586      0.2626918985      0.5406970058      0.6531799347     -0.3039558848     -0.3756384383     -0.0290190921
C      -2.5829561110     -1.5208657036     -0.2371665326      0.0466718003     -0.0006260450     -0.0661078312     -0.1439696184
C      -3.0163385962     -0.7618987718      1.0302798316      0.0834978934      0.0706932644     -0.1679972593     -0.1402876531
C      -1.3352891960      1.9169334070     -0.8939640856      0.1415430184      0.0738618912     -0.3580744501      0.0767127411
C       1.0329642466      0.1914453164     -0.3268869887     -0.2873489699     -0.1510380239      0.5493551563     -0.2011509132
C       2.2144533325     -0.2483381346      0.5468261232      0.0156369385      0.1867818732     -0.7598511143     -0.1519149690
C       3.5118703390     -0.2982161820     -0.2653161214     -0.0437317774     -0.1773467377      0.6640788644     -0.1973177179
C       4.6919029279     -0.7293421393      0.6036061548     -0.2243706963      0.1295528570     -0.3974511800     -0.0456693511
H      -1.0471045643     -0.8610095496     -1.6728210539      0.1990002988      0.0165794886     -0.1650011735      0.1256051868
H      -2.6186886719     -0.0459921749     -1.8358264702     -0.1237836147      0.1901978387     -0.1267460706      0.1102161848
H      -3.4256356425      1.2408452445      0.3096973446     -0.1015234982      0.1734999391     -0.1774002870      0.1048821464
H      -2.2747675517      1.2315727744      1.6704820292      0.1904863550      0.4327599651      0.1670114244      0.1588788586
H      -0.3896127487     -0.6958183522      1.0352024590     -0.1209402674     -0.2618759405      0.0709069493      0.1255112728
H      -0.0952214931      1.0451599363      1.2988911091     -0.1639625995      0.4030093889      0.3047604650      0.1930136775
H      -1.8881835999     -2.3258380046      0.0106442783      0.1272734700     -0.2429100576      0.0139007437      0.0790196460
H      -3.4376094288     -1.9584069805     -0.7560066306     -0.1409590321     -0.1797384561     -0.1661716247      0.0881728786
H      -4.0930643707     -0.8330584315      1.1912692060     -0.2349728813     -0.0080921926      0.1328133361      0.0895518615
H      -2.5144890465     -1.1652851416      1.9118502119      0.0695779763     -0.0744521024      0.2499617189      0.0803424396
H      -0.5852668732      1.8270649787     -1.6759004254      0.1898169541     -0.1080338462     -0.2438512538      0.0579791265
H      -2.2922856585      2.1923771278     -1.3333295332     -0.3009723679     -0.0119287799     -0.1047959843      0.0499403548
H      -1.0379261477      2.6548996622     -0.1436080024      0.0912954008      0.2685742739      0.4557325388      0.1377257117
H       0.9086108105     -0.5175178410     -1.1517459522      0.0687283107     -0.1879801577     -0.2640420967      0.0814864223
H       1.2554493560      1.1733472736     -0.7524023612      0.0660895997      0.2484560431     -0.0782499873      0.1085977372
H       2.0071516825     -1.2373349884      0.9698298222     -0.0234989323     -0.2583646172      0.1568178513      0.0779472697
H       2.3286300062      0.4548166339      1.3775025258      0.0047279154      0.1694881619      0.2531543983      0.1111039879
H       3.7134450506      0.6914199907     -0.6884702744      0.0098390434      0.2448148053     -0.1556741301      0.0855827782
H       3.3947378442     -1.0008439277     -1.0978503693     -0.0453608719     -0.1287485429     -0.2603081142      0.0735613687
H       4.8347982737     -0.0289305109      1.4272081726      0.0803454014      0.1844865273      0.2742962182      0.0360126369
H       5.6040332325     -0.7558918606      0.0072894043      0.3553267240     -0.0473152716     -0.0807837856      0.0308398272
H       4.5184611262     -1.7231217271      1.0188564976     -0.0056411649     -0.2960833294      0.1560977633      0.0261509291
Cl     -0.8415198166      2.9722336431      2.1161951058      0.1195708150      0.2423701910      0.2365736827     -0.7328320986
