34
Properties=species:S:1:pos:R:3:forces:R:3:charge:R:1 energy=-181.91658887606508 homo_lumo=3.7409956163749074 dipole="-0.2372625162098423 1.422236008056111 -1.6474187187445064" free_energy=-181.91658887606508
N      -1.3817544154      0.4541792617      0.0126354472     -0.0045174767     -0.0011935538     -0.0003219632     -0.5090624305
C      -1.6828789849     -0.9779468007     -0.4239724517      0.0001459094     -0.0117524553     -0.0055266979     -0.0118788422
C      -2.4246875922      0.7009517918      1.0930895408      0.0036656833      0.0011069784      0.0043493885     -0.0027549273
C       0.0029384317      0.5721096710      0.6231625091      0.0027379523     -0.0020349091     -0.0107113704     -0.0291484761
C      -3.1850942144     -1.1962234679     -0.1795720556      0.0099864327     -0.0051759859     -0.0105310473     -0.1297694227
C      -3.6937301230      0.0670269899      0.5501364414      0.0104200991      0.0097390496      0.0024566145     -0.1486034694
C      -1.5672584680      1.3994665898     -1.1224205499      0.0015734757     -0.0066250650      0.0105741395      0.0771538652
C       1.1390426670      0.2265739608     -0.3228702628     -0.0122587995      0.0038494614      0.0139912538     -0.1991313955
C       2.4574801651      0.1454986009      0.4542329928     -0.0060069978     -0.0015002327     -0.0191051173     -0.1624717931
C       3.6441214990     -0.1974901937     -0.4454986616      0.0101661713      0.0006004419      0.0142004286     -0.2044569424
C       4.9621987306     -0.2889066381      0.3209448693      0.0026731265     -0.0034068369     -0.0014267511     -0.0675506155
H      -1.1160401815     -1.6147856848      0.2835117547      0.0044313414     -0.0054457611     -0.0069045284      0.1840068799
H      -1.3584667407     -1.0994124857     -1.4652120122     -0.0000346191      0.0043478325     -0.0098640347      0.0790251014
H      -2.4707333584      1.7790088760      1.3022930764     -0.0009830018      0.0099692040      0.0003516598      0.0731466764
H      -2.0605996587      0.1120770316      1.9619294333     -0.0000436573     -0.0013642163      0.0094278977      0.1897689624
H      -0.0283917076     -0.1415375244      1.4774454326      0.0123316822      0.0045176510      0.0024621741      0.1934194793
H       0.0860286248      1.6051539398      0.9998518835     -0.0035491426      0.0048530054     -0.0104783720      0.0947434902
H      -3.2789809458     -2.0703407760      0.4830459762     -0.0042378505      0.0044409315      0.0031501208      0.1256424637
H      -3.7419871516     -1.3868845291     -1.1081831205     -0.0063358509      0.0093521082     -0.0067071215      0.0635082747
H      -4.2401849218      0.7398984502     -0.1297835244      0.0059990689      0.0136046529     -0.0076488219      0.0622285450
H      -4.3691248734     -0.1846602572      1.3807700007     -0.0001784054     -0.0017750688      0.0017367893      0.1047302812
H      -0.8558789912      1.1487932702     -1.9184489564     -0.0087544680      0.0069917602      0.0112160870      0.0906600612
H      -2.5922587598      1.3071491488     -1.5025080316      0.0209897215     -0.0009055500      0.0012254502      0.1075218523
H      -1.3858204084      2.4223482667     -0.7642382529     -0.0106023193     -0.0142230083     -0.0085349555      0.0714104440
H       0.9489864268     -0.7571547722     -0.7860150256      0.0071912278      0.0024197246      0.0034338337      0.1171952902
H       1.2434894161      0.9669532351     -1.1366286893     -0.0058094622     -0.0084359964     -0.0003539112      0.0752283466
H       2.3530931841     -0.6164094636      1.2473482844      0.0002510235      0.0076873685     -0.0028580435      0.1206595557
H       2.6488672760      1.1093984090      0.9625890165     -0.0023424248     -0.0058399710     -0.0022132879      0.0853135736
H       3.7312808767      0.5635240226     -1.2432471422     -0.0060377391     -0.0018502373      0.0026545546      0.0771189704
H       3.4448709474     -1.1597146027     -0.9521481336     -0.0041566464      0.0013632264      0.0029125582      0.0872157328
H       5.2003574125      0.6668749184      0.8153679864     -0.0122799286     -0.0009008157     -0.0011567152      0.0333229152
H       5.7995607072     -0.5386801570     -0.3489436356     -0.0105068502      0.0001471655      0.0037387427      0.0370486267
H       4.9106961633     -1.0649918460      1.1012039034     -0.0108733539      0.0014254704      0.0002643329      0.0434901901
Cl     -1.0065129409     -1.8903165786      2.5945730149      0.0169460784     -0.0139863689      0.0161967131     -0.7287312635
