26
Properties=species:S:1:pos:R:3:forces:R:3:charge:R:1 energy=-145.8437499797421 homo_lumo=2.658325155940649 dipole="-0.3030603270903156 -1.638347198280786 -1.3007213981640149" free_energy=-145.8437499797421
N      -0.5891484825     -1.1887098174      0.3610592199      0.0109386635     -0.0006536041      0.0051808985     -0.5159018653
N       1.5302191483     -0.7950913150      0.2424030815     -0.0029507872     -0.0036852476     -0.0005208023     -0.5030759612
C      -2.0002499965     -1.0407601517      0.7260716372     -0.0042631182     -0.0094303607      0.0108021081      0.0037364275
C      -2.6824250871      0.0489282594     -0.0996075550     -0.0204085970     -0.0029889757     -0.0091189202     -0.2218814482
C       0.4153926137     -0.5017029669      0.9338775020      0.0147337388      0.0153175610      0.0107433029      0.4947753896
C      -0.1076093706     -1.9219604234     -0.7082005666      0.0044389651     -0.0115167063      0.0000341505      0.1924303212
C       2.8151033835     -0.1087663939      0.4564724814      0.0105072618      0.0050147458      0.0156868465     -0.0462143968
C       1.2323228517     -1.6725869127     -0.7815834325      0.0047822232     -0.0084976479      0.0045078501      0.2003626320
C      -2.0785607042      1.4323619178      0.1179916736      0.0022278128      0.0132135389     -0.0131532714     -0.0979681569
C       2.9228863874      1.1066586112     -0.4502691947      0.0112944177      0.0075047347     -0.0077190800     -0.0789713859
H      -2.0240331084     -0.7935882767      1.7977170480     -0.0050471237      0.0149925611      0.0126985600      0.1263120830
H      -2.4789790354     -2.0224305028      0.5861806858     -0.0089270290      0.0154737997      0.0044602283      0.1015313457
H      -2.6393363994     -0.2307137418     -1.1679214855      0.0012007737     -0.0047972694     -0.0016622211      0.0912634758
H      -3.7501172155      0.0424293248      0.1823457438      0.0024778876      0.0066932278      0.0137109831      0.0955719961
H       0.3942222284      0.3616185335      1.6960820736     -0.0036245237     -0.0041420262     -0.0034615887      0.1639717662
H      -0.7465894890     -2.5679380001     -1.2972807458     -0.0003027494     -0.0029470420     -0.0272045790      0.0327636828
H       2.8242012034      0.2089417692      1.5105839922     -0.0039910300      0.0066212297     -0.0056686744      0.1405874886
H       3.6120241929     -0.8474710579      0.2815639690     -0.0034779101     -0.0009525705      0.0057515757      0.0924818032
H       1.9908489135     -2.0620425191     -1.4499459756     -0.0039114198      0.0158386552     -0.0068635171      0.0360551473
H      -1.0333659983      1.4861054511     -0.2210474534     -0.0085350367     -0.0065139450     -0.0147268959      0.0902232840
H      -2.0643209599      1.7113788274      1.1831410631     -0.0026745648     -0.0009660114     -0.0049117663      0.0697030303
H      -2.6476667798      2.1950901602     -0.4345129850     -0.0018092267     -0.0167104355     -0.0016070853      0.0424661568
H       2.8018611174      0.8284835865     -1.5082337953      0.0024964563      0.0083340672     -0.0120293909      0.0304851137
H       3.9085030575      1.5780289532     -0.3210801301     -0.0022569475     -0.0128571921      0.0099302489      0.0495328371
H       2.1538555859      1.8374242179     -0.1526107964      0.0008406998     -0.0048268225      0.0056027646      0.0967602735
Cl      0.8250810146      2.0931925287      2.3553981368      0.0062411637     -0.0175182642      0.0095382756     -0.6870010402
