26
Properties=species:S:1:pos:R:3:forces:R:3:charge:R:1 energy=-145.80652879758622 homo_lumo=3.309429340224558 dipole="-0.09945550063599376 -1.4899897688471715 0.31935828474887545" free_energy=-145.80652879758622
N      -0.4691504628     -0.5552139922      0.4263119891      0.0021956051     -0.0095130419      0.0033656397     -0.4989681132
N       1.7053755239     -0.6906131354      0.4345207404     -0.0162193128     -0.0124713250     -0.0046546338     -0.5033415894
C      -1.8080860413      0.0101515223      0.5882357318     -0.0239602490      0.0127684163     -0.0056375624      0.0032203859
C      -2.2598815927      0.7461320300     -0.6701030604      0.0082212389     -0.0092179286     -0.0029635583     -0.2434088285
C       0.6567327005      0.0192734975      0.9010616189     -0.0063513456     -0.0117026445     -0.0023375650      0.5705491513
C      -0.1176362997     -1.5535671658     -0.4691697945      0.0029169623     -0.0063253307      0.0109109415      0.1958779189
C       3.1039381472     -0.2943679456      0.6079484100     -0.0030038637      0.0001951636      0.0019001258     -0.0435093037
C       1.2397130557     -1.6385861237     -0.4634026298      0.0050316192     -0.0021530173      0.0028023239      0.1993007301
C      -3.6069853848      1.4281191214     -0.4631025232      0.0070500977      0.0013218863     -0.0095320860     -0.0753630881
C       3.6618668861      0.3288288666     -0.6621560409      0.0122684331      0.0069940992     -0.0108772324     -0.0895743839
H      -1.7532321181      0.7100838258      1.4357618726     -0.0007369737      0.0068191723     -0.0054395982      0.1185014404
H      -2.4941604235     -0.8088008036      0.8629796452     -0.0078922954      0.0027280559      0.0010400624      0.0948006400
H      -1.4749146434      1.4856500431     -0.9113578366      0.0128740384     -0.0057207526     -0.0016941879      0.1766818834
H      -2.3200560128      0.0297360331     -1.5081691847      0.0005716151     -0.0099593447     -0.0058579454      0.0823432095
H       0.6999514181      0.7590182291      1.6862820249     -0.0033918167     -0.0125828944      0.0167307086      0.0976502211
H      -0.8603801161     -2.1187218809     -1.0170175015     -0.0007867378      0.0049888692     -0.0035986739      0.0304576383
H       3.1159526707      0.4373452641      1.4280361862      0.0022286303      0.0099939579      0.0092665086      0.1180778177
H       3.6688181651     -1.1837850170      0.9286258190      0.0140014387     -0.0113934852      0.0087683952      0.0976827256
H       1.9110014392     -2.2892856266     -1.0081950203      0.0004982554     -0.0034293964     -0.0003995300      0.0322467869
H      -3.5435996242      2.1864851851      0.3330630867      0.0050686391      0.0079484610      0.0087087938      0.0422871206
H      -4.3979244853      0.7097260917     -0.1915437353     -0.0038239307     -0.0066131051      0.0035168556      0.0226214575
H      -3.9176800732      1.9409795705     -1.3847124145     -0.0188832139      0.0097595319      0.0043985867      0.0514995248
H       3.6942773446     -0.4016775198     -1.4844636036      0.0012488582     -0.0046781157     -0.0050251198      0.0287574972
H       4.6862086923      0.6821358435     -0.4741827790      0.0116372637      0.0087310526     -0.0109762066      0.0380985722
H       3.0224981473      1.1804019515     -0.9477803878     -0.0009993019      0.0066293996      0.0037624189      0.1210684396
Cl      0.8238364424      2.3852841446     -0.1971178347      0.0002363462      0.0268823163     -0.0061774611     -0.6675578538
