36
Properties=species:S:1:pos:R:3:forces:R:3:charge:R:1 energy=-205.20399000824244 homo_lumo=4.588777242412724 dipole="-0.47988622830912686 0.41489805097130544 2.4117279895226065" free_energy=-205.20399000824244
N       2.4460210979     -0.8030532972      1.0320062906      0.0018954290     -0.0028723665      0.0003458757     -0.5128673987
N       3.5325784197      1.0724473413      0.9919970310      0.0029966763     -0.0008174720     -0.0036368127     -0.5508800921
C       0.1548571638     -1.7544831475      0.7128746042     -0.0015786113      0.0140027500     -0.0004001658     -0.1719047289
C      -0.4049851297     -0.5909701955     -0.1045420039     -0.0128474621     -0.0115075536      0.0123137798     -0.2189790164
C       1.6597001426     -1.9519985170      0.5529692680     -0.0135591284     -0.0016746660     -0.0212506980     -0.0195977142
C      -1.9317456519     -0.5270462667     -0.0920936318      0.0133525827      0.0148273108     -0.0020042656     -0.1545732944
C      -2.4726176529      0.6365774566     -0.9229576355      0.0047483937     -0.0192328338      0.0132705326     -0.2060473268
C       2.7068030217      0.2824813506      0.2943199985      0.0132129673     -0.0069936897      0.0053237273      0.5983802375
C       3.1240409127     -0.7062032518      2.2301043395     -0.0118010791      0.0029487746     -0.0071576332      0.2042004946
C      -3.9971403864      0.7122562383     -0.9241276556      0.0115812176      0.0108858139     -0.0095743749     -0.0645073163
C       3.8082604546      0.4748480102      2.2076018246     -0.0126159402      0.0046423446     -0.0095006285      0.2078309683
C       4.0977232382      2.3207050300      0.4820433017     -0.0083102418     -0.0095914660     -0.0000812203      0.0865625403
H      -0.1006954960     -1.6359255202      1.7819573187      0.0090879648      0.0024232701     -0.0014837269      0.0804023035
H      -0.3143484298     -2.6962515533      0.3761881728     -0.0059400220     -0.0004495468      0.0068034402      0.1010198341
H      -0.0445172282     -0.6733133502     -1.1445895526      0.0043569294      0.0040919074     -0.0054727053      0.1464057874
H      -0.0126454716      0.3640524342      0.2906895586      0.0061417612      0.0084292348      0.0048016071      0.1056907023
H       1.9372953698     -2.0815243720     -0.5046401358     -0.0038561821      0.0037593945      0.0046417096      0.1873626221
H       2.0134244418     -2.8252643854      1.1188550404      0.0101877623     -0.0088343408     -0.0045483967      0.0958252571
H      -2.3414713775     -1.4760702789     -0.4860688326      0.0027318258     -0.0092057567     -0.0025925849      0.0856972596
H      -2.2970783661     -0.4375369025      0.9486621962      0.0058541349     -0.0004397509      0.0084698076      0.0762146413
H      -2.0536955817      1.5831148504     -0.5341473009     -0.0006339013      0.0012193776      0.0037760055      0.0814346672
H      -2.1021039073      0.5382900733     -1.9590478264      0.0011656121     -0.0011150375     -0.0009003151      0.0973701394
H       2.3544642261      0.4502416969     -0.7202373217      0.0036707594     -0.0051263064     -0.0023305570      0.1740196548
H       3.0870084900     -1.4898055244      2.9770901765     -0.0207371537      0.0095872774     -0.0058803710      0.0387305210
H       4.4744897798      0.9265752033      2.9319544085     -0.0126521233     -0.0003531764     -0.0044069371      0.0392534685
H      -4.3878676000      0.8411547525      0.0978652498     -0.0049635644      0.0000252371      0.0106627123      0.0296682284
H      -4.3555011621      1.5572184179     -1.5319579390     -0.0017387495     -0.0069988810      0.0065490845      0.0388453452
H      -4.4369807269     -0.2097570226     -1.3373195957     -0.0005868881     -0.0094881072      0.0010089307      0.0343827142
H       4.1607154824      2.2319382744     -0.6112894828     -0.0065437863     -0.0043552270      0.0019428331      0.1333397144
H       3.4609292672      3.1657429779      0.7762197559      0.0130941563     -0.0061196318     -0.0080031959      0.0554949252
H       5.1031952035      2.4428568134      0.9015941597     -0.0070448781     -0.0054383612     -0.0150289276      0.0564991370
B       3.5062858040     -0.4470472893     -2.5891778739      0.0161072452      0.0086816404     -0.0008049408      1.3947762317
F       3.9052314790     -0.8703272925     -3.8489044403      0.0091749020      0.0069019802     -0.0157736322     -0.5230673335
F       2.0768321694     -0.6196134378     -2.4112796239     -0.0192300213     -0.0025399246      0.0064147072     -0.5817083457
F       3.7793734680      0.9531514714     -2.3870241554      0.0087723399      0.0235329461      0.0092112215     -0.5766470462
F       4.1521461742     -1.1814952100     -1.5466118604      0.0065070733     -0.0028051635      0.0252961145     -0.5686277822
