36
Properties=species:S:1:pos:R:3:forces:R:3:charge:R:1 energy=-205.26509904822237 homo_lumo=4.569948102835619 dipole="1.5052063320167557 -0.837897048984959 1.6962146718671225" free_energy=-205.26509904822237
N       1.6797550066     -0.9640693884     -0.5667028886      0.0042309137     -0.0055533975      0.0044996594     -0.5168366578
N       2.6968655940      0.8896126896     -1.0470733482     -0.0015595548     -0.0060178557     -0.0024653553     -0.5488856630
C      -0.4735155008     -1.9443410034      0.1524070389      0.0068348935      0.0051238992     -0.0023227314     -0.1864573131
C      -1.2922338696     -0.7376914764     -0.2932521888      0.0015686792     -0.0165232816      0.0193206467     -0.2162541636
C       0.7902198134     -2.1319057134     -0.6842334641     -0.0000144781      0.0045222053     -0.0013360800     -0.0031655372
C      -2.5790622448     -0.5439009004      0.5008223865      0.0059424116      0.0068960400     -0.0075075002     -0.1584904685
C      -3.3874178060      0.6448207341     -0.0196491157     -0.0043602631     -0.0106299463      0.0170821831     -0.2124182524
C       1.9579896764     -0.1053176560     -1.5558043877      0.0042648768      0.0066168969      0.0032081138      0.6043433724
C       2.2438421005     -0.5014236655      0.6055016347     -0.0086478266      0.0005565666     -0.0019925638      0.1935107207
C      -4.6802253773      0.8708217137      0.7576089629     -0.0043831271      0.0158911674     -0.0117522563     -0.0614361828
C       2.8801187495      0.6667663219      0.3022306066      0.0009061332     -0.0014943434      0.0017715734      0.2189585420
C       3.0539271365      2.1112965895     -1.7684020030     -0.0024315703      0.0001512061      0.0045867842      0.0878168845
H      -0.2045930740     -1.8629307790      1.2225089933     -0.0043768199     -0.0059346935     -0.0058175872      0.0845222609
H      -1.0646680992     -2.8721819924      0.0534556354     -0.0039343520     -0.0064208899     -0.0046367321      0.0950516919
H      -1.5272853142     -0.8370524721     -1.3657741641      0.0006990609      0.0017033198     -0.0017535766      0.1478695398
H      -0.6829334971      0.1790779073     -0.2238856913     -0.0016072734      0.0035295949      0.0034871970      0.1527747155
H       0.5357908707     -2.2155799552     -1.7507547690      0.0025901850      0.0039652191      0.0018606723      0.1385856836
H       1.3646777404     -3.0204959582     -0.3791336597      0.0036925799      0.0046418222     -0.0066006888      0.1051569313
H      -3.1973952701     -1.4604632118      0.4450993410      0.0014640425      0.0005180566     -0.0002043019      0.0694014115
H      -2.3433786044     -0.3905700173      1.5719640963     -0.0014298289     -0.0012842694      0.0044703110      0.0629492440
H      -2.7587142047      1.5517603701      0.0158958055      0.0044028498      0.0010662444      0.0035405232      0.1011998896
H      -3.6137638738      0.4821831390     -1.0881720102     -0.0001894938      0.0004335619      0.0005681360      0.1070378398
H       1.5797380237     -0.1653564099     -2.5737423965     -0.0002630282     -0.0009254568      0.0066587078      0.1549917976
H       2.1467912092     -1.0360946720      1.5418147459      0.0055514028      0.0034392890     -0.0066312632      0.0446351593
H       3.4436076581      1.3506278838      0.9246628179     -0.0002443565      0.0051041514     -0.0051487462      0.0405070272
H      -4.4741262749      1.0712828515      1.8217534529      0.0035274381      0.0002549637      0.0093545173      0.0236656439
H      -5.2438973815      1.7272682888      0.3563486211      0.0015892425     -0.0072354720      0.0089592211      0.0377895062
H      -5.3327415784     -0.0158104476      0.7048180619     -0.0044704521     -0.0070529217      0.0034610434      0.0266037776
H       3.9326212639      2.5545907088     -1.2859045059      0.0069371688     -0.0062209987     -0.0076045721      0.0602689487
H       3.2671449811      1.8608914031     -2.8123722415     -0.0097958398      0.0004424064      0.0021483513      0.0871058614
H       2.1884729360      2.7859603929     -1.7436171742      0.0018984774      0.0051651639     -0.0001241580      0.1053986662
B      -0.1891054957      1.2932988885     -3.3306111228     -0.0078613775      0.0050062622     -0.0159120224      1.4250561685
F       1.0643422790      1.5272363537     -3.9867896371      0.0107036228      0.0078656215     -0.0074770981     -0.5776169782
F      -0.0691513232      1.7783014774     -1.9817604474     -0.0068733580      0.0051591700      0.0091065024     -0.5834827702
F      -0.3664593885     -0.1405149888     -3.2779002686      0.0010178080     -0.0116166663     -0.0035375128     -0.5819214922
F      -1.2503341678      1.9036133227     -3.9874115481     -0.0053787864     -0.0011426356     -0.0112593973     -0.5282358050
