61
Properties=species:S:1:pos:R:3:forces:R:3:charge:R:1 energy=-339.44588576839124 homo_lumo=0.8337588411393039 dipole="0.7898032507481955 1.3255170639575204 -6.189080264543941" free_energy=-339.44588576839124
N       3.0779264520      0.9217257881      0.0168201166     -0.1451038215     -0.8220287178      0.8108891874     -0.5020247107
N       2.9300087259     -1.2920805666      0.1799389788      0.0560652667      0.8470550977      0.2975787332     -0.5067517018
C       1.4722612651      2.7798251437     -0.2336721141     -0.1723579351     -0.2997593447      0.2094864307     -0.1942150142
C       2.8374889420      2.3328458040      0.3112520524      0.0143331697      1.0323384778      0.0711814822     -0.0284678208
C       1.0259771145     -2.6329420579      1.0078971217     -0.0658297750      0.2444886355     -0.3166503007     -0.2282631344
C       2.5260984836     -2.6065572897      0.6767705473     -0.2354397933     -0.9197542918      0.8825955532     -0.0312836099
C       0.3094208161      2.0964597215      0.5029689913      0.1147493771      0.2796550306     -0.2888528544     -0.2270782816
C       0.1563332189     -2.3138052054     -0.2188666260      0.0360129797     -0.1011481969      0.4385559428     -0.2024929257
C      -1.0463379310      2.5415738136     -0.0549587865      0.0413362791     -0.3114980274      0.3356884900     -0.1725631920
C      -1.3330295620     -2.2982457081      0.1446148096      0.1547180864      0.1644344985     -0.4208650947     -0.1885731180
C       2.8334246956     -0.1190836185      0.8368016508     -0.6258919926      0.0551200689      1.4126954046      0.5482614630
C       3.3529876394      0.3892261499     -1.1911925329      0.2379754468     -0.8314663636     -1.5347482916      0.2206498106
C       3.2683336594     -0.9840845687     -1.0882884765      0.2108942109      0.6895827936     -1.5569113991      0.2370296179
C      -2.1935611648      1.8644840798      0.7053814201     -0.1034223364      0.1614940806     -0.1681798769     -0.2544396550
C      -2.1788586742     -1.8063674378     -1.0373600908     -0.1515407594     -0.0888651743      0.2425642785     -0.2277634190
C      -3.5439006862      2.1785699897      0.0704902156     -0.2135596473     -0.1308579754      0.1130826111     -0.1046846495
C      -3.6594495456     -1.7438372750     -0.6749182034     -0.1865530182      0.0973146079     -0.1988329591     -0.1033635304
H       1.3858888511      3.8812537740     -0.1105480102      0.1530518460     -0.2652199414     -0.0579068378      0.1170511158
H       1.4167865015      2.5526406041     -1.3209560680      0.0179594758      0.1386171800      0.2077430072      0.1081662301
H       0.8207550928     -1.8959034434      1.8133560257      0.0166418793     -0.3082002937     -0.0566890888      0.1715166624
H       0.7634056980     -3.6414140951      1.3945601004      0.2019357203      0.2945795956      0.0325576549      0.1278367601
H       3.6390504136      2.9451245823     -0.1556174011     -0.0554881040     -0.4264806129      0.1465520502      0.1307624528
H       2.8803896699      2.5068252986      1.4091016741      0.0776680316     -0.3287241539     -0.3527155265      0.1437863479
H       3.1092551858     -2.8446247689      1.5922260820     -0.0354964616      0.1773293874     -0.2882411898      0.1586611198
H       2.7501169473     -3.3881557422     -0.0822291531      0.1432024610      0.5775144940      0.0699377559      0.1194879532
H       0.3632614663      2.3427923497      1.5862580458      0.0099845721     -0.1707021706     -0.1898620198      0.1093990004
H       0.3897461539      0.9948890367      0.3878758108     -0.0336075419      0.1761522502      0.1178561497      0.1582833947
H       0.3365827582     -3.0743171866     -1.0102200426      0.0037867286      0.2301059099      0.0600998079      0.0785072028
H       0.4346867872     -1.3168823034     -0.6230104489     -0.0457716922     -0.1783965233     -0.0336492653      0.1230434973
H      -1.1444757313      3.6455707650      0.0392811669      0.0141690256     -0.2335265192     -0.1427500698      0.0904368890
H      -1.1027697570      2.2706160226     -1.1326856714     -0.0257413273      0.1589647167      0.1861211616      0.0845364580
H      -1.4934163892     -1.6240362030      1.0143489680      0.0101522394     -0.2366353755     -0.1150975473      0.1273830895
H      -1.6517533372     -3.3244590762      0.4317145167      0.0209395494      0.2872428711      0.0577653669      0.0959216922
H       2.5027703014     -0.0204643245      1.8636440160      0.0950535234     -0.0084479506      0.2007546975      0.1437113284
H       3.5370914230      0.9577033379     -2.0934003058      0.1058816967      0.2284660321      0.0856518141      0.0570503533
H       3.3699465070     -1.6980749407     -1.8952420408      0.0686537876     -0.2205755904      0.1416639976      0.0577497500
H      -2.0491755319      0.7638168566      0.7044470316      0.0918578071      0.2138873828      0.0976166584      0.1607661363
H      -2.1996099841      2.2135216634      1.7610195704      0.1144827625     -0.2082009017     -0.1878501150      0.0930547053
H      -2.0479129391     -2.4910401805     -1.9035532152      0.0958863862      0.2226529997      0.1138823090      0.0812468593
H      -1.8453743472     -0.7895311247     -1.3404763614      0.0686441938     -0.2425940112     -0.0059086418      0.1034694971
H      -3.7312262577      3.2733265890      0.0829797338     -0.0470567943     -0.3077907551     -0.0887704307      0.0481001321
H      -3.5715475512      1.8101843266     -0.9774306372     -0.0872936612      0.1684625751      0.2574642550      0.0437136432
H      -4.3483564832      1.6718226472      0.6443262091      0.0949577747      0.2229503879     -0.2629397487      0.0556677754
H      -4.2351642536     -1.3555448756     -1.5416226165     -0.0088227561     -0.1277055809      0.3282764490      0.0421660156
H      -3.8192828276     -1.0634838134      0.1884662123     -0.0439193573     -0.2404425970     -0.2206846614      0.0708479172
H      -4.0379760531     -2.7564743128     -0.4201746883      0.0099232343      0.3344846276     -0.0041404676      0.0464478978
N       1.0212359787     -0.9051678266      7.4890563931     -0.2413237199      0.4677303645     -0.3585048276     -0.8579961834
S       0.9850750980     -0.8772913116      5.8506658231      6.6677707783      1.5603732446      0.8872477629      1.5525797034
S       1.5408432328     -2.2033264371      8.3442752675     -6.0415489898     -3.8211461030     -1.3236556369      1.5607408534
C      -0.5949232515     -1.4771011807      5.2875582798     -1.7374311450     -0.8869052480      0.3168349043      1.1603136822
C       3.2135390738     -1.9168461054      8.8839548980      1.7934074565      0.5938076649      0.4387582584      1.1532274140
O       1.1633951138      0.5376984358      5.3780311255     -1.6968707894     -1.4101831964      0.5375578215     -0.7522134328
O       2.0801521541     -1.7379220041      5.2832720464     -2.0721897915      0.1827097437     -0.1894882335     -0.7500890418
O       1.4904685830     -3.4508927133      7.5060436270      1.3891724011      1.5517520265      0.9706610323     -0.7345487410
O       0.6670211047     -2.3770328173      9.5541145512      2.0681700710      1.3214405361     -0.9354121072     -0.7197378709
F      -0.6729801770     -1.3555311876      3.9139074957     -0.2322297620     -0.1616144822      0.6227013125     -0.4608730702
F      -1.6044761936     -0.7340126322      5.8692172109      0.5054281373     -0.7419909839     -0.7307872176     -0.4276497326
F      -0.7440835691     -2.8051777883      5.6388115428     -0.1776645777      1.2863506489     -0.5977760511     -0.4186617173
F       3.6606075945     -3.0101749976      9.6008784730     -0.2026752020      1.0482931194     -0.6074608327     -0.4275917506
F       3.2542303029     -0.7940326229      9.6888004841      0.3464094266     -0.8602089852     -0.5363101137     -0.4304512964
F       4.0308937642     -1.7230138667      7.7866289226     -0.3664450302     -0.1242809818      1.0796190667     -0.4297968218
