33
Properties=species:S:1:pos:R:3:forces:R:3:charge:R:1 energy=-189.8615723818029 homo_lumo=2.4052217372316647 dipole="-0.03632059979978785 1.3334367318890952 -2.1875034209906934" free_energy=-189.8615723818029
N       0.9359562799     -0.5792095109      0.7372571069      0.0013660499      0.0004680348      0.0055868595     -0.4954987356
C      -1.3413156738     -0.2223758576     -0.1967045106      0.0048595229      0.0019754264     -0.0001927701     -0.1744200961
C      -0.5156090344     -0.5438865767      1.0414289231      0.0030881144     -0.0018233103      0.0121335341     -0.0607675013
C      -2.8367892738     -0.2199949945      0.1202749387      0.0003228751      0.0054616806     -0.0088518961     -0.2204626869
C      -3.6838349604      0.0904518790     -1.1111802800      0.0010903508      0.0039830874     -0.0005284511     -0.0690171428
C       1.7300099193      0.4423601845      1.1170106498     -0.0041103899     -0.0013778457      0.0081283749      0.2917001237
C       1.4486775055     -1.6800679257      0.1449239518     -0.0029765411      0.0000399457      0.0070087042      0.2719305102
C       3.0951662469      0.3770764214      0.9135373520     -0.0046444196      0.0018453575      0.0063676463     -0.0041040487
C       2.8049781195     -1.7901450446     -0.0774924640     -0.0034751618     -0.0006360001      0.0038347409      0.0088778417
C       3.6436555934     -0.7533461674      0.3194714115     -0.0044947018      0.0027410649      0.0029655724      0.0501788281
H      -1.1325770308     -0.9689866601     -0.9841166610      0.0057293000      0.0034095794     -0.0034597164      0.1078363376
H      -1.0365253391      0.7610810520     -0.5982176365      0.0070143232      0.0046426091     -0.0008816674      0.1001790351
H      -0.7653018478     -1.5258524632      1.4710055387     -0.0068792509      0.0043624765     -0.0019459690      0.1821843786
H      -0.6544488626      0.2019622289      1.8362994750     -0.0056978675     -0.0028825718     -0.0008374172      0.1452227373
H      -3.1202130032     -1.2036452937      0.5343320950      0.0002221198      0.0023868160     -0.0023716012      0.1064103589
H      -3.0409756076      0.5213524969      0.9129128599      0.0029949537      0.0036868972     -0.0012320690      0.1006839530
H      -4.7565771907      0.0904641791     -0.8663814064      0.0123888894      0.0001451175      0.0086063146      0.0510449534
H      -3.4326629593      1.0797442529     -1.5255284579      0.0027678691      0.0040494246     -0.0010910596      0.0387527935
H      -3.5195867635     -0.6583926048     -1.9020686461      0.0040808969      0.0052657876     -0.0019710418      0.0395399478
H       1.2442163118      1.2689701058      1.6283501676     -0.0011960988     -0.0053733546      0.0054323224      0.1095529164
H       0.7453972106     -2.4793942233     -0.0757814943      0.0007347351      0.0023062284      0.0089057231      0.1187556245
H       3.7189766539      1.2001324558      1.2598747051     -0.0010208911      0.0049765035      0.0033100932      0.0633539866
H       3.1956838074     -2.7112914061     -0.5065214652      0.0002333318     -0.0017900179      0.0018136889      0.0691580953
H       4.7229957520     -0.8389958282      0.1886202684      0.0061738718      0.0043128208     -0.0041913195      0.0637711138
N       1.9392664204     -1.9848025806      3.1664402167     -0.0022943088     -0.0032257757     -0.0037233394     -0.8968733272
S       1.7459790998     -3.5702267366      2.9927543373      0.0035678713     -0.0056634964      0.0158241616      1.9206304156
S       1.0131593180     -1.1499949278      4.1853036483     -0.0091250572     -0.0087251647     -0.0036741158      1.9410674401
F       0.3068084903     -3.6508696448      2.0948936798     -0.0099131241      0.0129360092      0.0001326316     -0.4930445965
F       1.6005565910     -1.5289758083      5.6652772467      0.0128388326     -0.0018313036     -0.0142332537     -0.4505162607
O       2.7350887055     -4.0173655415      2.0270572701      0.0033557528     -0.0084219649     -0.0206703782     -0.7397981722
O       1.4471835509     -4.3317272503      4.1846915914      0.0055142456     -0.0070030267     -0.0138986905     -0.6942227913
O      -0.3878707219     -1.5300193480      4.2287212942      0.0015191967     -0.0188666190      0.0047829368     -0.7230511534
O       1.3656700096      0.2527233710      3.9978485024     -0.0240352905     -0.0013744155     -0.0110785484     -0.7590548786
