37
Properties=species:S:1:pos:R:3:forces:R:3:charge:R:1 energy=-206.89127717583935 homo_lumo=3.9359056772970327 dipole="-0.9060966887459164 2.219171344671818 -1.632095997279402" free_energy=-206.89127717583935
N       0.6129896040     -0.2103548975     -0.4545400235     -0.0037290383     -0.0022651131      0.0016088130     -0.4908960880
C      -0.4960694040      0.7956740511     -0.6634020825      0.0006642130      0.0022963494     -0.0039725931     -0.0008010110
C       0.0377984953     -1.6231161323     -0.5744555691     -0.0017318385     -0.0028542960      0.0004947318     -0.0484279920
C      -1.6605952136      0.6012145012      0.2916484997     -0.0037788806      0.0036464063     -0.0030134291     -0.1705546354
C      -1.1613266374     -1.8523810973      0.3297462710      0.0007334126     -0.0028926255      0.0051492065     -0.1826072050
C       1.2760031453     -0.0644964227      0.9074432033     -0.0036881216     -0.0073723320     -0.0021124057     -0.1218587464
C       1.6236318255      0.0018002318     -1.5707369378     -0.0048049141      0.0025512909      0.0020101949     -0.0554470238
C      -2.2509718449     -0.8009043119      0.1434483364     -0.0019623190      0.0035239583     -0.0032683142     -0.1586726736
C       1.8471990957      1.3092846938      1.1830728421      0.0052125723     -0.0020921155      0.0012523493     -0.1088868154
C       2.9090087638     -0.7890946724     -1.4345814098      0.0039421495      0.0026029860     -0.0009923708     -0.1037304352
H      -0.8312146216      0.6558977618     -1.7049416204      0.0035164578      0.0021711969      0.0006027143      0.1254226630
H      -0.0496995866      1.7965378618     -0.5792106618      0.0008501961     -0.0023249168     -0.0021437565      0.1310391065
H       0.8594223628     -2.3081011027     -0.2946767629      0.0025394799     -0.0004131865     -0.0012719003      0.2319182986
H      -0.2335533299     -1.7331754184     -1.6378403273     -0.0012758863      0.0053492507      0.0024815137      0.0893399720
H      -2.4103789215      1.3764562341      0.0598513432      0.0038768121      0.0008547716      0.0050426495      0.0972624119
H      -1.3354463428      0.7752332533      1.3312000853     -0.0082958499      0.0018458003     -0.0023707462      0.1125758546
H      -0.8114300260     -1.9166631604      1.3741648578      0.0015557182     -0.0083025074      0.0000122285      0.1569895431
H      -1.5420193468     -2.8587834247      0.0867711541      0.0037700248      0.0021814439      0.0100432813      0.1065776836
H       0.5325789285     -0.3531559953      1.6582925457      0.0009634764     -0.0080064166     -0.0001735586      0.1918173920
H       2.0279224462     -0.8683177792      0.9420050156     -0.0088865570     -0.0065918477      0.0097641340      0.2410268305
H       1.0871873990     -0.2686347643     -2.4933615292     -0.0014922373      0.0108551917     -0.0004999573      0.1228644363
H       1.8215709637      1.0841075755     -1.6056376036     -0.0035195303      0.0008260511     -0.0063944245      0.1260408952
H      -3.0619170292     -0.9526406084      0.8733809319      0.0037647644     -0.0023307063     -0.0048791731      0.0854282320
H      -2.7000137194     -0.8952690232     -0.8637644456     -0.0044759593      0.0058654537     -0.0002562495      0.0744464528
H       2.3521409979      1.2610069354      2.1600688049     -0.0023159824     -0.0063845644     -0.0012296429      0.0825967859
H       2.6018921883      1.6189716667      0.4450742726     -0.0021763434      0.0101373703     -0.0031805524      0.0452120817
H       1.0768631905      2.0916795469      1.2570307752      0.0102926634      0.0067080042     -0.0106533303      0.0379463805
H       3.4496818077     -0.7225822908     -2.3908601175     -0.0012124345      0.0069519991      0.0008622847      0.0581438051
H       3.5606392690     -0.3810582663     -0.6505642838      0.0064606514     -0.0000585434      0.0025975208      0.0590172923
H       2.7357335022     -1.8475406021     -1.1982280580      0.0046834112     -0.0005365764      0.0007990971      0.1115591040
C       1.8417962632     -3.2796561362      1.9611631390     -0.0012716689     -0.0121378043      0.0026374740      0.8900437428
O       0.9341028624     -2.6791234593      2.5787520772     -0.0013074085     -0.0058622234     -0.0046393280     -0.8050137777
O       2.3784813486     -3.0329716980      0.8434875453     -0.0073946951     -0.0089431851      0.0054519396     -0.8419930793
C       2.3656755488     -4.5732696937      2.6751309015     -0.0037179929      0.0075246839     -0.0051601885      1.2945098888
F       1.4950431098     -5.6163571600      2.4459291997      0.0103094971     -0.0073773622      0.0043621254     -0.4648032938
F       2.4575784819     -4.4237449446      4.0302416082      0.0013526262      0.0032633104      0.0006398362     -0.4587498292
F       3.5934834404     -4.9828198184      2.2403037702      0.0025495318      0.0075908038      0.0003998263     -0.4593362473
