37
Properties=species:S:1:pos:R:3:forces:R:3:charge:R:1 energy=-206.59625565607382 homo_lumo=3.826324434099271 dipole="-0.12604257579191985 2.795976103293895 -0.4764695894052633" free_energy=-206.59625565607382
N      -0.1872612754     -0.0474102141      0.0678007561      0.1395128007      0.3234111870     -0.0367643486     -0.5297192309
C      -0.9588516470      1.2364358822     -0.0313676250     -0.6042056008      0.1201983774      0.1887996080      0.0112414988
C      -0.7693938259     -1.0557434352     -0.8813614136     -0.4874387146     -0.3823261744     -0.1251076108     -0.0321625932
C       1.2301578412      0.2668355080     -0.3367411501      0.4901560191     -0.5446473430      0.0445540764     -0.0035596327
C      -2.4572351873      1.0557925540      0.1950923141      0.2021671673     -0.1454817953     -0.4280595838     -0.1566604822
C      -2.2548251738     -1.2821659103     -0.6489936998      0.1290347777      0.6239935688     -0.1899134058     -0.1543976378
C      -3.0350534475      0.0219920833     -0.7706002566      0.2470092402     -0.0881558778      0.3599157737     -0.1398791996
C      -0.2026288318     -0.5543267874      1.4673601108     -0.0104757228     -0.0512310964      0.1966918126      0.0416941009
C       2.2104517045     -0.9031139612     -0.2567314387      0.0367739996      0.5400320646     -0.2137460365     -0.2351694869
C       3.5713866529     -0.4545390238     -0.7856673356     -0.3997948631     -0.0445894608      0.1498273204     -0.0412570987
H      -0.7830419167      1.6375706894     -1.0335822458      0.0920972712      0.0493767164     -0.2414742022      0.1207817926
H      -0.5391744423      1.9270487609      0.7043501435      0.1987023820      0.1575215227      0.1432541118      0.1135027406
H      -0.2328207540     -1.9939298291     -0.7333197922      0.1026661501     -0.2412061769      0.1786056112      0.2346320043
H      -0.5885626037     -0.6806006037     -1.8928803782      0.0673322336      0.2456052941     -0.2231444712      0.0827266664
H       1.5672628095      1.0800660343      0.3135505100      0.0183992184      0.2410823840      0.1565994998      0.1155649645
H       1.1848390451      0.6432007532     -1.3630835052     -0.0948439574      0.1145466528     -0.2303779848      0.1168606789
H      -2.9295213522      2.0288822130      0.0343242926     -0.0957332945      0.3055169817      0.0653744111      0.0986537121
H      -2.6548227765      0.7588970653      1.2283574800     -0.0725700397     -0.0118445923      0.2768497879      0.0970778416
H      -2.4139756990     -1.7411725631      0.3286301648     -0.0122253274     -0.2759562134      0.1291078704      0.1254812008
H      -2.5878845157     -2.0052307385     -1.3966651039     -0.0270903153     -0.2948511996     -0.0667091765      0.1135521923
H      -4.0881788716     -0.1488515073     -0.5362786841     -0.3229403155     -0.0032330850     -0.0209136186      0.0799530513
H      -2.9715049785      0.4034379434     -1.7954656177     -0.0250470387      0.1319061617     -0.3027542650      0.0715346818
H       0.3001905141     -1.5227437313      1.4861929744      0.0974864089     -0.4559188736     -0.1183383822      0.1884865458
H       0.3127588287      0.1615921762      2.1052334685      0.1223443747      0.3181474628      0.1268241547      0.0470991148
H      -1.2286445902     -0.6762084677      1.8009696461     -0.2318603380     -0.0246333347      0.0460393501      0.0963799248
H       2.3168424732     -1.2437087508      0.7742323051     -0.0353153759     -0.1777645362      0.1688251649      0.1281943742
H       1.8508701257     -1.7482634462     -0.8453172179     -0.0992565939     -0.2167018508      0.0193992367      0.1446163544
H       3.4967493432     -0.1373417714     -1.8268148865      0.0602830144      0.1080388027     -0.3325525072      0.0238352634
H       3.9623112597      0.3751297251     -0.1948225654      0.2113196598      0.2688047855      0.1370932647      0.0232003255
H       4.2728650545     -1.2854326838     -0.7250288242      0.2561730032     -0.2014141083     -0.0073759079      0.0561366165
C      -0.1350332063     -4.0365258189      0.6331923819      0.1202895949     -1.5001860798      0.6395955840      0.9045298818
O       0.8399875985     -3.2822550846      0.7682732876      1.3445044354      0.7859652698      0.3031517156     -0.8523671375
O      -1.2155215702     -3.8405630551      0.0851713671     -1.4351034065      0.0227856555     -0.6485951532     -0.8020247677
C       0.0565598174     -5.4770220194      1.3059159257     -0.1925394352      1.1769084928     -0.6782271768      1.3018688829
F      -0.9076996570     -6.3445789534      0.9691585584     -0.7910191669     -0.6452171651     -0.3229578229     -0.4596556410
F       0.0447603549     -5.3812945871      2.6513139209     -0.0210312685      0.1851955829      1.1908698876     -0.4675030777
F       1.2292699268     -6.0399783507      0.9663513426      1.0222390237     -0.4136779997     -0.3343665875     -0.4632484249
