22
Properties=species:S:1:pos:R:3:forces:R:3:charge:R:1 energy=-114.95625786471078 homo_lumo=2.0381165275175612 dipole="1.7058530610020801 -2.065360911165415 1.7207147414142372" free_energy=-114.95625786471078
N       0.5338437690      0.0231771850     -0.0817057104      0.5775168697     -0.3519974395      0.1992936323     -0.5514417724
C      -0.4438441819      1.0050461637     -0.6619701518     -0.7291057143      0.4502166485     -0.1311720975      0.0251387901
C      -0.2912375102     -1.2095678212      0.1251889592     -0.3772016359     -0.2221490031      0.1997633159      0.0299439452
C      -1.7376619701      0.7635431135      0.0978826762      0.1369845403     -0.1640333706      0.0133301322     -0.1126576937
C      -1.6769713297     -0.7066318746      0.5399893786      0.2350827066     -0.0845612846      0.1188308079     -0.1412370390
C       1.0674277592      0.5225618218      1.2103237738     -0.0078486552     -0.1053539507      0.0704499039      0.0979856679
C       1.6558399510     -0.2144940253     -1.0205834531      0.0408692796     -0.0410440905      0.0787816959      0.0962837153
H      -0.5664042569      0.7699839777     -1.7187294064     -0.0609090373      0.0852259338     -0.3586431242      0.1318003402
H      -0.0616993972      2.0180010426     -0.5709090126      0.1799451706      0.2871200670     -0.1545078596      0.1132218597
H       0.1884923082     -1.8492234824      0.8676266015      0.1966358684     -0.2038311292      0.1110866686      0.0964193679
H      -0.3339689930     -1.7361084214     -0.8305893662      0.0554267534     -0.0471931946     -0.2321345524      0.1286233120
H      -2.5784929556      0.9709261344     -0.5660167721     -0.0730988866      0.2655596839     -0.2027162976      0.1238074889
H      -1.8157935012      1.4255726683      0.9624842811     -0.0916890299      0.2293028706      0.1562396870      0.0657652178
H      -1.8122769089     -0.7976315602      1.6197783178     -0.0856387775     -0.1259798491      0.2594994911      0.0720721313
H      -2.4467858141     -1.3055971993      0.0507542312     -0.1801170437     -0.1826625208     -0.0650282070      0.0980815939
H       1.5974557045      1.4561991894      1.0315374957      0.1060377429      0.2665929601     -0.0668898305      0.0881029903
H       0.2403626194      0.6948590298      1.8948589264     -0.2387306859      0.0567664112      0.1623864466      0.1116346332
H       1.7475080113     -0.2182055726      1.6282058131      0.1970947025     -0.2090485395      0.1411666381      0.0671401035
H       1.2540659655     -0.5678136410     -1.9678744452     -0.1394236800     -0.0432787132     -0.2435841010      0.0860837747
H       2.1847934123      0.7242657862     -1.1747983657      0.1242585659      0.2638686447     -0.0686702884      0.0994842568
H       2.3278575481     -0.9594559374     -0.5970851994      0.2056202225     -0.2080915965      0.1263465375      0.0738107886
Cl     -1.8486594987      2.7762330628     -2.3392000034     -0.0717092761      0.0845714622     -0.1138285986     -0.8000634722
