46
Properties=species:S:1:pos:R:3:forces:R:3:charge:R:1 energy=-245.27317242462377 homo_lumo=3.400273328801698 dipole="-5.604413742240375 -1.3305406805546345 4.210108139652035" free_energy=-245.27317242462377
N      -1.8954741894      0.1367064991     -0.0523930939     -0.0102149355      0.1247752603      0.0348159933     -0.5250833901
C      -2.1056376448     -1.0705958161     -0.9086524212      0.2180595995     -1.8643547723     -1.5062134667     -0.0121049501
C      -3.0273732412      0.1198445564      0.9252152880     -1.6754639300      0.5387539801      1.6055190191     -0.0062934470
C      -0.5957939425      0.0277196654      0.6870990909      1.8023374782      0.0097137643      0.3945880542     -0.0497020287
C      -3.4859743804     -1.6259165051     -0.6175312478     -0.5977106234     -0.0249288261     -0.6091506205     -0.1412462824
C      -3.7426077256     -1.2120906544      0.8038273877     -0.0687262159     -0.5322413573      0.6679916643     -0.1420551986
C      -1.9665737326      1.3699406433     -0.9015800345      0.0710431808      1.7082426356     -0.8363217131     -0.0956328778
C       0.6612177954      0.0520075296     -0.2162199296     -0.4826115891      0.0576876256      0.1218559942     -0.2248040243
C      -1.7195595695      2.6844024363     -0.1391842056      0.1115864964     -0.2827688998      0.1651215662     -0.1232425343
C       1.9283962853     -0.2052970567      0.6083882229     -0.1159202558     -0.0217672749     -0.1203767419     -0.1643163117
C       3.1780338906     -0.1979012199     -0.2810076297     -0.0393580221      0.0711614373      0.3485016824     -0.1907154816
C       4.4478884210     -0.3931748406      0.5552502815      0.0423256666     -0.0114355909     -0.2117060333     -0.2068636705
C       5.6935753086     -0.4157196949     -0.3264516739      0.2664842970      0.0344934211      0.0828108373     -0.0899948186
H      -1.3784559175     -1.8827980863     -0.6770685087      0.0495319176      0.7500621579      0.1622716342      0.1598798352
H      -2.0055415694     -0.8610467335     -1.9984316950      0.2475509296      0.2783508140      0.5976954942      0.1569931048
H      -3.7824263302      0.9113178883      0.7108261582      0.6948814986     -0.0620334046     -0.2497871929      0.1506473298
H      -2.7023177253      0.2773926762      1.9793307183      0.2564196895      0.1309105405     -0.6379010417      0.1428445140
H      -0.5850034698     -0.9165933387      1.2804443009     -0.3946922069      0.2413343924     -0.3630315372      0.1477910354
H      -0.5038302516      0.8469427007      1.4348498160     -0.3714668931     -0.1343259019     -0.3932991635      0.1591875101
H      -3.5230638211     -2.7310122674     -0.7334158209     -0.0172366394      0.4509072410     -0.2134814826      0.1080320107
H      -4.2339452496     -1.1514247959     -1.2910442040      0.1498253011     -0.2822204449      0.1334280035      0.1061045469
H      -4.8310023888     -1.1211107479      1.0116555331      0.4588765335     -0.0503188102      0.1746063648      0.1041447359
H      -3.2873130089     -1.9504723141      1.5008065252     -0.2644272602      0.1758498263     -0.1255746559      0.1065044400
H      -1.2385392670      1.3164673723     -1.7408006442     -0.1018346122     -0.3715885656      0.4495170469      0.1866914137
H      -2.9676986065      1.4384005445     -1.3866900993      0.2317589013     -0.4919027645      0.3703127657      0.1526182029
H       0.5852327353     -0.7174135839     -1.0128646062      0.0187417550      0.2193980863      0.0980090114      0.1313167604
H       0.7633113905      1.0448514657     -0.7016621937     -0.0453210674     -0.2740011788     -0.0126510997      0.1518181257
H      -1.9673391385      3.5413021024     -0.8001846760      0.0596679225     -0.3378505730      0.1489628813      0.1004973620
H      -2.3500192371      2.7563801546      0.7703684688      0.1647626351      0.0586995509     -0.2401623102      0.0635581307
H      -0.6531578498      2.7846981860      0.1488559347     -0.3294156563      0.0140800395     -0.0509954430      0.0926195987
H       1.8466926001     -1.1921168638      1.1154970021      0.0099062043      0.2260802944      0.0291220739      0.0766743422
H       2.0237608299      0.5852434648      1.3853588053     -0.0031014063     -0.2315347976     -0.0669275927      0.0851463026
H       3.2397473359      0.7727881092     -0.8193626536      0.0299195233     -0.3452364362     -0.0882864750      0.1535380617
H       3.0989490531     -1.0154263390     -1.0314996277      0.0451115727      0.3228842935      0.0564932762      0.1081088882
H       4.5434078430      0.4365690692      1.2893994113     -0.1172050352     -0.2212453784     -0.0461868284      0.0730155565
H       4.3864271125     -1.3524116335      1.1138080680     -0.0765455563      0.2213540434      0.0355986663      0.0666815490
H       5.7934845243      0.5419839927     -0.8798461039     -0.0106193955     -0.3837941670     -0.0035099367      0.0880277990
H       6.5937138606     -0.5535045332      0.3089433083     -0.1464304143      0.0179839427     -0.2620922521      0.0300508489
H       5.6383212591     -1.2556355239     -1.0513660810      0.0880031756      0.3441167567      0.1076712459      0.0510055855
P       4.2694027082      1.5484966119     -4.6840108608      0.5463768224      0.2152016955     -0.5657272996      2.1050894949
F       4.2317638359      1.4571721535     -6.3986602996     -0.2246026681     -0.2486428760      1.6012233783     -0.5060981419
F       3.0038349491      0.4018038450     -4.5019468069      0.7971062418      0.9186073497     -0.0556732173     -0.5229610751
F       5.3560778145      0.2208337490     -4.6076614871     -0.7650841294      1.3103915648     -0.0168160587     -0.5102142808
F       4.3994282995      1.7875273139     -2.9893971795     -0.3874808427     -0.5050091060     -0.9749136731     -0.5246139923
F       5.5639958937      2.6651657097     -4.8459574205     -1.1968724116     -0.9181277764      0.1581243889     -0.5068396193
F       3.0730437830      2.7791423277     -4.7428070512      1.0820644244     -0.8457118112      0.1065447932     -0.5158049605
