46
Properties=species:S:1:pos:R:3:forces:R:3:charge:R:1 energy=-245.80890033704057 homo_lumo=4.20358934156298 dipole="-3.1642609670107453 -3.4587217940701778 -2.803000327602236" free_energy=-245.80890033704057
N      -1.8945918593      0.1390009844     -0.0546142178      0.0302806358      0.0362614762     -0.0515464347     -0.5249616170
C      -2.1088625550     -1.0730193201     -0.9030894540      0.2044854210     -1.8237679495     -1.4412028183     -0.0036849123
C      -3.0193434193      0.1253854577      0.9313952659     -1.6519970998      0.5544340420      1.6529670813     -0.0076791243
C      -0.5899320137      0.0361694558      0.6763323213      1.7875435147      0.1128774422      0.5039365245     -0.0686394817
C      -3.4880357220     -1.6261973059     -0.6026607910     -0.6001237040     -0.0564876215     -0.6186993770     -0.1403885661
C      -3.7372888620     -1.2060277850      0.8181559600     -0.0527493495     -0.5215308775      0.6536423624     -0.1411037894
C      -1.9734166500      1.3677746045     -0.9094184245     -0.0059229940      1.8054849023     -0.8051190247     -0.0886211557
C       0.6613177186      0.0551660705     -0.2349596830     -0.4515862295      0.0249278416      0.0883982638     -0.2159052237
C      -1.7173977058      2.6859103735     -0.1564047030      0.1808672714     -0.3264508798      0.1163634814     -0.1415806981
C       1.9304833030     -0.2016321266      0.5859877796     -0.1306287450      0.1285642986     -0.0174541998     -0.1899304405
C       3.1805700483     -0.1974274709     -0.3026456855     -0.0724075146     -0.0383415446      0.3851147618     -0.1694512997
C       4.4492593075     -0.3703874996      0.5406023505      0.0758882578      0.0898558000     -0.1713841325     -0.2137656416
C       5.6982677124     -0.3979195353     -0.3359024735      0.2115782313     -0.0488667057      0.0959111912     -0.0828095012
H      -1.3807902183     -1.8840335099     -0.6699588331      0.0426173899      0.7426762516      0.1723805943      0.1528363616
H      -2.0135981692     -0.8697516087     -1.9944135381      0.2257106134      0.2876353707      0.5948375335      0.1398060144
H      -3.7744779343      0.9180266439      0.7218606445      0.7129087735     -0.0568809870     -0.2472063455      0.1514678318
H      -2.6861520440      0.2839763570      1.9828601368      0.2634575961      0.1607835266     -0.6505116553      0.1576760172
H      -0.5746880483     -0.9040195463      1.2760943112     -0.3907938606      0.2383606484     -0.3678916029      0.1437654030
H      -0.4935473966      0.8607296916      1.4175509933     -0.2964125984     -0.0659971274     -0.3608696902      0.2150273793
H      -3.5263333981     -2.7317512146     -0.7135809686     -0.0211797735      0.4399671046     -0.2127511246      0.1009276660
H      -4.2391060905     -1.1541917510     -1.2744399191      0.1485322454     -0.2716303066      0.1338885014      0.1013960606
H      -4.8245708005     -1.1125817606      1.0305611559      0.4633251907     -0.0496727682      0.1730295701      0.1024574405
H      -3.2801836969     -1.9426275449      1.5158660392     -0.2645846681      0.1789118219     -0.1243960467      0.1064229951
H      -1.2533233322      1.3095295652     -1.7551863645     -0.1023206240     -0.4001131303      0.4634549019      0.1578276167
H      -2.9793000082      1.4341080646     -1.3849588394      0.2141732260     -0.5266336118      0.3629829413      0.1414621470
H       0.5804621352     -0.7168817441     -1.0285192994     -0.0261837998      0.1521317436      0.0754546560      0.0961726359
H       0.7622416081      1.0464676813     -0.7238103781     -0.0638850049     -0.2209752455      0.0785206182      0.1382027713
H      -1.9887299953      3.5396387927     -0.8122446287      0.0449232128     -0.3320939232      0.1546773158      0.0825658102
H      -2.3234066305      2.7551038430      0.7698503778      0.2394856822      0.0839071644     -0.2371057906      0.0817564131
H      -0.6443326974      2.7940646175      0.1023160504     -0.3493437841      0.0794481663      0.1242689461      0.1387307270
H       1.8490800056     -1.1871831131      1.0956795993      0.0328007318      0.2264243211     -0.0205465917      0.0735507151
H       2.0260957925      0.5896181352      1.3606942524      0.0115499017     -0.1923219160     -0.0785424494      0.1786679702
H       3.2377997656      0.7645966015     -0.8584524507     -0.0132990770     -0.2420169901      0.0771167680      0.0989233115
H       3.1083270345     -1.0283302624     -1.0390256694      0.0480073976      0.2117480309      0.0353265039      0.0698934609
H       4.5361302599      0.4717328319      1.2617587010     -0.1591507724     -0.2643136972     -0.0854967629      0.1265696444
H       4.3928296779     -1.3209790357      1.1144025920     -0.0705176870      0.2572344870     -0.0170641769      0.0816047109
H       5.7884738001      0.5484126905     -0.9105340277      0.0466148958     -0.3019842049      0.1015565644      0.0436893248
H       6.5975538301     -0.5110806755      0.3055623279     -0.1357529411      0.0433990647     -0.3115582554      0.0480425754
H       5.6554209037     -1.2547143201     -1.0416491565      0.1019745209      0.2638537839      0.1038757129      0.0271731633
P       1.7575440328      4.0264149441      3.1620608621      0.6701929159      0.8574583634      0.7861634035      2.1147632721
F       2.5491567163      2.5032520010      3.1322801397     -0.9823316567      0.8327267961     -0.3602989997     -0.5193457621
F       3.2729765583      4.7156181842      3.5840323033     -1.3608504641     -0.7552459599     -0.4055003803     -0.5028024381
F       2.0584585161      4.2411406299      1.4848603727     -0.0781957493     -0.1631982295      1.3341875850     -0.5182457949
F       1.1101000917      5.6114240946      3.2975556753      0.1708164194     -1.6370981574     -0.4444798438     -0.5040424851
F       0.2420293415      3.3620237140      2.7033724636      0.8188690490      0.1666120068      0.1960103318     -0.5331787570
F       1.3234797692      3.7245967684      4.7959832310      0.5336150033      0.3199373785     -1.4344404116     -0.5052427511
