46
Properties=species:S:1:pos:R:3:forces:R:3:charge:R:1 energy=-255.0590573290292 homo_lumo=3.5433548241733694 dipole="-1.3586629104460544 1.4735797051815465 -0.4221519975278222" free_energy=-255.0590573290292
N      -1.4564517184     -0.1497918813     -0.0327385850     -0.0014064182      0.0057433574     -0.0030802365     -0.4828409914
C      -1.4042876986     -1.5203604197     -0.7415031745     -0.0111858537     -0.0034681162     -0.0100848705     -0.0420483357
C      -2.6094659725     -0.2682077449      0.9480434396     -0.0108484418     -0.0036536657     -0.0015657936      0.0044680821
C      -0.1657120677      0.0647343720      0.7532460949     -0.0096116195     -0.0207147983      0.0143596814     -0.0724871834
C      -2.3461713920     -2.4477388496      0.0348379095     -0.0100501927      0.0049977170     -0.0042975612     -0.1388685895
C      -2.5942103149     -1.7260600069      1.3636855129      0.0008429018     -0.0033249081      0.0116391551     -0.1448006473
C      -1.6961732438      0.9453383429     -1.0380269371      0.0162862030      0.0024535737      0.0056516174     -0.0537071720
C       1.0537167170      0.3120955868     -0.1131103002     -0.0038417292     -0.0092594528     -0.0224802141     -0.2129701689
C      -1.7861899213      2.3328299167     -0.4337238324     -0.0126619907     -0.0195515535      0.0061393130     -0.0862031809
C       2.3190401106      0.2238480046      0.7448430944     -0.0028432737      0.0000396714      0.0157239137     -0.1692648933
C       3.5861914707      0.2520856601     -0.1045521142      0.0031070216     -0.0091549096     -0.0064781778     -0.1685474616
C       4.8609922706      0.1074967117      0.7224757551      0.0109502936     -0.0000799779      0.0026940158     -0.2075109551
C       6.1255389124      0.1403403593     -0.1322662721     -0.0027760072      0.0027512394     -0.0084548271     -0.0642305228
H      -0.3575615039     -1.9024211310     -0.6797454739      0.0090229933     -0.0035953191      0.0047234936      0.2515079533
H      -1.7101298261     -1.3625979128     -1.7847267655     -0.0006771478      0.0001713343      0.0024518639      0.0716610106
H      -3.5277097346     -0.0243517763      0.3886481566     -0.0009906095      0.0002432911     -0.0016921393      0.1122408533
H      -2.4719965851      0.4544403723      1.7621726303      0.0176623954      0.0008987535      0.0120718501      0.1060169768
H      -0.0127900365     -0.8868452778      1.3140543450     -0.0014700630      0.0147772691     -0.0030717610      0.2550641910
H      -0.3544471933      0.8976844894      1.4480752919      0.0033728651      0.0023554174     -0.0032576841      0.0889801707
H      -1.8576938913     -3.4196343367      0.1967185579     -0.0037634168     -0.0028336507     -0.0044399343      0.1158284225
H      -3.2933342528     -2.6029050079     -0.5083485979     -0.0010683854      0.0056188107     -0.0036016451      0.0634733907
H      -3.5381152665     -2.0136754284      1.8495106493     -0.0018044921     -0.0055611396     -0.0080622091      0.0659591542
H      -1.7530951352     -1.9353486288      2.0435687001      0.0053086311     -0.0050690207     -0.0016513211      0.1518053325
H      -0.8724824360      0.8819407394     -1.7635928697     -0.0057304086     -0.0000077575      0.0032090545      0.1523013351
H      -2.6290517334      0.6781963784     -1.5590746498     -0.0008599354      0.0004038417      0.0015684577      0.1150034499
H       1.1219771984     -0.4882283721     -0.8685458475      0.0004872301      0.0097247940     -0.0059557865      0.1457457504
H       1.0180158687      1.2915045437     -0.6249892300      0.0011832936     -0.0106477903      0.0017768436      0.0700393029
H      -1.9812687327      3.0509116798     -1.2440128061     -0.0021117996      0.0143885256      0.0050921384      0.0684153544
H      -2.6093034721      2.4149199299      0.2915489382      0.0090486453      0.0047898988     -0.0108831749      0.0527511719
H      -0.8487435676      2.6281640830      0.0570605818     -0.0049035990     -0.0012506985     -0.0033438202      0.0652590820
H       2.2838706554     -0.7223629358      1.3105376370      0.0002685819      0.0131518001     -0.0010754879      0.1679537962
H       2.3414004685      1.0470826993      1.4852297265     -0.0090997595     -0.0114870221     -0.0159725460      0.0543755112
H       3.6314633922      1.1920016920     -0.6885614034     -0.0055725390     -0.0087146256      0.0046170800      0.0648862709
H       3.5309546260     -0.5784292630     -0.8329717759      0.0067315899      0.0108530617      0.0062245798      0.1057200157
H       4.9028214885      0.9128621791      1.4791976338     -0.0068002318      0.0055349959     -0.0008140144      0.0718251943
H       4.8157484527     -0.8438014562      1.2822782080     -0.0044132732     -0.0027196229      0.0044037198      0.1023855350
H       6.2054759195      1.0926342556     -0.6818572104      0.0000437634     -0.0009224917      0.0014107613      0.0258410346
H       7.0309523556      0.0278035905      0.4830567104      0.0223652327     -0.0003565830      0.0011674474      0.0315246048
H       6.1166534393     -0.6737790778     -0.8751558888      0.0008670307     -0.0036172634      0.0051364391      0.0360004066
C       2.1670096757     -4.2395861265      1.3869228039     -0.0006661563      0.0038600654     -0.0016425772     -0.0880081200
C       1.1652333341     -3.1709105703      0.9336195836     -0.0130154400      0.0186843867     -0.0006449639      0.8865852975
O       1.2089146148     -2.8331590959     -0.2901641136      0.0054677933      0.0042077582      0.0133699549     -0.8275756209
O       0.4020864816     -2.6875733384      1.8305289502      0.0064340903     -0.0065942621     -0.0120286280     -0.8437889385
H       2.4460557845     -4.8970388019      0.5518791153      0.0047528930      0.0044026952      0.0004569754      0.0293737686
H       3.0809491849     -3.7348651904      1.7408807902      0.0031842251     -0.0014660586      0.0021301341      0.0394460449
H       1.7647640913     -4.8254556224      2.2249593119      0.0007851093      0.0039984300      0.0085608835      0.0304143166
