46
Properties=species:S:1:pos:R:3:forces:R:3:charge:R:1 energy=-255.0944460733857 homo_lumo=3.575506463834738 dipole="-1.6537363748536034 0.5107592406421272 -0.7999212012837807" free_energy=-255.0944460733857
N      -0.2706701632     -0.6363892891      0.1518758829     -0.0036422039      0.0057703940      0.0008819247     -0.4829790204
C       0.5985594930     -1.6745246363     -0.5818419133     -0.0024946359     -0.0079891955      0.0027081662     -0.0451761013
C      -1.0090182726     -1.4586175220      1.1969480907      0.0027760545     -0.0073853626     -0.0061822268     -0.0076369145
C       0.5933130967      0.3907878953      0.8566873029      0.0064799669     -0.0123615539     -0.0122979391     -0.0507810786
C       0.0285788411     -3.0525281774     -0.2165204742      0.0042586379      0.0001238810      0.0104341030     -0.1397106540
C      -1.3000461223     -2.7765148072      0.5034217897      0.0013099690      0.0138552743     -0.0045840469     -0.1593960638
C      -1.2215309255     -0.0050374991     -0.8378474373      0.0106981837     -0.0068656220      0.0052417054     -0.0567900365
C       1.4831980657      1.1916184852     -0.0725997757     -0.0036912252     -0.0051844997      0.0178109223     -0.2279029442
C      -2.1088437738      1.0892890860     -0.2779778554     -0.0030432756      0.0124693151     -0.0150700709     -0.0945981738
C       2.5106098140      1.9731285675      0.7537217576     -0.0042837501      0.0015837624     -0.0091824052     -0.1548356147
C       3.6639854537      2.5313352245     -0.0827771361      0.0041855835      0.0028998194      0.0072176023     -0.1582330356
C       4.5307088877      1.4399462566     -0.7166577031      0.0032637951     -0.0016929102      0.0064340687     -0.2324994582
C       5.8228591410      1.9925594199     -1.3108431304      0.0096149523     -0.0180501530     -0.0182462815     -0.0558668065
H       1.6366246017     -1.5531998560     -0.1965200179     -0.0045760175     -0.0122999487      0.0091031599      0.2448659362
H       0.5418976571     -1.4447355775     -1.6542220487     -0.0050963236     -0.0047666276     -0.0050796283      0.0751155351
H      -1.8773788772     -0.8960906767      1.5602427198     -0.0061537633      0.0020364363      0.0008565577      0.0944124198
H      -0.2601589406     -1.6215885432      1.9917478900     -0.0068618841     -0.0048494035      0.0005472204      0.2003987228
H       1.2102025024     -0.2263074015      1.5340935134     -0.0031551196      0.0072578860      0.0090751076      0.2447696244
H      -0.0827371806      1.0240490749      1.4523761715     -0.0054116109     -0.0008589682     -0.0047769407      0.0959792352
H       0.7247510703     -3.5281212552      0.4911269803     -0.0075679494      0.0041500672     -0.0020593308      0.1416721048
H      -0.0894594212     -3.6979525043     -1.0987089976     -0.0037991610     -0.0049443128      0.0011467841      0.0578504744
H      -2.1454584634     -2.6947963460     -0.2010391712      0.0045777035     -0.0085315621      0.0063889352      0.0651371297
H      -1.5507799047     -3.5565357532      1.2375259738      0.0028668646      0.0064895536      0.0008607339      0.0895550051
H      -0.5920121074      0.3908965189     -1.6479233868     -0.0040573201     -0.0027530168      0.0051700173      0.1393393882
H      -1.8198215772     -0.8295940924     -1.2535248878      0.0061224940      0.0169895128     -0.0016783261      0.1463034517
H       2.0294156220      0.4859141258     -0.7150091393      0.0039425262     -0.0052661940     -0.0031275266      0.1753334622
H       0.9133457020      1.8848372719     -0.7190763278      0.0032034400     -0.0069272849      0.0079821030      0.0588455316
H      -2.7841959702      1.4220469328     -1.0815780451      0.0025104513      0.0050955412      0.0155609678      0.0692840841
H      -2.7351578679      0.7441731363      0.5564296858     -0.0000867103     -0.0025053944     -0.0051030072      0.0518250655
H      -1.5288382329      1.9620341363      0.0518996749      0.0014021740     -0.0090045823     -0.0044943489      0.0603337311
H       2.9332970503      1.2809158969      1.5023648901      0.0070511820     -0.0000047599      0.0065669195      0.1280968350
H       2.0085043082      2.7910663613      1.3022552103     -0.0048561456     -0.0115941020     -0.0004768250      0.0589037584
H       4.2996636949      3.1509610161      0.5768433863      0.0031372043     -0.0041104666     -0.0044101990      0.0798149723
H       3.2790779939      3.2111157744     -0.8680496071     -0.0037112326     -0.0024166606      0.0078960470      0.0598963512
H       4.7502341209      0.6659389781      0.0399653213     -0.0021175037      0.0077306377     -0.0090927678      0.1370243700
H       3.9642303552      0.9182386673     -1.5074507659      0.0002183353      0.0085360356     -0.0063871745      0.0846721653
H       6.4334127176      2.4845105743     -0.5363914567      0.0046246082      0.0006381583      0.0046168560      0.0265285834
H       6.4300688229      1.1896561012     -1.7575331794      0.0000041300      0.0201158294     -0.0073812737      0.0341450890
H       5.6161464988      2.7389288194     -2.0954557761      0.0010646661      0.0041608256     -0.0050138295      0.0211210768
C       4.0713884859     -2.5364640292      2.7465698775      0.0042748138      0.0026371201     -0.0014008290     -0.0893375072
C       2.9274261431     -1.9447688981      1.9159949515     -0.0058810472      0.0103855291     -0.0069159069      0.9007579091
O       1.7558575483     -2.0495409441      2.4036456776     -0.0007795836      0.0032520870     -0.0058161287     -0.8510153554
O       3.2340849479     -1.4102018132      0.8048264527      0.0065123558      0.0081404297      0.0020180771     -0.8390870951
H       5.0464338032     -2.1724556967      2.3951546728     -0.0002392484     -0.0014442117      0.0032738606      0.0326714937
H       3.9339018505     -2.3021002665      3.8117908514     -0.0061661173     -0.0034043106      0.0041568995      0.0313852511
H       4.0531429226     -3.6337899660      2.6487482624     -0.0064282632      0.0008930080      0.0028282736      0.0398071028
