39
Properties=species:S:1:pos:R:3:forces:R:3:charge:R:1 energy=-221.72965429578332 homo_lumo=5.119816012026262 dipole="-0.10941315002843867 -1.5648544109744926 -1.322804179992575" free_energy=-221.72965429578332
N      -0.9235597835     -1.1896564575      0.6722056015     -0.3785935512     -0.0417796715      0.2344037213     -0.5101830334
N       1.2260674505     -1.2379048405      0.5521469991      0.3999481144     -0.0508842888      0.2122023307     -0.5101699056
C      -2.2623697476     -0.9656308331      1.2156431808     -0.4281245194      0.0449180526     -0.2269039796     -0.0051178447
C       2.6250754153     -1.0743107219      0.9453921892      0.4049371942      0.0148153370     -0.2762998569     -0.0051418652
C      -3.0683355125      0.0019881107      0.3482265134      0.6204122442      0.2470496578      0.3429610189     -0.1900221299
C       3.3803205505     -0.1609404935     -0.0204154200     -0.5656551034      0.2908546786      0.3978484899     -0.1908984726
C       0.1977636687     -0.9990181970      1.3596664970      0.0068265978     -0.2676200840      0.1781670995      0.6239742226
C      -0.6052365743     -1.5506392353     -0.6112277423     -0.1018080048     -0.0638959784     -0.2915724183      0.2016905352
C       0.7511842978     -1.5811777720     -0.6868627496      0.0563626537     -0.0689799540     -0.2980961498      0.2022637403
C      -2.4169288186      1.3860949252      0.2715160895     -0.6315422767     -0.1661992775     -0.3411058240     -0.2490980095
C       2.7947091717      1.2540270997     -0.0541939059      0.5827845614     -0.2139854903     -0.4131341236     -0.2477446694
C      -3.2797699321      2.3575027455     -0.5295344424      0.3086791845     -0.2536841206      0.2118587793     -0.0410895869
C       3.6124964719      2.1670849806     -0.9633338634     -0.2857683955     -0.2297938317      0.2547870224     -0.0416534284
H      -2.7694851565     -1.9336663473      1.2824916877     -0.0500613135     -0.2578634400      0.0376595307      0.0936630374
H      -2.1272971339     -0.5531251249      2.2195246323      0.0757278815      0.0603776915      0.1016101855      0.1576138830
H       2.6184284579     -0.6429909371      1.9505777204     -0.0583540105      0.0729240796      0.1126401451      0.1587837723
H       3.0886576263     -2.0658114013      0.9759474810      0.0440654467     -0.2580789016      0.0369369135      0.0937856032
H      -4.0622673739      0.0846408038      0.7991642395     -0.3025452725     -0.0386595940      0.0762617813      0.0919237092
H      -3.1926185050     -0.4151402552     -0.6566512240     -0.1490023272     -0.1140844946     -0.2871429516      0.0797853299
H       3.3758786524     -0.5971795000     -1.0249948162      0.1087589903     -0.1288950382     -0.2992341562      0.0797416600
H       4.4197054414     -0.1234803025      0.3205761238      0.3060221588     -0.0534588212      0.0404028678      0.0924228745
H       0.2620613015     -0.7203599082      2.3976375607      0.0153580145      0.0273549942      0.1731982726      0.1286650035
H      -1.3526455616     -1.7583381553     -1.3563774850     -0.1707397076     -0.0204205414     -0.1541396527      0.0344724925
H       1.4015483836     -1.8199727942     -1.5097011970      0.1504126428     -0.0284324127     -0.1784692187      0.0347950918
H      -2.2680018145      1.7712861249      1.2838202697      0.1548097616      0.0312493155      0.1793066786      0.1437368860
H      -1.4325596858      1.2992452063     -0.1960680977      0.2164716809      0.0351276007      0.0219487694      0.1457877682
H       1.7618270911      1.2116576750     -0.4100249285     -0.2081267369      0.0465966697      0.0460347092      0.1455215324
H       2.7771006933      1.6616256987      0.9599123303     -0.1305978189      0.0479595585      0.2092641307      0.1425632569
H      -4.2604896843      2.4746069303     -0.0657664350     -0.3260505011      0.0820063080      0.0963266741      0.0188174471
H      -3.4191982180      1.9978609882     -1.5507454480     -0.0947985109     -0.0520703609     -0.3351649935      0.0113628233
H      -2.7956259692      3.3330479876     -0.5679251918      0.0771588756      0.3393751613     -0.0663175165      0.0403984849
H       3.6196913444      1.7871855607     -1.9867248385      0.0521363605     -0.0658265563     -0.3471590142      0.0117046846
H       4.6432270592      2.2379388719     -0.6121713646      0.3350009446      0.0655875561      0.0554111328      0.0195023072
H       3.1783811883      3.1667004725     -0.9672051287     -0.0667775198      0.3407687123     -0.0650156041      0.0404389239
B       0.3399564900      1.5396520294      2.7764982344     -0.0446228056     -0.1847627856     -0.4948170717      1.4576021459
F       0.3985260434      2.8165760596      3.2434766448      0.0353668880      0.9846755725      0.4045247601     -0.5219214359
F       0.2767982951      1.5047744045      1.3537692769     -0.0101984023      0.3583527934     -0.3832621242     -0.5786264606
F      -0.8078585875      0.8508778806      3.2429251469     -0.6121264526     -0.2448060860      0.5500301588     -0.5798703103
F       1.4803491166      0.7819894570      3.1423433165      0.6642530347     -0.2858120101      0.4840494832     -0.5794800635
