27
Properties=species:S:1:pos:R:3:forces:R:3:charge:R:1 energy=-154.30591290133492 homo_lumo=0.0050811803376751554 dipole="-3.780111113070824 2.58491142794449 -3.7633725112337797" free_energy=-154.30591290133492
N       0.1601458188     -0.0021489304     -0.3812423763     -0.5740097672     -0.0102765673     -0.2964398776     -0.5300501444
C       1.6042325701     -0.0046501271     -0.6407818499      1.2707654379      0.0501163929     -0.1473826592     -0.0748654432
C      -0.5027321326      1.1871958842     -0.2474048659     -0.9638981896     -0.3598292394      0.2551764627      0.2628540864
C      -0.5069814892     -1.1885450288     -0.2399936804     -0.9174854335      0.3472711359      0.2386407185      0.2671031478
C       2.3726607160     -0.0010425720      0.6752018294     -0.0912878287     -0.0448664203      0.2958514124     -0.1234138059
C      -1.8696449041      1.2083723298      0.0387199929      0.7539016834     -0.5470668224     -0.1186966342     -0.0082629116
C      -1.8741234511     -1.2029863636      0.0462624660      0.7232251991      0.5736966032     -0.1200916165     -0.0041045177
C      -2.5562517006      0.0044375120      0.1883328432      0.1757937331     -0.0235056421     -0.0502454801      0.0464543175
H       1.8915308700     -0.9018105126     -1.2329621469     -0.4379615553      0.2465853171      0.1557272533      0.1440902260
H       1.8941917001      0.8861376384     -1.2408235703     -0.4889250100     -0.2535063135      0.0934698727      0.1307145488
H       0.0258568093      2.1273009939     -0.3541143498      0.5005853215     -0.1184249401     -0.1119362439      0.1134002381
H       0.0180084554     -2.1314086773     -0.3407264610      0.5237156204      0.0939191790     -0.0859407720      0.1259318942
H       2.1201591761      0.9058423080      1.2647552878      0.1375575704     -0.2831354030     -0.1104223855      0.0637587361
H       3.4646626214     -0.0101666939      0.4755097813     -0.3587717931     -0.0712973487      0.1024517453      0.0941618198
H       2.1051623270     -0.9010414752      1.2651774603      0.3192655750      0.2172952097      0.0321637080      0.1359959327
H      -2.3894515764      2.1514390634      0.1470500463      0.0040617504      0.2935401903     -0.0036336313      0.0720746779
H      -2.3977312149     -2.1433329995      0.1605023750      0.0160211685     -0.3053686768      0.0049733290      0.0773298239
H      -3.6147066149      0.0072215761      0.4147881648     -0.2952535528     -0.0039700707      0.0596598177      0.0702934279
N       4.8595740644     -3.8605736806      4.3595923856      0.1407807964      0.0000840245     -0.1699511619     -0.8230401168
S       4.6510806016     -2.7523633625      3.1752344301     -3.3900979324     -1.9749735856     -2.2819879406      1.8580983371
S       4.1298302948     -3.6871483227      5.8133837066      3.1881020942      1.9802860494      2.8097950908      1.8524205680
F       5.5579873889     -1.3906611927      3.5311106508     -0.2571418527     -0.6163659753     -0.1449009234     -0.4412709681
F       2.4993140991     -4.0345768463      5.6560524830      0.6767069775     -0.0141912123     -0.0762055404     -0.4433513481
O       5.1019616288     -3.3240760644      1.8610730794      0.7063142785      1.2042084696      2.3372842072     -0.7173920233
O       3.2017507036     -2.3659471610      3.0913407770      1.7495096544      0.7755514115      0.5152211891     -0.7564800281
O       4.2813816583     -2.2719520213      6.2970651785     -1.3214266555     -1.5172311534     -0.9785115115     -0.7008803887
O       4.7491335905     -4.6310540364      6.8043874579     -1.7900472898      0.3614553876     -2.2040684285     -0.6915700863
