59
Properties=species:S:1:pos:R:3:forces:R:3:charge:R:1 energy=-323.15674963121484 homo_lumo=4.364826882332998 dipole="-2.651296850200537 -1.0889064632937753 0.7264486527476746" free_energy=-323.15674963121484
N       0.3581589121      1.8943824241     -0.0335683300      0.0945244885     -0.1296046307     -0.0617595575     -0.4986324785
C      -0.1490157309      2.8416550902     -1.0789313953     -0.3269774881      0.4366118801     -0.2335017008      0.0013598536
C       1.0105194486      2.8065341381      0.9677737288      0.0909936518      0.4790638491      0.2587245532     -0.0416186963
C      -0.7679171661      1.1687395245      0.6404889692     -0.2692308474     -0.4076988068     -0.3907641925     -0.0115933000
C       1.3543837660      0.9561285091     -0.6513671869      0.2840269553     -0.5144397039      0.3483136009     -0.0463545050
C      -0.6476451336      4.0617796168     -0.3155881722      0.0219112780     -0.1475320100     -0.0372667713     -0.1420961267
C       0.1825755678      4.0895286040      0.9759095310     -0.0391634954     -0.0906669479      0.0367622051     -0.1328806902
C      -1.4959317501      0.1492837184     -0.2337071763     -0.0678906430      0.2782130409      0.6365696970     -0.2106895906
C       2.0352608538      0.0317753059      0.3524448314     -0.0288454942      0.1426242037     -0.6372020152     -0.2048323527
C      -2.7154006150     -0.3910899264      0.5232593878      0.2785013896     -0.1694367955     -0.7287924279     -0.1507148540
C       3.1762051532     -0.7137191938     -0.3514830322     -0.2406017557     -0.0558585694      0.7110180055     -0.1616084678
C      -3.4593761167     -1.4378058309     -0.3115080025     -0.2392904916      0.2582066698      0.8212170240     -0.1572448474
C       3.8758486713     -1.6773535890      0.6102938429      0.1899310986      0.0980361859     -0.8469708245     -0.1568991913
C      -4.6830986579     -1.9753331304      0.4371120812      0.1911079112     -0.2286923925     -0.6633217289     -0.1983265083
C       5.0401051653     -2.3940327991     -0.0810028005     -0.1777527059     -0.1277421998      0.7081883045     -0.1977394569
C      -5.4228589089     -3.0253304339     -0.3896801599      0.0794176347      0.2733207124      0.3783510461     -0.0461117016
C       5.7546495295     -3.3466621656      0.8757715271     -0.0951339670      0.2087816952     -0.4024049612     -0.0429546831
H       0.7025056002      3.1110382987     -1.7071441489      0.2911123898     -0.0268299738      0.0102245136      0.1927257763
H      -0.9140478570      2.3581533902     -1.6850960774     -0.1450544082     -0.2047368666     -0.1081518810      0.1035375681
H       1.0457779600      2.3158394175      1.9401392881      0.0292982424     -0.2083392048      0.1635222098      0.0832959355
H       2.0270048620      2.9982649146      0.6241469251      0.1699331508     -0.1347031212     -0.0968734154      0.2671715184
H      -0.3486402026      0.6657399214      1.5152089623      0.1288244181     -0.0426066657      0.1820238641      0.1338445506
H      -1.4713972634      1.9287918351      0.9892373054     -0.1117452106      0.2104553724      0.1027019968      0.1579169452
H       0.8317502392      0.3847773843     -1.4216038846     -0.1982040887     -0.1148176309     -0.1730035901      0.1050197863
H       2.1050701399      1.5814974220     -1.1358647135      0.0496788231      0.2234951724     -0.0346755589      0.2342742925
H      -0.4902176747      4.9613737338     -0.9125625416     -0.0327923846      0.1944986443     -0.1799272542      0.0978156160
H      -1.7143930313      3.9808136323     -0.0928742785     -0.2711026507      0.0356283527      0.0164828605      0.0634263308
H      -0.4656642918      4.1379562619      1.8536221929     -0.1430024219      0.0685654243      0.2193822934      0.0594314473
H       0.8520677368      4.9509968677      0.9968206165      0.1294411943      0.1303374158      0.0516355566      0.1267212706
H      -1.8272398535      0.6064575925     -1.1697913349     -0.0902928508      0.0758404570     -0.2507430079      0.1088632319
H      -0.8319457722     -0.6831564921     -0.4793410997      0.1756910779     -0.2020058600     -0.0916759343      0.1163054375
H       2.4562554920      0.6203588807      1.1706132216      0.1518769113      0.1569022509      0.1776313490      0.1290425200
H       1.3221360444     -0.6858915512      0.7708318103     -0.1719854285     -0.2517295791      0.1357628294      0.0810918368
H      -2.3870784101     -0.8396961223      1.4668561828      0.0376773612     -0.1051564368      0.2855669215      0.0874226406
H      -3.3917560371      0.4364057787      0.7629949284     -0.1973380280      0.1962809670      0.1113479742      0.0831787284
H       3.8977002700      0.0204155966     -0.7216061169      0.1377383958      0.1977856575     -0.0887554706      0.1478668433
H       2.7800768909     -1.2678238461     -1.2094537419     -0.0844489677     -0.1852284447     -0.2537302314      0.0623973105
H      -3.7771189990     -0.9882684445     -1.2584859174     -0.0722089270      0.0796562240     -0.2830138540      0.0842714930
H      -2.7804415353     -2.2648131227     -0.5455064990      0.1719024456     -0.2284968201     -0.1088605998      0.0864201418
H       4.2524103047     -1.1176252248      1.4729132978      0.0931555619      0.1517623711      0.2492828192      0.0880755555
H       3.1557361883     -2.4170175838      0.9794567088     -0.1728394271     -0.2188096795      0.1573707594      0.0651061746
H      -5.3617746188     -1.1467673347      0.6663576100     -0.1449408564      0.2244243182      0.1241648752      0.0818089815
H      -4.3627739544     -2.4178277048      1.3864230410      0.0731098685     -0.0507801030      0.2818889160      0.0827326970
H       4.6618279522     -2.9569256094     -0.9413011627     -0.0859876908     -0.0895156995     -0.2652571520      0.0754017662
H       5.7521741487     -1.6508647492     -0.4537062042      0.1364760701      0.2097935541     -0.1620510251      0.0943305801
H      -5.7629325556     -2.5983510907     -1.3341319403     -0.1239625619      0.0775180259     -0.3031906820      0.0298951460
H      -6.2910958026     -3.3887186698      0.1601345141     -0.3020397870     -0.1993815786      0.0684856295      0.0347990327
H      -4.7692368333     -3.8713208377     -0.6063610138      0.1586845778     -0.2835914553     -0.0950551860      0.0302985712
H       5.0638780377     -4.1039676498      1.2503620926     -0.1746032875     -0.2560751926      0.1519765787      0.0201219030
H       6.5741397520     -3.8486808653      0.3608527613      0.2967418669     -0.2288933449     -0.0509054268      0.0294927685
H       6.1627114688     -2.7986332009      1.7262119910      0.1392822124      0.1256499960      0.2825639707      0.0285885899
S       4.0324660750      3.4243903735     -1.0204863035      0.1328693390      0.1641189546     -0.0291217553      1.7558555127
O       3.9859346753      2.3905291981      0.0098956720      0.0564813029     -0.7155025747      1.0395954782     -0.8221965384
O       2.7285162367      3.6559385291     -1.6421113902     -1.1372707375      0.3877744501     -0.5344614914     -0.8343248247
O       5.1450746055      3.3493799951     -1.9260045122      1.2762766201      0.1122926610     -0.9001131027     -0.7617917799
C       4.2736989217      4.9735086593     -0.0316895292     -0.2536388124     -0.9276983764     -0.5210157783      1.1515428213
F       5.3745673703      4.9342487933      0.7041360827      1.2054825649     -0.0868492144      0.7502711169     -0.4414463775
F       3.2272524466      5.1077934594      0.8047435374     -0.9581353254      0.2906299732      0.9451695393     -0.4780625088
F       4.3142288571      6.0533311530     -0.7989741217      0.0843319386      1.1451513997     -0.8736299113     -0.4433316958
