44
Properties=species:S:1:pos:R:3:forces:R:3:charge:R:1 energy=-241.33664444550482 homo_lumo=6.213664713550671 dipole="-1.4661541640963893 -1.8385291865803637 -1.186069407997242" free_energy=-241.33664444550482
N       0.9804793424      0.4926331044      0.2288348950     -0.1633700858      0.0780402869      0.0211049431     -0.5030477183
C       2.0462557213      1.0472189717     -0.6751687659      0.4603852534      0.0534732448     -0.2954353552     -0.0261793719
C       1.7652362828     -0.1013505177      1.3628049270      0.4169684331     -0.3599195656      0.2004117835     -0.0168468700
C       0.0940942725      1.5820235769      0.7547577380     -0.3991418545      0.3278827670     -0.4114518206     -0.0701397372
C       0.2187369391     -0.5617819478     -0.5153904623     -0.4622419802     -0.2261124305      0.3344919204     -0.0118464748
C       3.2238239448      0.0819309027     -0.5766938402     -0.0912724546      0.0037533305     -0.0934491530     -0.1240631159
C       3.0184295081     -0.6949960105      0.7313843239     -0.1439508737     -0.0333596940      0.0172549907     -0.1401338577
C      -0.6847827495      2.3212577255     -0.3277855153      0.0768631269     -0.0197917250      0.6309580848     -0.2044256022
C      -0.9503718246     -1.1772620634      0.2518086635      0.3087049400     -0.1065732186     -0.6097769178     -0.2116250159
C      -1.3505245046      3.5552000733      0.2940474189     -0.0217566552     -0.1358659201     -0.5849299860     -0.2034429927
C      -1.5444265303     -2.3321219839     -0.5642743435     -0.1791106744      0.1942435483      0.5571064136     -0.1963778995
C      -2.1247645995      4.3523460661     -0.7529295495      0.1538468797     -0.1979983493      0.3914145221     -0.0462881410
C      -2.7275451658     -2.9670505285      0.1631897649      0.3276201059      0.1106508174     -0.3242424835     -0.0480585696
H       2.3201657169      2.0297089024     -0.2867902360     -0.0318330152      0.1355950974      0.0735356757      0.2310266178
H       1.6525609937      1.1443533214     -1.6868666895     -0.1910757814      0.0130161463     -0.2006836463      0.0806925764
H       1.1549923238     -0.8305319957      1.8940091118     -0.2351786364     -0.1209958225      0.0986986791      0.0962744123
H       2.0272417719      0.7177908525      2.0351849395     -0.0493998262      0.1667801258      0.0739334259      0.2230092262
H      -0.5808261678      1.1321963335      1.4859301882     -0.1242814604     -0.1537297388      0.1852273139      0.1071637300
H       0.7466243863      2.2855414825      1.2756116768      0.0687088148     -0.0218788360      0.0694273064      0.2709876613
H      -0.1498753722     -0.1056205454     -1.4374902757     -0.0154587463      0.1202511896     -0.1923821830      0.1297307611
H       0.9375865154     -1.3400224702     -0.7830391177      0.2037291290     -0.1369901803     -0.0805601371      0.1593593765
H       3.2584400512     -0.5927390686     -1.4352251120      0.0385098456     -0.1719320160     -0.2159595364      0.0579960033
H       4.1514716211      0.6544351291     -0.5420304719      0.1630112876      0.1381515829     -0.0562232314      0.1164060045
H       3.8644880990     -0.5528952191      1.4046594982      0.1585362244     -0.0141315996      0.1988579482      0.1093848984
H       2.8994417573     -1.7644118994      0.5404833660      0.0127906565     -0.2809983602     -0.0326467758      0.0579480992
H      -0.0063663637      2.6464740296     -1.1207361663      0.1783258795      0.1224374147     -0.2032824415      0.1168513041
H      -1.4471926632      1.6751499921     -0.7745873548     -0.2449776528     -0.1329386402     -0.1803431850      0.0830247776
H      -0.6207373227     -1.5557896322      1.2225919505      0.0485039809     -0.0996727571      0.2673070171      0.1125872754
H      -1.7264491593     -0.4280977063      0.4267396526     -0.1971900146      0.1872585555      0.0780531280      0.1165825666
H      -0.5771916097      4.1884117332      0.7389443926      0.2040645684      0.0919477367      0.1681025616      0.1251674289
H      -2.0298144919      3.2390836626      1.0924142907     -0.1411500494     -0.0682270036      0.2629192049      0.0786277176
H      -1.8726495065     -1.9565200116     -1.5389814350     -0.0343303741      0.0652537854     -0.2928097776      0.0881972014
H      -0.7727677737     -3.0890728606     -0.7388813454      0.2027393586     -0.1739603606     -0.1091902295      0.0863854927
H      -2.9070996801      3.7391886676     -1.2030617751     -0.2634071669     -0.1395468966     -0.1771207804      0.0195087761
H      -1.4555048858      4.6969777264     -1.5418780703      0.1751475666      0.1344466598     -0.2658094838      0.0324566519
H      -2.5887796605      5.2214622580     -0.2872705954     -0.1922815970      0.3118098252      0.0411250479      0.0380993160
H      -3.5147337641     -2.2306640622      0.3278864669     -0.2719770443      0.1790786641      0.0773898815      0.0345711298
H      -2.4140621971     -3.3633444410      1.1294830835      0.0427041844     -0.1408373817      0.3089328522      0.0340608617
H      -3.1339006471     -3.7836873382     -0.4328181407     -0.2141856217     -0.2783303531     -0.0991854668      0.0408970103
B       3.0203557474      3.1124223736      1.9379637588     -0.1435532249     -0.3055584671     -0.1476797248      1.3955487377
F       3.8031053953      4.0486111740      2.5395793740      0.5979828446      0.7400461456      0.4617021903     -0.5151152575
F       2.2716266812      3.6598172232      0.8599158862     -0.2648975553      0.5749708299     -0.5433770733     -0.5761798743
F       2.0802851935      2.5442328063      2.8378636001     -0.3811785467     -0.1176671444      0.7048824333     -0.5719914986
F       3.7838907099      2.0394637866      1.4101761744      0.6180578122     -0.3120712930     -0.1062979353     -0.5767836175
