35
Properties=species:S:1:pos:R:3:forces:R:3:charge:R:1 energy=-192.8311981527878 homo_lumo=1.6188863486048164 dipole="6.936158103941219 -2.058746957657392 -1.05158684049202" free_energy=-192.8311981527878
N       1.0374574294      0.3260802888      0.4518262690     -0.8382068588     -0.8228340577      0.0036580973     -0.5168376955
N      -0.9944725585      0.3153446828     -0.4511753920      1.1113794314     -0.8207814350      0.0543122791     -0.5066921497
C       2.2926000146     -0.1374819757      1.0396694008      0.8720711769     -0.0857218961      0.3299152515     -0.0261993018
C      -2.2484658419     -0.1610738407     -1.0311752382     -1.1187557654     -0.1958028599     -0.3659064344     -0.0318545163
C       0.0233453861     -0.4398864547      0.0049976288     -0.1318321698     -1.3273681255     -0.0280196049      0.5638450506
C       3.4675018286      0.0885815023      0.0817493987      0.0812699250     -0.1027128282     -0.2219124618     -0.2376949521
C      -3.4230796745      0.0831772136     -0.0778811553     -0.0598830011     -0.0505708885      0.2875138910     -0.2520684419
C       0.6488390374      1.6050906137      0.2728118042     -0.6658300411      1.5461768533     -0.3087709816      0.2316629078
C      -0.6121319087      1.5984373040     -0.2877862644      0.6563440326      1.4597269942      0.2793701119      0.2490847388
C       3.3297341666     -0.7373378860     -1.1963336401      0.0093110537      0.0566827543     -0.1277654293     -0.1102728768
C      -3.3062270671     -0.7481479084      1.1982983083      0.0094399148      0.0265374613      0.0815074191     -0.1084409220
H       2.2214037962     -1.2189189172      1.2908897134     -0.2665552043      0.3971844172     -0.1528588963      0.1277690959
H       2.4774885991      0.4127671817      1.9875513533     -0.3349452768     -0.1076299153     -0.2484286585      0.1406170873
H      -2.1762996108     -1.2467324043     -1.2631485276      0.3107315749      0.3787511390      0.1539467702      0.1176577513
H      -2.4332589296      0.3722271200     -1.9887250016      0.3330619642     -0.0570119091      0.2682100976      0.1419523263
H       0.0260257825     -1.5229998985      0.0116128715     -0.0201957364     -0.0199686457      0.0098782032      0.1037430423
H       3.5416913658      1.1663472808     -0.1794648832      0.0505011073     -0.2165831897      0.1807822814      0.1198593130
H       4.4079935335     -0.2047950386      0.5963012164     -0.3097035433      0.1891855578      0.0470560261      0.1235744462
H      -3.4743964478      1.1608255990      0.1871449165     -0.2369547640     -0.2298581037     -0.2000308119      0.1625443985
H      -4.3677460296     -0.1895309296     -0.5962665378      0.2879242420      0.2976583237      0.0054618475      0.1550449567
H       1.2350777713      2.4765902493      0.5342382292      0.1781411842     -0.0830445550      0.1001368452      0.0651206285
H      -1.2033662459      2.4637315592     -0.5584714319     -0.2464396592     -0.0784149256     -0.0689218891      0.0794130262
H       2.4552093502     -0.3934541049     -1.7881672205      0.2545037446     -0.1925021067      0.0687160066      0.0711865618
H       3.2060985851     -1.8138444380     -0.9511415963      0.0471324842      0.2634887864     -0.1610636337      0.0509432455
H       4.2427043226     -0.6171856990     -1.8165103186     -0.3479907367     -0.1034799023      0.0906917281      0.0800208130
H      -2.4187805801     -0.4331138998      1.7868841408     -0.2293373871     -0.1659711027     -0.0252938492      0.0403580136
H      -3.2178158486     -1.8275938190      0.9508332160     -0.0281940448      0.2225672818      0.1506873884      0.0270861124
H      -4.2128525698     -0.5998054454      1.8218982921      0.3023235795     -0.0268293213     -0.1424730145      0.1207688301
P      -7.4246020695      2.4019477748      1.1123993348     -0.7537884152      0.3570407147      0.1386849751      2.1001125289
F      -6.9226543577      1.4595439543      2.4582531079     -0.2284632698      0.8640331084     -0.9893270858     -0.5163398537
F      -8.9846223141      2.7022266421      1.7660127080      1.5203214775     -0.6563336422     -0.3543351824     -0.5036049102
F      -6.8513547522      3.7957614154      1.9368406675     -0.4733863629     -1.0540588494     -0.9653021134     -0.5095012709
F      -7.9295848903      3.2715890578     -0.2803187900      0.5036701254     -0.6532741458      1.2177841555     -0.5081752642
F      -5.8944064492      2.2739044338      0.3449296975     -0.6764237645     -0.3767537345      0.6790151024     -0.5314410857
F      -7.9457049524      0.9151206465      0.4276249022      0.4387589830      1.3684727477      0.2130815695     -0.5132416340
