23
Properties=species:S:1:pos:R:3:forces:R:3:charge:R:1 energy=-128.030501959845 homo_lumo=0.2612205026093643 dipole="-0.14666725874014627 2.466832392984611 2.6939610200483655" free_energy=-128.030501959845
N       1.1104804092      0.3722407983     -0.3601399201     -0.7344776797     -0.3428130894     -0.6549755762     -0.5220365781
N      -1.1136348925      0.3767125294     -0.3555920501      0.7169576306     -0.3391611685     -0.6600316834     -0.5226847184
C      -0.0037560390     -0.2267279266     -0.8237353860      0.0000876718     -1.4830623016     -0.9232723822      0.5749709503
C       2.4921788230     -0.0171851342     -0.6309643793      0.7601201021     -0.4494591550     -0.1439244519     -0.0655956453
C      -2.4978860069     -0.0074136975     -0.6206544707     -0.7357142048     -0.4369136274     -0.1268907628     -0.0656145893
C       0.6923921178      1.3921875815      0.4170801058     -0.8420703301      1.3230193092      1.0386258281      0.2269062354
C      -0.6883646751      1.3949391027      0.4199280857      0.8443740381      1.3375582035      1.0467049218      0.2255833286
C       3.1079684414     -0.6737438580      0.5984498749     -0.0048672215     -0.0653321763      0.2716273177     -0.1135497697
C      -3.1101271240     -0.6640361790      0.6104655342     -0.0033793991     -0.0715113204      0.2668401568     -0.1139666770
H      -0.0069801272     -1.0954553551     -1.4683638286      0.0353648450     -0.4882950765     -0.5774280041      0.1117892465
H       2.5258382903     -0.7379510205     -1.4771032792     -0.3887268686      0.3447599092      0.1146403317      0.1541272482
H       3.0847495410      0.8787825200     -0.9160647968     -0.4333609695     -0.1330395317     -0.0034144414      0.1221282374
H      -3.0886840452      0.8910671863     -0.9014808544      0.4285913496     -0.1385028702     -0.0096867863      0.1230616984
H      -2.5378616923     -0.7265595497     -1.4678774551      0.3765698491      0.3649410241      0.1339746886      0.1526175712
H       1.3419452226      2.0821485920      0.9396389819      0.1892460587     -0.0484904781     -0.0633697189      0.0458540351
H      -1.3330786204      2.0874566612      0.9451035730     -0.1888674517     -0.0461092032     -0.0623066688      0.0454710780
H       3.1146125540      0.0373853422      1.4512257161      0.0611532171     -0.2878565500     -0.1566545776      0.0575969412
H       4.1522596470     -0.9781273094      0.3763328148     -0.3306788826      0.0971732041      0.0833373197      0.0766721756
H       2.5233130528     -1.5761873801      0.8775281560      0.2276629030      0.2627009406     -0.0460480307      0.0839469056
H      -2.5265090058     -1.5682374239      0.8860234927     -0.2250863507      0.2658965073     -0.0401760517      0.0843936119
H      -4.1560553932     -0.9656407788      0.3922822709      0.3277594823      0.0977881503      0.0868535367      0.0761392694
H      -3.1113704915      0.0460691715      1.4641077543     -0.0612140714     -0.2892186152     -0.1607296508      0.0593827415
Cl      0.1802043814     -3.0864637044     -3.7757255029     -0.0194437180      0.5259279151      0.5863046857     -0.8171932965
