25
Properties=species:S:1:pos:R:3:forces:R:3:charge:R:1 energy=-132.45590602082615 homo_lumo=4.084031352435609 dipole="-0.6397987487939119 1.8026842753889696 -2.2279937491682515" free_energy=-132.45590602082615
N       0.0646598046     -0.1247529920      0.4605834547     -0.0805469496      0.1187323413     -0.1802006313     -0.6278338213
C      -0.9112512041     -1.2271201303      0.6899713559     -0.1990238143     -0.1805859177      0.0405448928      0.0719696658
C       0.1389009812      0.7349152443      1.6729641213      0.0933780665      0.1454042841      0.1886859065      0.0701036355
C      -0.3771106941      0.6937384797     -0.6980053895     -0.0191135390      0.0214999003     -0.0239377572      0.1014943984
C       1.4081730387     -0.6987107232      0.1740111138      0.2337026932     -0.0257790502      0.0016647100      0.0684828449
H      -0.6050851076     -1.7888435152      1.5705218657      0.1144833968     -0.1072371209      0.2067520852      0.2003576923
H      -1.8969758173     -0.7941946512      0.8493204169     -0.2684245253      0.1834248103      0.0271166184      0.0564284854
H      -0.9210844207     -1.8747856089     -0.1841174410      0.0262103168     -0.1475983485     -0.2791681101      0.0586955667
H       0.8555570077      1.5344407132      1.4958430631      0.1804436204      0.2298986540     -0.1389408948      0.0566819418
H      -0.8474484855      1.1499135496      1.8706858288     -0.2960211913      0.0821996032      0.0303891213      0.0648648490
H       0.4558245401      0.1222578574      2.5163251967     -0.0785685770     -0.2320758919      0.2199625966      0.1918648304
H       0.3504437249      1.4845742585     -0.8713995581      0.1968371802      0.2080918274     -0.0394177088      0.0809077999
H      -0.4477007555      0.0549506276     -1.5764019694     -0.0204528326     -0.1878137813     -0.2336451536      0.0820950463
H      -1.3504287604      1.1271471492     -0.4754973407     -0.2689871103      0.1042562579      0.0694921816      0.0817945899
H       2.1225504121      0.1139523890      0.0588053068      0.1369408361      0.2913577759     -0.0635714927      0.0569759030
H       1.6950905963     -1.3428564813      1.0045762105     -0.0284149832     -0.2849974479      0.1792734802      0.1944355568
H       1.3521797697     -1.2831611915     -0.7421353583     -0.0646268657     -0.1707453151     -0.2529522228      0.0628229522
S       0.9957918069     -2.5785270472      3.5463258337      0.2892396082      0.1012832648      0.0677038320      1.7509705316
O       1.2227611383     -2.9734812712      2.1586312290      0.3693024560     -0.3543432369     -1.2742833225     -0.8210409279
O       0.9221824129     -3.6479925551      4.4989516894      0.0974924412     -1.1342607527      1.1547225822     -0.7548787690
O      -0.0249582812     -1.5409497264      3.6713736191     -0.8866133019      1.0577333041      0.1911812464     -0.8218076939
C       2.5483719846     -1.6405552804      3.9417269603     -0.9444728154     -0.4781362567     -0.3530915646      1.1406503935
F       2.6387639705     -0.6121042839      3.0673270446      0.3172976667      1.1136198837     -0.7586936304     -0.4829626091
F       3.6412481886     -2.3752406431      3.7994791362      1.1394171558     -0.8523413854     -0.1360630577     -0.4419246866
F       2.5378571983     -1.1234285760      5.1605306457     -0.0394789323      0.4984125982      1.3564762933     -0.4411481755
