76
Properties=species:S:1:pos:R:3:forces:R:3:charge:R:1 energy=-411.2031993540872 homo_lumo=5.162225387643143 dipole="0.25545370292184566 -1.4019829118937013 -3.2277253904447556" free_energy=-411.2031993540872
N      -0.1190474800      3.2390482193     -0.5509911617      0.2332387509     -0.1256123233     -0.2334929489     -0.4874243436
C      -0.5229588345      3.7413929558     -1.9040635561     -0.2617446264      0.3452574304     -0.2464657951      0.0110862572
C       0.5380654326      4.4363544151      0.0701008328     -0.0340945361      0.5012504641      0.2004786717     -0.0589264352
C      -1.3272006962      2.8670266033      0.2659298808     -0.2575812208     -0.6265952265     -0.1115287433     -0.0954216643
C       0.8441548547      2.0985518883     -0.6889791486      0.1404914619     -0.2850542580      0.5970020131     -0.0050371255
C      -0.9701011831      5.1860069219     -1.6869982383      0.0406369338     -0.1528686281     -0.0457660876     -0.1342328111
C      -0.3005175691      5.6273933903     -0.3775096362     -0.0109734867     -0.1391440801     -0.0076739281     -0.1637001900
C      -2.0580540866      1.6135813947     -0.2076393894     -0.0617413614      0.5447615243      0.3384210825     -0.2145209137
C       1.3846815928      1.5939621234      0.6459824558      0.1095979890     -0.1370895703     -0.7371369193     -0.2488542208
C      -3.4155943995      1.5225327562      0.5016104913      0.3139238997     -0.5288338424     -0.4597926301     -0.1744352011
C       2.3727407306      0.4457015881      0.4169343963     -0.2834084082      0.3535895720      0.6159137494     -0.1492251811
C      -4.1596702952      0.2450909347      0.1036777945     -0.2845646109      0.6151536000      0.5377912379     -0.1574824657
C       2.9379817372     -0.0409236658      1.7552552380      0.2424528222     -0.3403752342     -0.7949256878     -0.1688735597
C      -5.5068794327      0.1475871260      0.8267099678      0.2318692923     -0.5185394323     -0.4739585758     -0.2000282097
C       3.9369676135     -1.1843655477      1.5555088227     -0.1809341589      0.2677611617      0.6408430937     -0.1975191976
C      -6.2556238886     -1.1259663117      0.4387675055      0.0771497673      0.4112800414      0.2187861090     -0.0449052712
C       4.5005793712     -1.6646722942      2.8916473646     -0.0530028398     -0.0024113912     -0.4790563620     -0.0455282784
H       0.3588568286      3.6980412898     -2.5474111812      0.2383081607     -0.0826964486     -0.0641717446      0.1142457212
H      -1.2996682313      3.1021205708     -2.3218411733     -0.0968450656     -0.2229188578     -0.0972875014      0.1288025850
H       0.5661658666      4.3187093754      1.1500147268     -0.0207138680     -0.0747982343      0.0693230022      0.2581808002
H       1.5570506945      4.4964937039     -0.3180284844      0.2390579083     -0.0943025168     -0.1567443846      0.1008165302
H      -0.9881833898      2.7343183653      1.2927490387      0.0351561676      0.1645181657      0.0481928716      0.2658425414
H      -1.9973207132      3.7277582917      0.2435260984     -0.0750464297      0.2189792133      0.0474948077      0.1786638004
H       0.3290809487      1.3007851482     -1.2294821914     -0.1371994933     -0.1575427719     -0.1636783962      0.1350700139
H       1.6695792442      2.4571283239     -1.3105614390      0.1299228008      0.1428914462     -0.1670626744      0.1141499526
H      -0.6557944511      5.8026193575     -2.5308094586     -0.0164954627      0.1173639788     -0.2462707064      0.0924606043
H      -2.0571482682      5.2481064174     -1.6083602440     -0.2552481971      0.0618739934     -0.0428468644      0.0801800439
H      -1.0485654244      5.8719486825      0.3770767438     -0.0328313168      0.0755948213      0.1621360887      0.1457525041
H       0.3361056596      6.5011937188     -0.5203025253      0.1147376426      0.2285976375      0.0907318707      0.0954359027
H      -2.2195610943      1.6348803115     -1.2896744190     -0.0786337048     -0.0627137936     -0.2937073418      0.0896280854
H      -1.4698119503      0.7223104074      0.0279095286      0.1442106117     -0.2579889539      0.0345034818      0.1028979198
H       1.8951837057      2.4056295805      1.1671023809      0.0598947173      0.1173954587      0.1392842477      0.1806514333
H       0.5699172852      1.2438641209      1.2828354817     -0.1843387999     -0.0690977289      0.1853413833      0.1323266688
H      -3.2596652982      1.5320921157      1.5832833494     -0.0342716440      0.0547310154      0.2231030448      0.1513775792
H      -4.0196242441      2.3979665645      0.2414608467     -0.1727354296      0.2409891922     -0.0214092800      0.0764773453
H       3.1901442006      0.7883545784     -0.2268563823      0.2417268547      0.0398640300     -0.1919070586      0.0725296024
H       1.8655615188     -0.3797312388     -0.0945253538     -0.0830689495     -0.2582508837     -0.1704718139      0.0741356765
H      -4.3218169168      0.2374907409     -0.9801080031     -0.0426575841     -0.0609053170     -0.3073447928      0.0728493081
H      -3.5454959636     -0.6263314560      0.3555512148      0.1552151227     -0.2628591048      0.0378613635      0.0811083189
H       3.4322339499      0.7935596163      2.2631793793      0.0890319704      0.2223975389      0.1943390428      0.1083527229
H       2.1152825564     -0.3793369079      2.3935312471     -0.2111550570     -0.0490675542      0.2238522406      0.0914542192
H      -6.1178978419      1.0210525814      0.5757073712     -0.1311716661      0.2640903141     -0.0035897025      0.0833079223
H      -5.3385889318      0.1565126412      1.9084078890      0.0409253014      0.0874279686      0.2829784312      0.0921028564
H       3.4400527630     -2.0181116618      1.0474383862     -0.1101490426     -0.1981049008     -0.1993889547      0.0767571497
H       4.7573260352     -0.8434211593      0.9145845750      0.1823640153      0.0672577010     -0.2230837191      0.0779228405
H      -6.4509099589     -1.1439405005     -0.6345140234     -0.0851773950     -0.0570519232     -0.3289945523      0.0245172953
H      -7.2084390829     -1.1731647958      0.9660601913     -0.3289286143     -0.1339802873      0.1092316123      0.0352634052
H      -5.6699460123     -2.0084975788      0.6998070084      0.1381440845     -0.3016901486      0.0611436880      0.0281126429
H       3.6986931286     -2.0269395641      3.5360848264     -0.2127927825     -0.1136421910      0.2413338708      0.0319327871
H       5.2092350647     -2.4766757762      2.7278915934      0.2421550518     -0.2651408900      0.0808927236      0.0305642398
H       5.0156671830     -0.8506869541      3.4030461965      0.1620178185      0.2205835639      0.2072366188      0.0337815923
P      -0.6803156269      5.1666039760      4.1148890687      0.2807004518      0.4962070169     -0.1756091275      1.6855103980
F      -2.0388453439      6.1044945637      4.2697082333     -0.0525147968      0.0764727127      0.0570189559     -0.5115180218
F      -1.1988474716      4.5789353936      2.5778844903     -0.0113393264      0.2331974404      0.3599625049     -0.5485740454
F      -0.0918662718      5.7270540711      5.5684989726     -0.0541811319     -0.1245439122     -0.1232592994     -0.5127200144
C       0.0418399867      6.7087047476      3.1351080943     -0.2398193779     -0.4729307998      1.0310833344      0.5198037434
C      -1.7447231337      3.7154365139      4.9879571588      0.7901759973     -0.0692674471     -0.7729687364      0.5522471202
C       0.9599339490      3.9719005443      4.0061466662     -0.4507464885      0.9206677307     -0.0975555055      0.5344049524
C       0.4880892736      7.9726872388      3.9137284651     -0.3138796912     -0.8506001188     -0.0618938263      1.4038909118
C      -1.6948668966      2.2131188693      4.5647343219      0.1017782972      0.7045552390     -0.0449187554      1.3924299314
C       2.4358200435      4.3304182099      3.6681838689     -0.7928493652      0.2543452271      0.0175690444      1.4306336336
F      -0.8925500880      7.1303306982      2.2579995573     -0.8967579630      0.6892198582     -0.7621246282     -0.4616128537
F       1.0975359419      6.3151043692      2.3792063857      1.0093003526     -0.0586961936     -0.7412201111     -0.4828839874
F      -3.0424824132      4.0281984704      4.8064528278     -1.2834663554      0.1568282371     -0.2720521035     -0.4402058691
F      -1.5143588713      3.7312606066      6.3092598933      0.2134595261     -0.1075192055      1.3561759389     -0.4368877844
F       0.6695103853      2.9625245513      3.1315157038      0.0339157061     -0.8460897331     -0.6798365012     -0.4798418337
F       1.0114221617      3.4144950352      5.2303751018      0.3865130913     -0.3373079185      1.1839383890     -0.4447452911
F       0.8621547652      8.9241242840      3.0510951941      0.3815423718      0.8721594014     -0.9691504360     -0.4590310784
F       1.5209587308      7.7199417654      4.7093630146      0.9528817381     -0.1670372835      0.6394841041     -0.4480831793
F      -0.5059999270      8.4543709540      4.6479885264     -0.9327295907      0.4275743248      0.5875568951     -0.4419034088
F      -2.7517591512      1.5834749205      5.0811311011     -1.0243015718     -0.5841424706      0.6176989116     -0.4530303018
F      -1.7801499304      2.0731336960      3.2295790258     -0.2361131843     -0.1906878610     -0.9137638792     -0.4904774191
F      -0.6133183723      1.5643939476      4.9690300548      0.8485859495     -0.6332102147      0.4885046218     -0.4482256998
F       2.6202432797      4.3443465238      2.3358306983      0.3565799828     -0.0338665575     -1.0776836066     -0.4813745547
F       3.2547012686      3.3974740111      4.1542075207      0.7329697157     -0.9765041536      0.4675141208     -0.4559949585
F       2.8140420645      5.5013864713      4.1546208264      0.3355722690      0.8368433410      0.5650705137     -0.4444341889
