36
Properties=species:S:1:pos:R:3:forces:R:3:charge:R:1 energy=-204.5406875531473 homo_lumo=3.1885260082308253 dipole="1.2929889054649002 -1.1800711080716624 -1.1090404374154081" free_energy=-204.5406875531473
N      -0.2996294835      1.0630253674     -0.5446109157      0.2388221344      0.3245829816      0.3388849087     -0.5034799326
N      -1.5302939693     -0.3867628298     -1.5516597043     -0.0202503384     -0.4707342691     -0.1791773246     -0.4923291706
C       0.4533934258      1.7442663960      0.5018748984      0.7948557584      0.0709427092     -0.1806495968     -0.0286208799
C      -2.3812929920     -1.5441052209     -1.8073919937     -0.5773118225      0.1991113763      0.1015076518      0.0028001372
C      -0.8871931930     -0.1233623208     -0.4156586539      0.0517163026     -0.2237736113      0.0708171763      0.5965898317
C       1.9563110102      1.5759308206      0.2826969478     -0.2592122202     -0.5142538337      0.1132999592     -0.1871907369
C      -3.8187094170     -1.2896579371     -1.3305122585      0.2549279323     -0.3511850110      0.2143462333     -0.2192562264
C      -0.6008385410      1.5856406175     -1.7705887270      0.0757635978      0.0243127672     -0.2690309859      0.2355388479
C      -1.3809976703      0.6732663533     -2.4056136675      0.1491868453      0.1294285965     -0.2566201852      0.2351064667
C       2.3971746025      0.1174389074      0.3926279530     -0.0602786712      0.4574549659     -0.0922942698     -0.0736415798
C      -3.9897305135     -1.5343689629      0.1654754357      0.0858037917      0.1059591510     -0.4475753776     -0.0855897670
H       0.1360721932      1.3230866718      1.4587483296     -0.1728616717      0.0170823986      0.1426435821      0.1344317605
H       0.1694430632      2.7988949390      0.4732277793     -0.2538908808      0.0918179431      0.0926221424      0.1451864989
H      -1.9433386545     -2.4074939027     -1.2977781892      0.1223301366     -0.1805840216      0.0457601820      0.0969656500
H      -2.3638813484     -1.7241809747     -2.8857148297      0.1429237939     -0.0428137324     -0.2062579166      0.0986737720
H      -0.8568694572     -0.7480294587      0.4587885300     -0.0367698326     -0.0955395738      0.1444499482      0.0968894719
H       2.2262100832      1.9707103390     -0.7016954108      0.1117857496      0.1834379935     -0.2295072522      0.0902552464
H       2.4722750775      2.1728015053      1.0395528205      0.1131074680      0.2411186257      0.1584999094      0.0951545578
H      -4.0929423937     -0.2585725660     -1.5670479477     -0.0562528941      0.2497840604     -0.0754750702      0.1474272207
H      -4.4759223182     -1.9601827625     -1.8921521039     -0.1649935226     -0.1942073285     -0.2086844592      0.0745262687
H      -0.2594340242      2.5590327026     -2.0751013010      0.0312568013      0.2414111992     -0.0341089452      0.0362665974
H      -1.8416272209      0.6923780541     -3.3773258750     -0.1558116291      0.0171388811     -0.1902539641      0.0300199004
H       1.9062785635     -0.4906441094     -0.3689178488     -0.0804250026     -0.2323009721     -0.2235532184      0.0551737484
H       2.1450671740     -0.2846896752      1.3745489680     -0.0512428097     -0.1636603186      0.3149468361      0.0339038522
H       3.4751550359      0.0434480980      0.2522866207      0.3250444271     -0.1492850713     -0.0426600757      0.0466316351
H      -3.3577880964     -0.8595349531      0.7401574624      0.0928338602      0.2843911361      0.2573808427      0.1228726415
H      -3.7338986987     -2.5642374404      0.4204810311      0.0272146276     -0.3784359002      0.0833105439      0.0016667435
H      -5.0265074537     -1.3505246307      0.4447911373     -0.2810674936      0.0676318370      0.2045008093      0.0456428304
S      -2.8707457786      2.0886894537      0.7716186750     -0.1686949269      0.0793500324     -0.0362097420      1.7985088906
O      -3.3816836161      1.6909146570     -0.5312374727     -0.6857095458     -0.2576156672     -0.9772236471     -0.8123080091
O      -2.0560005737      3.2884160930      0.7603628675      0.5435325690      1.2715217216      0.1137774343     -0.8055567722
O      -2.2904781983      0.9851372819      1.5375497192      0.2335633371     -0.8933577682      0.9797699403     -0.8299138006
C      -4.3891281106      2.5297484585      1.7304102404      0.8876437409     -0.2843652857     -0.5342780407      1.1581934902
F      -5.1991699073      1.4755192438      1.7990560398     -0.9356426964     -1.1521851727      0.1000250798     -0.4524007276
F      -5.0483932144      3.5226115006      1.1467056528     -0.6895482925      1.1111972281     -0.6574626234     -0.4436423718
F      -4.0822608350      2.8994345283      2.9678659758      0.3676513768      0.4166219330      1.3644795148     -0.4444960855
