62
Properties=species:S:1:pos:R:3:forces:R:3:charge:R:1 energy=-339.0091250797888 homo_lumo=0.4191577848411234 dipole="-5.9942166583656595 2.638899601245179 -6.442883036967735" free_energy=-339.0091250797888
N       0.2156908907      2.2834777170     -0.1613001161     -0.8459226166     -0.3370567679     -0.8489394491     -0.5078408862
N      -1.8694767596      1.5106513462     -0.1556066593      0.7946064358      0.2813522482     -0.8645588446     -0.5105282658
C       1.5905369081      2.5353052687     -0.5904179815      1.0612426209      0.2883037316     -0.1746796116     -0.0285585412
C       2.5608225058      1.5335688630      0.0515675231     -0.2867792007     -0.2662523191     -0.0400077171     -0.1979644199
C      -3.0895573750      0.8278045565     -0.5832753321     -0.9365111085     -0.3849816491     -0.1092583865     -0.0259847720
C       2.2068734271      0.0840294346     -0.3124591314      0.2784188882      0.2323128137      0.2265451552     -0.2139775388
C      -3.2081296210     -0.5534237984      0.0755015695      0.3618781989     -0.0642337683     -0.1417199117     -0.2014206265
C      -0.7669073792      1.7292604629     -0.8981571051      0.2389476507     -0.4745886435     -1.2718403790      0.5629549430
C      -0.2854019284      2.4312114581      1.0818060909     -0.7539758220      0.0113089682      1.4733836229      0.2415290315
C      -1.5798160276      1.9531820032      1.0849329462      0.5709834381      0.4987892122      1.5031844754      0.2340808326
C       3.2355159211     -0.9004465402      0.2509539609     -0.1437996325     -0.1607941401      0.0052004010     -0.2301812759
C      -2.0723514871     -1.4926288866     -0.3558065590     -0.0836101959      0.0046087326      0.1496381260     -0.2630883872
C       2.8374273253     -2.3412724957     -0.0592501226      0.1435891294     -0.1648186657      0.0228047149     -0.0987206982
C      -2.2147298430     -2.8666058284      0.2910949892      0.1450114055     -0.1863987781      0.0001416829     -0.0997263419
H       1.8806695040      3.5693083981     -0.3048736734     -0.3577158405     -0.2093148942     -0.0774394487      0.1403245946
H       1.6641963559      2.4593395975     -1.6977892151     -0.3584567520      0.0201579672      0.3772332000      0.1230092732
H       3.5891160960      1.7635930135     -0.3032184929     -0.2945010263      0.0758447164      0.1399888355      0.1294569164
H       2.5432501011      1.6572398431      1.1564559687      0.1384693832     -0.0120742532     -0.2533964595      0.1298673809
H      -3.9699602578      1.4467092807     -0.3063407076      0.4070426073      0.0539163298     -0.0837607708      0.1375706194
H      -3.0958772080      0.7114668274     -1.6896162433      0.2521742556      0.2325755513      0.3865885823      0.1260586024
H       2.1643860483     -0.0209830561     -1.4190226537     -0.0904857125     -0.0034939236      0.1635604615      0.0757611554
H       1.2081865452     -0.1659311658      0.1053992189      0.1259409464     -0.0180235057     -0.1502118014      0.1397762584
H      -4.1832530232     -1.0001000654     -0.2174665741      0.1829018826      0.2299232782      0.1140876685      0.1224389964
H      -3.2032549557     -0.4385933180      1.1814175241     -0.0889814947     -0.0682305566     -0.2343522796      0.1224897202
H      -0.6606127075      1.4344843973     -1.9349549650     -0.0094068572      0.0518373727     -0.0246687514      0.1035188276
H       0.2611436429      2.8208173630      1.9307910046      0.2000772706      0.1078442658     -0.0734194887      0.0767050923
H      -2.2458863565      1.8991573195      1.9362127990     -0.2056801153     -0.0336191901     -0.0795903317      0.0697369777
H       3.3078769134     -0.7761564614      1.3531445282      0.1358181477      0.0405469853     -0.2939740464      0.1451467001
H       4.2333023790     -0.6960578987     -0.1945600031     -0.2029367161      0.0581471024      0.2218032625      0.0950949989
H      -2.0820089403     -1.6107397892     -1.4612296897      0.0604007449      0.1440424176      0.1803929458      0.0860040709
H      -1.0922637756     -1.0648832499     -0.0566568599     -0.1566403376     -0.0182777701     -0.1594117582      0.1640164909
H       2.7374320661     -2.4877752880     -1.1558041465     -0.0230664684     -0.0469073293      0.2720129870      0.0270211436
H       1.8718918466     -2.5879253913      0.4324770379      0.2670280651     -0.0323800563     -0.1668769340      0.0448239572
H       3.6167975529     -3.0346957921      0.3195539050     -0.3240126392      0.1074499117     -0.0986929808      0.0816218161
H      -2.1784646826     -2.7766117995      1.3977643109     -0.0415382906     -0.1400870939     -0.3146474230      0.0580991188
H      -1.3794916980     -3.5201436466     -0.0385052029     -0.3045229499      0.0906608791      0.1901948354      0.0752921047
H      -3.1749699477     -3.3374602134     -0.0087500164      0.2878763598      0.0581599675      0.1667923091      0.0517686131
P       5.8694978978     -1.4566160255      6.5434158017     -2.4406708490     -1.6415267010      2.4841104506      1.6299066481
F       4.6106661723     -2.2791615918      7.3876659901     -2.8966327293      1.2746325548     -0.1053482739     -0.5271234191
F       5.1842840084     -0.1026333865      5.7267373251      0.2953213393     -0.3447705799     -0.7061685318     -0.5256086764
F       6.5663207242     -2.6794255820      7.5329245663      2.4095838574      0.1628863624     -0.7970082719     -0.5167069072
C       5.5644710721     -0.1655093263      7.9494895949      0.6974220649     -0.0515700299      0.3814717981      0.5350823893
C       4.9201834475     -2.4399518199      5.1730724418      0.8388159813     -0.4951749338     -0.3046020432      0.5563127455
C       7.6613706899     -1.4167351942      5.8511263592     -0.3171448482      0.4775792682     -0.4024607277      0.5376044906
C       5.9915223888     -0.5992795795      9.3690893757     -0.1851885783     -0.4238479243      0.6362614568      1.3361276632
C       5.3284647084     -2.1889510214      3.6997179543      0.0063554231     -0.1201768296     -0.4037579905      1.3296443878
C       8.7896305927     -0.9760447979      6.8021412983      0.7940880435     -0.1301810320      0.7403627562      1.3627645866
F       4.2057259317      0.1213041986      8.0128911462      0.5929836795     -0.0032797616      0.1475630469     -0.4407493922
F       6.2092630054      1.0258360972      7.6570640195     -0.2353767669      0.0921755640      0.5451211409     -0.4527480917
F       3.5619049852     -2.1461432361      5.2487814951      0.6250808741     -0.0551148830     -0.4531125713     -0.4434166751
F       5.0762189114     -3.7966997691      5.4139764495     -0.1887855167      0.2230883808     -0.5786917362     -0.4397070062
F       7.6842696445     -0.5603638495      4.7647226321      0.5097139799      0.0061578644     -0.0548678714     -0.4517625588
F       7.9993800551     -2.6848935868      5.4084101688      0.1171053994      0.5344634389      0.2398350705     -0.4372863874
F       5.6449876598      0.3966832974     10.2649605333      0.2331537706     -0.4908533850     -0.1402452257     -0.4590714710
F       7.3536726541     -0.7854950734      9.4519331617     -1.1739985895      0.1813583678      0.2832413056     -0.4487705212
F       5.3523741512     -1.7623947805      9.7575536555      0.7468100766      1.2705367606      0.0636983670     -0.4338331245
F       4.4090642278     -2.8166823966      2.8787983004      0.3158798169      0.2645441926     -0.1529831214     -0.4760233684
F       5.3293691504     -0.8445579241      3.3796264813      0.0162412917     -1.2787402713     -0.2954857483     -0.4510373901
F       6.5646292990     -2.7273940904      3.4093665683     -1.1770070883      0.5639710737     -0.1470383796     -0.4423588438
F       8.5516878794      0.2730590023      7.3328098883      0.5206017704     -1.1286819786     -0.4871486194     -0.4431058442
F       9.9701761776     -0.9050890995      6.0835098190     -0.4772235273      0.0230175989      0.4118090439     -0.4530348775
F       8.9761017682     -1.8960899046      7.8172932007      0.2290074709      1.1232577363     -1.0366618164     -0.4312748389
