62
Properties=species:S:1:pos:R:3:forces:R:3:charge:R:1 energy=-339.9931138668148 homo_lumo=2.182984535639184 dipole="-0.26639137027369597 2.4184524615658805 4.619348356330796" free_energy=-339.9931138668148
N       0.2742989401      2.2385779684     -0.2520621869     -0.7977180206     -0.3868202795     -0.8700306387     -0.5127541791
N      -1.8143745480      1.4764250193     -0.2722545820      0.8918824677      0.2580486145     -0.8503223714     -0.5105096915
C       1.6587674380      2.4791028105     -0.6557265476      1.0058097130      0.2735358977     -0.2155147582     -0.0287569274
C       2.6202161643      1.5358111717      0.0810293340     -0.2609499717     -0.2799855246     -0.0397261562     -0.1946618095
C      -3.0250426372      0.7802166360     -0.7039429704     -0.9654153664     -0.4361372574     -0.2505629716     -0.0330433848
C       2.3102300402      0.0618256162     -0.2163697820      0.2731265248      0.2358060774      0.1351232512     -0.2385103355
C      -3.1682200027     -0.5711911491      0.0089953974      0.4035938239     -0.0705717352     -0.0521242992     -0.1988467347
C      -0.6883992351      1.6526651938     -0.9905394517      0.2177757715     -0.5805456536     -1.3061434299      0.5631332584
C      -0.2639455729      2.4502513319      0.9662393952     -0.8106647657      0.0858753421      1.5287374102      0.2277065151
C      -1.5600353101      1.9772975076      0.9537158294      0.5478335300      0.5845360513      1.5107427928      0.2298320214
C       3.3229965779     -0.8699821215      0.4549751648     -0.1452638673     -0.1325810326     -0.0564994587     -0.2083009110
C      -1.9917131755     -1.5079982650     -0.3009954395     -0.1101967674     -0.0015442071     -0.0044376455     -0.2806495162
C       2.9663053308     -2.3331311619      0.2052483523      0.1416402672     -0.1878209328      0.0372838669     -0.0986064140
C      -2.2015099386     -2.8861192377      0.3173526246      0.1528211061     -0.1627749595      0.0473762267     -0.0948046736
H       1.9279450577      3.5333622290     -0.4303010259     -0.3526769981     -0.2161073385     -0.0775845614      0.1288955708
H       1.7673293659      2.3313329717     -1.7530922944     -0.3647702646      0.0074743230      0.3697143361      0.1464996879
H       3.6578512302      1.7674008972     -0.2442424112     -0.2963502717      0.0738190443      0.0914190783      0.1187657243
H       2.5545731493      1.7199514767      1.1755481550      0.1182569993      0.0085559815     -0.2135441407      0.0990967023
H      -3.9106153322      1.4129969428     -0.4797588654      0.4164964372      0.0592836451     -0.0672503000      0.1289387172
H      -2.9994995221      0.6154493909     -1.8039642352      0.2672737847      0.2170306820      0.3627685044      0.1568916998
H       2.3361678351     -0.1037314517     -1.3141853191     -0.1369353411     -0.0224916383      0.1901431296      0.1509934817
H       1.2927283221     -0.1844031702      0.1564892560      0.1608105825     -0.0161940583     -0.1642531479      0.1404353601
H      -4.1161629647     -1.0448825881     -0.3276828663      0.1942511573      0.2347523648      0.0820222933      0.1236307896
H      -3.2381274783     -0.4076475787      1.1065876236     -0.0979739295     -0.0642640976     -0.2033126101      0.0985198948
H      -0.5535982233      1.3095496739     -2.0092286656      0.0059956020     -0.0568393645     -0.1936447373      0.1502340933
H       0.2573264306      2.8825846357      1.8104460978      0.1864450274      0.1043360938     -0.1044893077      0.0573051125
H      -2.2521897137      1.9683529699      1.7857123366     -0.2080602302     -0.0406615039     -0.1074360403      0.0574521685
H       3.3359901143     -0.6850677979      1.5512471955      0.1068986249      0.0797462656     -0.2214007342      0.0776126271
H       4.3392167081     -0.6712011313      0.0502484278     -0.2142552864      0.0611826884      0.1757347876      0.0931156002
H      -1.8796882309     -1.6195216771     -1.3999002738      0.0563433784      0.1224399270      0.1753643054      0.1595187756
H      -1.0506522217     -1.0795177344      0.1046948191     -0.1358885107     -0.0090059238     -0.1753116028      0.1390159030
H       2.9487823402     -2.5463128648     -0.8850756408     -0.0602280511     -0.0245689290      0.3313279834      0.0707156045
H       1.9701792001     -2.5662990251      0.6392251941      0.2684472791     -0.0241736088     -0.1852700963      0.0472710095
H       3.7240559365     -2.9882560780      0.6840687808     -0.2920264985      0.0500963485     -0.1792028443      0.0470091250
H      -2.2838506083     -2.8038340041      1.4220670644     -0.0317682405     -0.1385946516     -0.2762584113      0.0310503186
H      -1.3358494449     -3.5374561537      0.0728737246     -0.3283435983      0.0914427060      0.1183947596      0.0732548920
H      -3.1238341418     -3.3547565231     -0.0870250349      0.2816805035      0.0590753683      0.1742566244      0.0533384665
P      -0.1234675175     -1.6283021150     -5.7242172675     -1.7354698559      2.2521080299      1.5017681148      1.6579152997
F      -0.7867976448     -0.3652639451     -4.7550832586     -0.4625658384     -0.1673766571      3.4762438181     -0.5484670705
F       0.3438436103     -2.9114596353     -4.6730432349      0.6265008236      0.2262264496     -0.3591012053     -0.5190052578
F      -0.7793982738     -0.4136987834     -6.7512304491      0.7759382118     -0.8993334107     -2.1680041863     -0.5174646199
C      -1.7947711394     -2.4709789239     -5.2445273745     -0.2690112263     -0.2166021832     -0.9869597530      0.5384379713
C       1.4182712652     -0.7712919670     -4.9279491151      0.5634180260      0.0740320911     -1.2109033395      0.5372162082
C       0.5757462852     -2.2606151137     -7.3982847594      0.4365831295     -0.5774146427      0.4127651909      0.5407833129
C      -3.0669216338     -1.8506423731     -5.8624813347     -0.5486057697      0.3346400767     -0.1943188788      1.3383820251
C       2.8022364633     -1.4344805711     -5.1490541697      0.7267592854     -0.3291896915      0.0269605220      1.3358411505
C      -0.4290915676     -2.7268751190     -8.4684306347     -0.6426245287     -0.0218229605     -0.9981014441      1.3639782975
F      -1.9540990016     -2.4085484574     -3.8660429052     -0.1825011419     -0.0470649293     -0.3083302428     -0.4589995271
F      -1.7677240466     -3.8149961978     -5.5798274109     -0.5541508123      0.2921606519      0.2776291837     -0.4436140182
F       1.2430683904     -0.6985970517     -3.5503673597      0.3734564707     -0.0659929468     -0.2405767547     -0.4669296584
F       1.5033857839      0.5245737804     -5.4138462390      0.4311961356     -0.1637740384      0.3501571054     -0.4444037964
F       1.4208326496     -3.3246154650     -7.1374770685     -0.0620878052     -0.0076447875     -0.4709395437     -0.4432771329
F       1.3210434106     -1.2498454193     -7.9818193185     -0.4146599023     -0.4510448998      0.0443359342     -0.4348846633
F      -4.1742101795     -2.5168076632     -5.3677415991      0.2602829662      0.4171072266     -0.2920609793     -0.4580653769
F      -3.0767570571     -1.9766751175     -7.2338468001     -0.3202191556      0.2120351657      1.3094029510     -0.4427943128
F      -3.1915057663     -0.5138661824     -5.5311604145     -0.3670164110     -1.2130028789     -0.3792896026     -0.4430407099
F       3.7265290248     -0.8083623145     -4.3306838216     -0.0825084925     -0.3059738100     -0.2682795145     -0.4646429533
F       2.7967509709     -2.7773794072     -4.8234316815      0.4797762874      1.3498264899     -0.3198531478     -0.4355820067
F       3.2419263723     -1.2834427203     -6.4478524040     -0.1286531872     -0.2303090970      1.3218314499     -0.4395236427
F      -1.2459792264     -3.7325897038     -7.9997566501      0.7396737428      0.8638095245     -0.6996480201     -0.4422885687
F       0.2766587584     -3.2331157838     -9.5458286146     -0.4582687447      0.2444762242      0.5480676753     -0.4476502924
F      -1.1924234804     -1.6710898445     -8.9312006508      0.7268611917     -1.3252297218      0.1111155809     -0.4327091994
