31
Properties=species:S:1:pos:R:3:forces:R:3:charge:R:1 energy=-183.56721372597715 homo_lumo=3.7942516988459905 dipole="-1.684421859542807 -0.1363359508349463 0.25868884924453595" free_energy=-183.56721372597715
N       1.6751377807     -0.2439470919      0.2909783825     -0.0045359306      0.0053471885     -0.0136509147     -0.5531196257
C      -0.7884542799     -0.0082321502      0.0736776785      0.0011702494      0.0004060125     -0.0000660803     -0.1906883590
C       0.3973654789     -0.2489940882      1.0040028385     -0.0046179411      0.0041804415     -0.0038490565      0.0088497975
C      -2.1247630380     -0.0129864030      0.8105861397     -0.0039051209      0.0016880566      0.0002073108     -0.2144953676
C      -3.3049849671      0.2290779619     -0.1266151303      0.0056812992      0.0014391924     -0.0109489056     -0.0661707861
C       2.2835268252      0.9513201355     -0.0155942584     -0.0015766929      0.0058858904     -0.0021134474      0.2386006034
C       2.0880243173     -1.3730176734     -0.3756758572     -0.0079290845     -0.0030548190     -0.0086986011      0.2366028531
C       3.3482658533      1.0315134645     -0.8478526494     -0.0005387742      0.0068522820      0.0014744022     -0.0744190163
C       3.1444821334     -1.3707156199     -1.2213914180     -0.0046512200     -0.0095133830     -0.0066167915     -0.0573620044
C       3.9862090185     -0.1798905108     -1.3730212511      0.0101449018     -0.0020995786     -0.0130534549      0.0455107047
H      -0.7895774386     -0.7852457093     -0.7130635857     -0.0003663032      0.0043632678      0.0011566698      0.1106684100
H      -0.6469345413      0.9586269929     -0.4433865686     -0.0014310788     -0.0024581293     -0.0018557845      0.1110063871
H       0.3024657806     -1.2195827318      1.5179985521      0.0004506273      0.0036150684      0.0018116645      0.1016587853
H       0.4456062349      0.5246733301      1.7877789673      0.0008922574      0.0017962069     -0.0026653451      0.1018800416
H      -2.2554037781     -0.9811344421      1.3282855748      0.0054317087      0.0028807916      0.0003841621      0.0875079619
H      -2.1123075862      0.7626248841      1.5986085945      0.0045600190     -0.0013755534     -0.0010608217      0.0879987689
H      -4.2579084676      0.2224781398      0.4223176778     -0.0173761709      0.0023437232     -0.0048797339      0.0431843656
H      -3.2109027695      1.2028652298     -0.6336797978     -0.0067224380     -0.0035090511      0.0031815199      0.0395133468
H      -3.3548651445     -0.5494512453     -0.9049563798     -0.0056954124      0.0026732053      0.0050358731      0.0393314653
H       1.8311258791      1.8339156913      0.4370327774     -0.0019904699     -0.0087114472     -0.0105948905      0.0620188446
H       1.4873659469     -2.2651562337     -0.1988849819     -0.0114381167      0.0111956840     -0.0098240277      0.0625494433
H       3.7817430984      2.0044843146     -1.0783215072     -0.0006786147     -0.0111482427      0.0001501574      0.0586141101
H       3.4152549937     -2.2890650542     -1.7411644753     -0.0082875795      0.0033753210     -0.0015104468      0.0446353900
H       4.4442231889     -0.0539832916     -2.3609739355      0.0195514236     -0.0057440866      0.0107975493      0.1072111253
C       6.3764892067      0.1617022522     -0.8494067911     -0.0202294062      0.0006126911      0.0003594032      0.9019085525
O       6.5245082364      0.9298301553     -1.7813508219     -0.0038751671     -0.0005524864      0.0212627063     -0.6864335922
O       5.2890921037     -0.4782923764     -0.4608206654      0.0219193371     -0.0048054074      0.0112200480     -0.6509512285
C       7.5540722610     -0.1934319587      0.1009320471      0.0251148814     -0.0029935339      0.0157156854      1.3413486158
F       7.7965524890     -1.5353084401      0.0975169365      0.0026266230      0.0107799518      0.0119698040     -0.4476123528
F       7.2668715798      0.1785270258      1.3812672764      0.0023895949     -0.0189384424     -0.0008469509     -0.4476321622
F       8.6865623662      0.4378982638     -0.2750887122      0.0059125988      0.0054691858      0.0075082972     -0.4417150779
