51
Properties=species:S:1:pos:R:3:forces:R:3:charge:R:1 energy=-275.834961974977 homo_lumo=1.6888616200968858 dipole="-11.482690702870187 -0.17220589265891467 1.0418032399418697" free_energy=-275.834961974977
N      -1.5600585383      0.1092080049     -0.0784096904      0.0950725271     -0.1237989440     -0.3261628224     -0.5235009041
C      -2.5795617969      0.5107882711     -1.1028941248     -1.4715931707      0.4482577118     -0.9970355846     -0.0339354273
C      -1.7998218318     -1.3200605889      0.3072696873     -0.5572386343     -1.6313865996      0.7415994005     -0.0384612100
C      -0.2176766282      0.2073668313     -0.7498074998      1.8330886178      0.0353353701     -0.2863972178     -0.0509551793
C      -1.6299790495      0.9787259614      1.1477506020      0.0378186182      1.2438069244      1.2435603788     -0.0970879087
C      -4.0370281115      0.2824173185     -0.6670459692      0.0448909931     -0.0302416307      0.0432979764     -0.1803185950
C      -3.2416299225     -1.6119167084      0.7698574792     -0.0571470987      0.1406812739     -0.0652239995     -0.1707083583
C      -4.2576640089     -1.1769893334     -0.2817067521     -0.3037182184     -0.0604102302      0.1336578019     -0.1696103603
C       1.0085584266     -0.1171519194      0.1395849550     -0.4358466853      0.0900525552     -0.1335657946     -0.2223711394
C      -1.2727444051      2.4619500885      0.9390339879      0.0770863050     -0.1743502628     -0.2303134483     -0.1309349710
C       2.3101618406      0.0476956108     -0.6567960798     -0.1939702911     -0.0189722189      0.1115674609     -0.1646471676
C       3.5350111988     -0.3021614061      0.1965188703     -0.0339698556      0.1319872124     -0.4126982582     -0.1685243563
C       4.8274397687     -0.1389574148     -0.6112714602      0.0669415391     -0.0984779510      0.2487211862     -0.2092569255
C       6.0479885846     -0.5371884149      0.2116052839      0.2268489774      0.0196480256     -0.1679808298     -0.0955733536
H      -2.4312424952     -0.0767762869     -2.0394091808      0.3694928090      0.0015967295      0.5474400193      0.1565972667
H      -2.4586440462      1.5725216066     -1.4031854314      0.3745031832     -0.3037115576      0.3743864161      0.1615943316
H      -1.1265581283     -1.6274031599      1.1364906550      0.0510430993      0.4906085925     -0.4146519472      0.1664037572
H      -1.5816314912     -1.9967531863     -0.5511369557      0.0770806944      0.6204967644      0.0728815484      0.1526743175
H      -0.0765197669      1.2214251130     -1.1861324728     -0.3941852667     -0.2196149215      0.3285922922      0.1618672876
H      -0.1811941439     -0.4841600197     -1.6237028195     -0.4519109821      0.1237273057      0.4119645787      0.1561945410
H      -2.6413631047      0.9604611293      1.5965991031      0.0997576451     -0.3700913691     -0.5008675817      0.1812892813
H      -0.9686270234      0.5800164705      1.9468959751     -0.0512441989     -0.2519877713     -0.6010908321      0.1649577545
H      -4.7086344337      0.5331729476     -1.5165427567      0.3309927374      0.1233464646      0.1683107878      0.1280751089
H      -4.3188381708      0.9534344294      0.1701744075      0.0746546666     -0.0927024259     -0.1580524501      0.1119093796
H      -3.4569196613     -1.1137376958      1.7381849043      0.0922674115     -0.1118884714     -0.1720749976      0.1112071817
H      -3.3496908052     -2.7047248158      0.9423529396      0.2801940625      0.2972186150      0.0378747483      0.1316057416
H      -5.2865159588     -1.3052029084      0.1182024434      0.2568544005     -0.0587709009     -0.2036327878      0.1092927322
H      -4.1572906303     -1.8203865814     -1.1838535176     -0.0645175603      0.1380691584      0.1876129415      0.1021356154
H       1.0559822812      0.5637985325      1.0130632817     -0.0618184342     -0.1926314003     -0.0897403908      0.1238292376
H       0.9548876639     -1.1642401435      0.5017073493     -0.0199125271      0.2452968994      0.0290414053      0.1205736288
H      -0.2284039123      2.5940140675      0.5939258202     -0.3141900247      0.0292719468      0.0383367807      0.0891746726
H      -1.9714566280      2.9589807177      0.2381069734      0.2489788238     -0.0696537706      0.1421379444      0.0735683451
H      -1.3593398094      2.9885450088      1.9130475427     -0.0227979132     -0.2659245985     -0.2443821618      0.0982760440
H       2.3962193934      1.1001924939     -1.0068299029      0.0092369856     -0.2571829795     -0.0377630430      0.0989613901
H       2.2831759811     -0.6196265202     -1.5463868933      0.0449630411      0.2328333367      0.1131866987      0.0944675916
H       3.4502228756     -1.3550658756      0.5454285785      0.0214394211      0.2388376683      0.0275363085      0.0854994753
H       3.5709869949      0.3640900386      1.0867067857     -0.0051886830     -0.2151781703     -0.1157770991      0.0885657665
H       4.7846036829     -0.7786035227     -1.5196053810     -0.0945941362      0.2225656384      0.1096635628      0.0824071743
H       4.9377757665      0.9202148573     -0.9316761990     -0.0562643337     -0.2627195088     -0.0410481498      0.1025394015
H       5.9468906212     -1.5811133491      0.5770377411      0.0712868487      0.2668871731     -0.0402763033      0.0205896294
H       6.9550303494     -0.4738387832     -0.4239939045     -0.1213076275      0.0359165310      0.4488581596      0.1210534349
H       6.1681766529      0.1459025713      1.0791939009      0.1370547225     -0.2603930769     -0.2577000029      0.0485019146
N      10.3018169110      0.6682227639     -1.7927770952     -0.3033949181      0.2117419110     -0.1519438445     -0.8504023371
S       9.7608141957      1.1431048310     -0.3232109075     -3.4608836371     -3.0980821978      0.3189132073      1.8464047203
S      11.4076076115     -0.5280142434     -1.9475816196      4.4160558185      2.5493040764      0.1275521245      1.8349616898
F      10.9252119275      2.0949645820      0.4118590426     -0.4425418170     -0.2051280607     -0.4076703993     -0.4465483605
F      10.6578728172     -2.0054933883     -1.7072637893      0.0131555846      0.4876811057     -0.1972750051     -0.4518650856
O       8.4980129619      1.9409972336     -0.4854477239      2.5317088138      0.1107924548     -0.1665129477     -0.7430626143
O       9.4991737470     -0.0576532052      0.5422628418      1.2495223938      1.7584411195     -0.4091589154     -0.7377113147
O      12.4938074557     -0.3610140049     -0.9220948847     -1.9615265597     -1.1625418145     -0.6723776145     -0.7226585910
O      12.0003489328     -0.4905929341     -3.3276856193     -2.2522281670     -0.7585617318      1.4946806999     -0.7170442534
