48
Properties=species:S:1:pos:R:3:forces:R:3:charge:R:1 energy=-262.1901133595451 homo_lumo=5.465806774712637 dipole="-1.0047818149355974 0.050988421645391246 3.1529839246062186" free_energy=-262.1901133595451
N      -0.6839057616      0.0182386731     -0.4540873378     -0.0937957186      0.2232945071     -0.0106317768     -0.4954687842
C      -1.4984511580     -0.8644750340     -1.3594801137     -0.2888908637     -0.7191425955      0.1408731740     -0.0467497291
C      -1.6148267215      0.7201230550      0.4871974658     -0.2925638019     -0.2122559942      0.5390392396     -0.0055314581
C       0.3326840793     -0.7663565545      0.3304629461      0.4209358961     -0.3311091288     -0.2707281473     -0.0334008255
C      -0.0216016982      1.0445998902     -1.3414061212      0.4757495772      0.3918568551      0.3122951452     -0.0879197726
C      -2.3524114999     -1.8708645929     -0.6038358991     -0.1089815234      0.5211915546      0.1100851736     -0.1611375524
C      -2.4958280479     -0.2363438056      1.2852762259     -0.0760961500      0.0252643287     -0.4753286709     -0.1511547796
C      -3.2951347603     -1.1545370446      0.3615234293      0.4493162010     -0.1118813196      0.1497498868     -0.1530056220
C       1.4278260184     -1.4185894631     -0.5100165736     -0.2038268820      0.0411911354      0.7278280289     -0.2540518706
C       0.8775435864      2.0490592944     -0.6279704335     -0.1611262513     -0.1576362238     -0.3377905556     -0.2457671559
C       2.2958862131     -2.3154339101      0.3793845385      0.0075131257      0.1204241584     -0.5328783341     -0.1956015240
C       1.5843122525      2.9007101924     -1.6836634503     -0.0796355495     -0.1339084247      0.3517703872     -0.0528216397
C       3.4008476926     -2.9729818119     -0.4452570351     -0.2589614865      0.1232654069      0.3682361736     -0.0506427810
H      -0.8155694983     -1.3624540517     -2.0479995581      0.0853555514      0.1110598333     -0.1489682397      0.2188968712
H      -2.1410946667     -0.2006590671     -1.9411943179     -0.0085838112      0.1660720978     -0.1488004270      0.1557288913
H      -2.2391704108      1.3809614977     -0.1204650792     -0.0875930123      0.1541843870     -0.2026914186      0.1280195557
H      -1.0115715362      1.3282904299      1.1640872341      0.1734882879      0.1677970536      0.0528829717      0.1363875196
H      -0.2077426618     -1.5359057292      0.8846659899     -0.1304984810     -0.0786438014      0.0972653125      0.1658204438
H       0.7743017485     -0.0798233279      1.0571290827      0.0190512998      0.1779329753      0.1634393976      0.1227728051
H      -0.8239672814      1.5690388591     -1.8643440868     -0.1971192391      0.0028133386     -0.1400655006      0.1440026100
H       0.5560521028      0.4925905445     -2.0807802931      0.0752122118     -0.0991142632     -0.1181261353      0.2720723267
H      -1.7317619156     -2.5924581091     -0.0661482405      0.1449255938     -0.2632691837      0.0933644012      0.0904367713
H      -2.9334858426     -2.4239390709     -1.3460213916     -0.0467096557     -0.2119475285     -0.2307721425      0.1084187268
H      -3.1778244902      0.3730203232      1.8843798307     -0.1047491321      0.1752378330      0.2443999685      0.1029733294
H      -1.8902336847     -0.8294800192      1.9758093753      0.1323257186     -0.1076377319      0.2402453391      0.0924861831
H      -4.0180735635     -0.5607593838     -0.2067246861     -0.2262763210      0.1437410187     -0.1601748305      0.0873994849
H      -3.8471931550     -1.8848092566      0.9576666780     -0.2495954519     -0.1544847703      0.1332367560      0.0821804197
H       2.0606516485     -0.6594679088     -0.9730322502      0.0910996804      0.1027722596     -0.2059717725      0.1667032985
H       0.9913861365     -2.0233239542     -1.3062273393     -0.0245022595     -0.0918579653     -0.2017699281      0.1639502932
H       0.2917206393      2.6952012648      0.0331908557     -0.1087610100      0.1552059906      0.2113949735      0.0794974455
H       1.6313850899      1.5380163144     -0.0237208468      0.2014040065     -0.1318601987      0.1779212050      0.0972712213
H       1.6726122489     -3.0878562196      0.8435714976     -0.1523939788     -0.1827323932      0.1842583396      0.0686100059
H       2.7408448162     -1.7162201760      1.1814240980      0.0920348162      0.1188041870      0.2681438442      0.0717475569
H       2.2257240049      3.6335910787     -1.1952013665      0.1976926312      0.2492091129      0.1077057475      0.0302083033
H       2.1932300435      2.2684401028     -2.3295937642      0.1522966637     -0.1203032819     -0.2161278345      0.0873001677
H       0.8564908200      3.4249852764     -2.3022475133     -0.1441736282      0.1746768143     -0.2050841472      0.0442025735
H       4.0433794131     -2.2144697006     -0.8926114101      0.2063408916      0.1781696753     -0.1900471616      0.0469934505
H       2.9704877432     -3.5770565413     -1.2441685275     -0.0693045721     -0.1738930135     -0.2779858931      0.0466722344
H       4.0083611330     -3.6157262680      0.1916249242      0.2523805524     -0.2288951129      0.1205965039      0.0329125422
N       0.8652879497     -0.3270029596     -5.4802473233     -0.0041370545     -0.0122991036      0.1000910679     -0.8462978929
S      -0.2745358343      0.6796819728     -5.0284356990     -0.2384803192      0.0662790970     -0.3004793241      1.9530870669
S       1.6979475721     -1.0270948909     -4.3344854862      0.1600454730     -0.0402453059     -0.4069718853      1.9568108095
F       0.5182036946      1.9041399102     -4.2863820270      0.3617973287      0.4631970209      0.1259724360     -0.4764894188
F       0.5976816402     -1.9756196421     -3.5410679051     -0.4678727565     -0.5037905257      0.1385696949     -0.4948085667
O      -0.8455462313      1.2698351857     -6.1873823475     -0.5597825794      0.7319664755     -1.4233206344     -0.7154447425
O      -1.1558806445      0.2108390135     -3.9899615040     -0.5947181813     -0.4610794049      0.8024688519     -0.7866545913
O       2.1783361326     -0.1768543522     -3.2774094472      0.2954371029      0.9040044801      0.9442346727     -0.7846520147
O       2.5975376336     -1.9587807932     -4.9183861647      0.9847270608     -1.1616243257     -0.7013539327     -0.7159621864
