50
Properties=species:S:1:pos:R:3:forces:R:3:charge:R:1 energy=-273.41397570361767 homo_lumo=1.2352298711973568 dipole="-4.848568771556464 3.4294122345457865 -4.938320165291443" free_energy=-273.41397570361767
H       0.5339507891     -0.4685204400     -4.9085799543     -0.1891935430     -0.1143144272      0.3424890547      0.0978460982
H      -1.1470327934     -0.6299221022     -4.2649104668      0.4769975823     -0.0746592354      0.1942640217      0.0889073977
H      -0.0132029313     -2.0338289159     -4.1811857365     -0.0109760395      0.3956045799      0.1125157360      0.1028152604
C      -0.0877967223     -0.9281510698     -4.1119412446     -0.2743910370     -0.1805830293     -0.5942685655      0.0610686854
H       2.4776619804     -0.1215608752     -0.3390058626     -0.0247788708      0.0331138902      0.2563638445      0.0963210069
H       2.4178675537     -1.2121150275     -2.7796831397     -0.0650710603     -0.0833069294     -0.1839041076      0.0704520946
H      -1.3456161402      0.5031579395     -1.9891617753     -0.0011070246      0.0110314162     -0.0046605860      0.0995201795
N       0.3841157312     -0.4866222075     -2.8059952264     -0.7133707492      0.4826495139      0.5599631871     -0.5590793257
C      -0.3145385978      0.1912804118     -1.8747100200     -1.3768445311      0.4174860339     -0.0280680125      0.5768066260
N       0.4317220187      0.4173929215     -0.7758368958     -0.5666069008      0.0915050539     -1.2249791785     -0.5112074606
C       1.6388973527     -0.1303753262     -1.0226705867      1.4000297882     -0.7288933278     -0.5004417282      0.2494470851
C       1.6087658653     -0.6915779095     -2.2835709784      1.5369268847     -0.1472898941      0.9358444709      0.2517544147
C       0.0129944013      1.1071536183      0.4419589138     -0.3489949728      0.1655664471      0.7691434862     -0.0258939251
H       0.7782833148      1.8653426618      0.7174862771     -0.1567243709     -0.2448356910     -0.2951391620      0.1373491277
H      -0.9479984703      1.6373202182      0.2603515211      0.3867447789     -0.1747040315     -0.2107213206      0.1200369113
C      -0.1701067309      0.1012960079      1.5814790581      0.0749707234      0.0232356669      0.0834636741     -0.2328647519
H       0.7963106541     -0.4109392190      1.7764883099     -0.2974043123     -0.0073319918     -0.0654076191      0.1879328906
H      -0.9194072352     -0.6607982108      1.2728400566      0.2523686382      0.0901828961      0.0483364133      0.1113332108
C      -0.6421653935      0.7947557091      2.8635201434      0.0152281490      0.0030458441     -0.0277598464     -0.2268072626
H       0.1274678263      1.5240030918      3.1983088949     -0.2095540817     -0.0612348886     -0.1393609262      0.1027849664
H      -1.5883227065      1.3451469750      2.6681479326      0.2381720162      0.0219848909     -0.0104305209      0.0861863688
C      -0.8841890775     -0.2186855023      3.9782268462     -0.0147038543     -0.0325239841      0.2055783349     -0.0967049091
H       0.0490340399     -0.7776386118      4.2025500600     -0.3234727658      0.0842032710     -0.0181024896      0.0891493636
H      -1.6784482325     -0.9361742687      3.6804897300      0.2563218834      0.1345782110      0.1633262673      0.0430779535
H      -1.2117752573      0.3109668266      4.8974582947      0.0930512836     -0.2653589851     -0.2212537432      0.0574861142
P       5.4087287275     -3.6725797785      3.7856405569      0.9809302022     -2.8389656134      0.0399996596      1.6442762992
F       5.2360441232     -5.3438036932      3.4079805877     -0.8869025244     -1.0329445199      0.9555657139     -0.5236298071
F       4.3618465449     -3.2044654983      5.0723118183     -0.4129519162      0.2930777368     -0.9155188589     -0.5181613363
F       6.7337793382     -3.9709823431      2.7292954698     -0.1885824178      0.6803509648     -0.3086535590     -0.5173583579
C       6.2544928118     -4.4817882282      5.3320691225      0.5154257885      0.3425862117     -0.0296380209      0.5382795883
C       3.8236448171     -3.8284766493      2.6830467050      0.0818032164      0.6594611758     -0.3624574785      0.5799602920
C       6.0110880370     -1.8765708248      3.4027260735     -0.5811935737      0.1478679151      0.5116998975      0.5302452426
C       7.4901754707     -5.3866712987      5.0798991087      0.3988289392     -0.6606949948     -0.2702808736      1.3343327294
C       2.9833986070     -2.5518384087      2.4690928521     -0.4630482634     -0.1395187483      0.2794407534      1.3115910391
C       7.3210712810     -1.4126175768      4.0671699310      0.9416412139      0.1729489742      0.2928316061      1.3653285565
F       5.3224869821     -5.2719928627      5.9935998982      0.5329271208      0.1674322916     -0.2089516410     -0.4385077057
F       6.6408441637     -3.4970976266      6.2194935099      0.2809952279     -0.4376525827      0.2919456384     -0.4535946837
F       2.9536251573     -4.7578831280      3.2460522188      0.1676170210      0.8401643640     -0.3544613008     -0.4338141667
F       4.1937092221     -4.2848355468      1.4255121207     -0.4990035533      0.3558539776      0.1098405168     -0.4423071528
F       5.0411697550     -0.9851317749      3.8251888225      0.2781207434      0.5374151961     -0.0813827420     -0.4568390233
F       6.1545070344     -1.7136312524      2.0316194368      0.0799184067      0.1905943972      0.4911386338     -0.4462397128
F       8.0116161849     -5.7748458020      6.3015519091     -0.1112804796      0.0836114193     -0.5835761461     -0.4556673822
F       8.4867938779     -4.7299403923      4.3905935006     -0.5773261557     -0.8914607685      0.8161398450     -0.4439560567
F       7.1487547195     -6.5350366613      4.3887625605      0.7381777801      0.8864640100      0.7538893925     -0.4377841959
F       1.8190781498     -2.8960290785      1.8046620058      0.0749806859      0.5616986028      0.0477619189     -0.4732386821
F       2.6260291860     -1.9714713683      3.6715229172     -0.0641701661     -0.2158986212     -1.4808646251     -0.4441039327
F       3.6468175951     -1.6315213185      1.6827725426     -0.8899260250     -0.3437253828      0.3948565537     -0.4674157149
F       7.1452069087     -1.2230642641      5.4239953380      0.3273856247      0.0403796097     -1.2703092697     -0.4390943750
F       7.6872131023     -0.1932324253      3.5242858329     -0.0639868113     -0.4767895569      0.3199777264     -0.4560239149
F       8.3541378968     -2.2956337611      3.8468580798     -0.8179976980      1.2385926418      0.4142159755     -0.4339956667
