50
Properties=species:S:1:pos:R:3:forces:R:3:charge:R:1 energy=-276.3739343899376 homo_lumo=3.717704207042527 dipole="-2.292334478622776 -1.5115624977951525 1.5553041671072738" free_energy=-276.3739343899376
H       0.9626349147     -0.3645370396     -5.2757427550      0.0206134279      0.0462924055     -0.1491687211      0.1143389907
H      -0.4692523373     -0.0970616388     -4.2503564075     -0.2155259954      0.0907515842      0.0396723875      0.0599096883
H       0.0311166561     -1.7602970470     -4.6710213559     -0.1305459060     -0.2157498284      0.0041691317      0.0633323306
C       0.3772196637     -0.7538449779     -4.4422725116      0.0934009092      0.0637957266     -0.0613975579      0.0987418616
H       3.5580578408     -1.8686987753     -1.2738672182      0.2068208476     -0.0823501254      0.1023618218      0.0413713887
H       2.2260740254     -2.6637501242     -3.5734025139      0.0509672369     -0.1716564199     -0.1547017584      0.0421518902
H       0.7794682214      1.1041124511     -2.3618787203     -0.0626595453      0.1517680093     -0.0330726615      0.0924979632
N       1.2216924727     -0.7977602364     -3.2599725947     -0.3831737157     -0.0955873012     -0.3680096770     -0.5424082595
C       1.3290096751      0.1789744105     -2.3617165940     -0.1236553451      0.0211296535      0.1617967654      0.6137250465
N       2.2613767452     -0.1778909008     -1.4824059624      0.2595318753      0.2534336159      0.1982672115     -0.4964974795
C       2.7692584423     -1.3968799504     -1.8325223654     -0.0147666508     -0.2374121940     -0.0195221995      0.2410661869
C       2.1171133442     -1.7868246837     -2.9602862022      0.0685441586     -0.2804245402      0.1909877658      0.2432122040
C       2.6789994888      0.6222878244     -0.3378988862     -0.6074385588     -0.2353351030      0.4530973162     -0.0306992639
H       3.7170058432      0.3670005692     -0.1152628064      0.1729025724      0.0180180189     -0.0508323112      0.1340665973
H       2.6277705857      1.6732508473     -0.6311918772      0.1136935684      0.1185299826     -0.0410549208      0.1510350895
C       1.7724728008      0.3383059136      0.8613058743      0.5861708862      0.4541571574      0.0342449611     -0.1612793800
H       1.8257962618     -0.7261186169      1.1112714522     -0.0339666704     -0.3029553501      0.0726269059      0.0985760168
H       0.7365688804      0.5697018696      0.5930520852     -0.3077907122      0.0321487860     -0.0483864716      0.0952703219
C       2.2023588941      1.1820236563      2.0657789891     -0.5078366377     -0.4297918217     -0.0429152056     -0.2128171055
H       3.2409269221      0.9468826768      2.3194677114      0.3062273262      0.0053905551      0.0335342120      0.0951027463
H       2.1539093464      2.2426733172      1.7995514214      0.0692203190      0.2872998273     -0.0776368245      0.0958365092
C       1.3079081288      0.9166594410      3.2745389186      0.3374485911      0.1607191929     -0.2765419262     -0.0462105869
H       1.3579270628     -0.1335172536      3.5649138500     -0.0190791108     -0.3113882601      0.1296879829      0.0324736326
H       0.2709499000      1.1655865229      3.0455822441     -0.3354756998      0.0610673941     -0.0172336655      0.0317039896
H       1.6341528417      1.5263470594      4.1167022904      0.0113764339      0.1398282723      0.3299008654      0.0433589352
P       4.8820453772      1.6455292530     -4.2786310895      0.3468244118     -0.1776328685      0.0128352869      1.6934705204
F       6.3635975785      0.8729070699     -4.3012049304     -0.0695111504     -0.0199480660     -0.0292017396     -0.5244844509
F       4.2026381091      0.3075093583     -3.4560064516      0.1055582409      0.3203632532     -0.1068915981     -0.5413739313
F       5.4648238025      2.9898826146     -5.0807374011     -0.0915567400     -0.1209804766      0.0199319735     -0.5168314518
C       5.4344646857      2.4595425102     -2.5856103301      0.2759011574     -0.4219523361     -0.9600823245      0.5215903402
C       4.5890875446      0.7741498195     -6.0119425056     -0.0248123468     -0.2363352186      1.1820182446      0.5612029726
C       3.0334084444      2.4503679147     -4.1606604967      1.0021590278      0.0545105687     -0.4967262281      0.5708801322
C       6.9531534144      2.5320613491     -2.2676108891     -0.6345895120     -0.2336616869     -0.4691619403      1.3983291849
C       4.3290870554     -0.7559888401     -6.0180320121      0.1392122133      0.7117323204      0.4151936809      1.3900730960
C       2.6440400862      3.8012751921     -4.8150685286      0.6140443679     -0.6342157976      0.1674792789      1.4181559371
F       4.8820446212      1.8253627875     -1.5210209218     -0.2368898550     -0.5607751134      1.0545427967     -0.4764456052
F       4.9774544668      3.7234492048     -2.5592030639     -0.1762320486      1.4001781511      0.1483432852     -0.4507285053
F       5.6842253554      0.9731097889     -6.7592156458      1.0846546696      0.0734344408     -0.7969147934     -0.4366694143
F       3.5568171735      1.3273321276     -6.6789562625     -0.9778835493      0.4214132742     -0.9038631313     -0.4589927012
F       2.7025203400      2.5738058661     -2.8462212777     -0.4093367876      0.3786316231      1.1413971951     -0.4838623275
F       2.1478527155      1.5382359538     -4.6502544964     -0.8340521695     -0.5019639139     -0.4865668831     -0.4814442926
F       7.1495495257      3.3357413961     -1.2162767707      0.0601275041      0.7903708811      1.0556883661     -0.4581221184
F       7.6574197142      3.0104524254     -3.2825574142      0.5668088191      0.5300937357     -0.8733882261     -0.4414610281
F       7.4252456853      1.3306725350     -1.9421971235      0.3962550068     -1.1026045399      0.3898861962     -0.4498925079
F       5.1902648041     -1.4306212466     -5.2681933441      0.8198319258     -0.5720850267      0.5277539297     -0.4444373082
F       3.0923960241     -1.0247715561     -5.5540985617     -0.9591617683     -0.2491762322      0.1935210002     -0.4876855512
F       4.3910785839     -1.2437521736     -7.2554378802      0.0632429943     -0.3296988606     -1.2783748309     -0.4499937172
F       3.2932486883      4.8172195608     -4.2637071709      0.5305409781      0.8585524706      0.5438661506     -0.4419963909
F       1.3303972964      4.0135771107     -4.6401245454     -1.3155687936      0.1307131939      0.2429237829     -0.4643071700
F       2.8827601864      3.8043832617     -6.1197408339      0.1694297996     -0.0506430133     -1.1040828983     -0.4428330252
