34
Properties=species:S:1:pos:R:3:forces:R:3:charge:R:1 energy=-188.81531745122865 homo_lumo=3.4310489516760194 dipole="-0.8015941538354459 0.3723894929379211 1.7400476095640869" free_energy=-188.81531745122865
N       0.2319157369      0.5051046576     -0.1743202535      0.1857521626      0.2842172035      0.2359538370     -0.5279596689
C      -0.3583196268      1.3278909785     -1.2846651373     -0.5428503647      0.0624085210     -0.4503034498     -0.0147302196
C      -0.2264645661     -0.9062824456     -0.4333025989     -0.2113641540     -0.5742982871     -0.1072615665      0.0162348145
C      -1.6909002986      0.6673070238     -1.5886906518      0.1913565776      0.0251459986      0.1664562237     -0.1470554034
C      -1.3913154855     -0.8224979778     -1.4210926285     -0.0615856873     -0.0162859629      0.0437267966     -0.1199575915
C       1.7262867282      0.6238919131     -0.2328540282      0.4979640625     -0.4971757741      0.5174423758     -0.0507250318
C      -0.2872317307      0.9857776884      1.1306711298     -0.0098702354     -0.0345501491      0.0396530220      0.0852566904
C       2.4549992034     -0.1892561294      0.8322598637      0.0360911035      0.3556230954     -0.2705564376     -0.2337713629
C       3.9522232417     -0.1923114201      0.5225781413     -0.3944889131     -0.0478933299      0.1516053345     -0.0465649126
H       0.3296656634      1.2458572792     -2.1413672364      0.3369523808     -0.0876911933     -0.1512581273      0.2449038901
H      -0.4333972825      2.3663195585     -0.9615773015      0.0468704150      0.2827873096      0.1455939569      0.0694059892
H      -0.4974521837     -1.3725811599      0.5148801673     -0.0708274067      0.0235842162      0.3042506282      0.0781157320
H       0.6061960510     -1.4421386619     -0.8937062882      0.1473806135      0.0182998757     -0.2537296331      0.1804158975
H      -2.0126245891      0.9037590519     -2.6035815119     -0.1229209956      0.1213021045     -0.2408899292      0.0858242328
H      -2.4693782072      0.9958241608     -0.8931253217     -0.2521231273      0.1087846229      0.1345882252      0.0570192921
H      -2.2613386664     -1.3747308356     -1.0622915012     -0.2410813639     -0.1522801382      0.0755441415      0.0515096776
H      -1.0632571617     -1.2467344490     -2.3734597861      0.1840762666     -0.0803558544     -0.1429398670      0.1390958283
H       1.9656574085      1.6860718971     -0.1385785496      0.0188577380      0.3036563185     -0.0253117758      0.0998938890
H       2.0169753023      0.2908056790     -1.2353256488     -0.1111780028      0.0853387553     -0.3181598271      0.2577756744
H       0.0671674469      2.0012817633      1.3007302635      0.1085413474      0.2776402471      0.0211436671      0.0704402750
H      -1.3749255789      0.9724835787      1.1066941828     -0.3101000023     -0.0235519981     -0.0257755420      0.0991226914
H       0.0661773018      0.3336017111      1.9261921304      0.0925665589     -0.1782499559      0.1980993397      0.0856651331
H       2.2917213323      0.2372356722      1.8272489841     -0.0268176249      0.0328253548      0.2995369077      0.0752566363
H       2.0877188694     -1.2189073215      0.8390556150     -0.1161985189     -0.2771987832      0.0004584112      0.1038111879
H       4.4854399313     -0.7623483445      1.2828889713      0.2388030562     -0.1452109050      0.1978629596      0.0333703453
H       4.1357705260     -0.6464395497     -0.4507596392      0.0844898099     -0.1139254714     -0.3031308071      0.0594138332
H       4.3420160185      0.8259537676      0.5117964891      0.1835236059      0.2903164423     -0.0268699683      0.0333523203
C       2.0241393943     -0.6728281059     -5.0612972125     -0.0468369104      0.1915353746      0.5182316738     -0.0773660117
C       1.6701046703     -0.3228946883     -3.5976588052      0.2993979582     -0.2493540530     -1.1396418650      0.9105894306
O       1.2201016176     -1.2499284756     -2.8908724851     -0.3966661808     -1.0847989075      0.6627091622     -0.8505610782
O       1.8491348882      0.8620831038     -3.2374651272      0.2219457074      1.3345093836      0.2242229323     -0.8378656596
H       2.6887828744     -1.5351859702     -5.0741235192      0.1593295213     -0.3278685472     -0.0674578988      0.0265688608
H       1.1072573776     -0.9339291594     -5.5888487809     -0.2571165378     -0.1525124149     -0.2188652437      0.0231623115
H       2.5005447173      0.1739286633     -5.5507461354      0.1381271408      0.2452269014     -0.1949276567      0.0203523069
