55
Properties=species:S:1:pos:R:3:forces:R:3:charge:R:1 energy=-292.86034473798736 homo_lumo=2.6004778762051504 dipole="-10.048371650928424 -0.1892734903009503 0.08295636103929303" free_energy=-292.86034473798736
N      -0.0505337025      0.2344015819      0.1638951851      0.2029476387      0.3238301676     -0.0716155598     -0.5484668222
C      -0.9730583667      1.2257714807     -0.4771313557     -1.4493249347      1.1112353172     -0.6283548181     -0.0300747993
C      -0.4903721488     -1.1603235470     -0.1480149699     -0.7540797923     -1.6889917515     -0.1122953658     -0.0338423015
C       1.3112865242      0.4808803609     -0.4183427475      1.9127619732     -0.1426670725     -0.3539311696     -0.0457929541
C      -2.4654036802      0.9947006201     -0.1736828978      0.0313749032     -0.0685575695      0.0382950111     -0.1785361377
C      -1.9677657367     -1.4301828432      0.1870853001     -0.0311429992      0.1677562808     -0.0176741213     -0.1716411677
C      -2.8762502977     -0.4316475162     -0.5200002008     -0.3338251563     -0.0652984756      0.0798032668     -0.1701631813
C      -0.0079052472      0.4606327340      1.6348790028     -0.0133747396      0.1027295013      1.3916353643      0.0144362416
C       2.4510824696     -0.4103344097      0.1337991288     -0.2813147674     -0.0490290940      0.1262714307     -0.2533632525
C       3.7773555858     -0.0747947691     -0.5448862349      0.0468240723      0.1880163573     -0.1638890374     -0.1117832047
H      -0.8620366295      1.1952425243     -1.5862652839      0.3398583770     -0.2901519556      0.4663139845      0.1567169897
H      -0.7117215414      2.2622673044     -0.1629572448      0.3103549410     -0.5416377073      0.0384121223      0.1535615159
H       0.1099283922     -1.9030637508      0.4204573250      0.1422301791      0.6101866662     -0.1715518731      0.1674304394
H      -0.3396941061     -1.3793019573     -1.2301995488      0.1446642169      0.4644565971      0.3425501855      0.1536616851
H       1.6049410011      1.5437242404     -0.2520756028     -0.4520143730     -0.3070283643      0.0975473708      0.1592408258
H       1.2818401185      0.3379400863     -1.5237221790     -0.3917871125     -0.0100663495      0.4212116941      0.1536149760
H      -3.0698552699      1.6988957519     -0.7855104933      0.3522499068      0.0013008484      0.2010542072      0.1330877894
H      -2.6990465923      1.2151029916      0.8883568291      0.0658584345     -0.0134268523     -0.1917673309      0.1101553090
H      -2.1342865872     -1.3873321557      1.2844105598      0.0519039579     -0.0713608708     -0.2213596621      0.1129841675
H      -2.2335366055     -2.4567838690     -0.1457783634      0.3186541385      0.1969002117      0.1792291455      0.1316199634
H      -3.9292097958     -0.6010286732     -0.2074031438      0.2529953802      0.0255280362     -0.2246075805      0.1108013734
H      -2.8137213528     -0.5827748991     -1.6202994353     -0.0625316951      0.0142260061      0.2266633752      0.1026548049
H       0.5589634899     -0.3404297603      2.1547124722     -0.0650848725      0.2535573824     -0.4924162956      0.1261427430
H       0.4623232654      1.4397459668      1.8762338436     -0.1191007230     -0.3840351433     -0.3823791685      0.1211422846
H      -1.0161526325      0.4591312831      2.0916913795      0.1673000869     -0.0016902208     -0.4811147475      0.1350872129
H       2.5846700422     -0.2503841690      1.2231566747     -0.1619782076     -0.1100561248     -0.1962130524      0.1266691854
H       2.2410344549     -1.4831781582     -0.0515445637     -0.0989003451      0.2113536660      0.1518730731      0.1216779051
H       3.7112548135     -0.2618211843     -1.6378785919      0.1612448212      0.0998801578      0.2987343397      0.0533602347
H       4.0402461354      0.9900930162     -0.3708347098      0.1101887197     -0.3573336497     -0.1316861899      0.0787712560
H       4.5843713877     -0.7118996114     -0.1247884308     -0.2046682542      0.3021863924     -0.1996560755      0.1096789717
P      10.4551001794      0.2571838381      0.1095369629     -0.5788177253      1.6000766580     -2.1201127128      1.6455888201
F      10.5815096545      1.3704688745     -1.1980722876     -0.2205753543      1.7628447896      0.1725276131     -0.5266081054
F      10.6430845247      1.0346633726      1.6365758738      0.7166940109     -0.4481072297     -0.3049678521     -0.5164245673
F       9.9096195792     -0.6606371741     -1.2399886042      0.2216942850     -0.5793066938      0.2155640880     -0.5228192904
C       8.7899427677      1.2306143943      0.3094675203     -0.1232247093     -0.5080722602     -0.0871387402      0.5373193813
C      12.3455478087      0.5695940431     -0.1759204282      0.5258345434     -0.8422435289      0.2441685469      0.5454645789
C      10.4335076685     -1.5317401147      0.8389799435      0.4057327501      0.3197912789      0.7343995895      0.5382082604
C       7.7895228921      1.1855448598     -0.8756416910      0.3405095350      0.1581109560     -0.7696090881      1.3362965539
C      13.3267691233     -0.0829173880      0.8210363724      0.7537365404      0.0678415800      0.3197430922      1.3270606603
C       9.0578712258     -2.1552440722      1.1394230926     -0.4522107676     -0.5349435966      0.0443328126      1.3576036183
F       9.0772881878      2.5730455334      0.5259989258     -0.4117234096     -0.4536499485     -0.2081526314     -0.4390631622
F       8.1174791798      0.7817162398      1.4291457091     -0.6309567356      0.3281717915     -0.1114033329     -0.4603731811
F      12.6050905533      1.9362634752     -0.1166495254      0.0465143173     -0.8072772831      0.2255671683     -0.4363806418
F      12.6923819132      0.1147710500     -1.4408294344      0.2533909692      0.1038184130      0.5196576968     -0.4391225977
F      11.1113227872     -1.5262980206      2.0444310547     -0.2819170906     -0.5342430441      0.0765928324     -0.4476275441
F      11.1094736097     -2.3926687210     -0.0144375831     -0.4688163168      0.1760259355      0.4816895646     -0.4370953626
F       6.6444938513      1.8720669632     -0.5127247119      0.0063478370     -0.1929477690     -0.2893282035     -0.4784857705
F       7.4206094922     -0.1032239423     -1.1956747076     -0.2103864658      1.2496937116      0.0708983587     -0.4532332264
F       8.3034008679      1.7991265241     -2.0036884054     -1.0488762688     -0.6248419717      0.9449846433     -0.4323044772
F      14.6020356640      0.3876531475      0.5602407271     -0.3863415640     -0.3598416728      0.3078202955     -0.4558475006
F      13.0167482981      0.2457717201      2.1274184955      0.7143178004     -0.4521470449     -1.0942650108     -0.4392160313
F      13.3601949098     -1.4555291125      0.6767217880      0.2509843235      1.1386225401      0.3003322184     -0.4471991215
F       8.4573646301     -1.5285071371      2.2136850092      0.3039565091     -0.7976573891     -0.8606422072     -0.4455821758
F       9.2388392549     -3.4835056253      1.4835857599     -0.3157919947      0.5718196366     -0.1127362880     -0.4535307561
F       8.2217337394     -2.1166141192      0.0458059043      0.3976412067     -0.3133502452      1.2809950239     -0.4454604148
