55
Properties=species:S:1:pos:R:3:forces:R:3:charge:R:1 energy=-293.11549589417996 homo_lumo=3.0968001159478353 dipole="-6.0288687836852315 -5.1829674729132265 -2.9239098563440744" free_energy=-293.11549589417996
N      -0.0347628617      0.2509279677      0.1577037274      0.2194242805      0.2511477901     -0.0969896202     -0.5495575965
C      -0.9569779686      1.2421638364     -0.4840282254     -1.4339960014      1.1429939554     -0.6287705031     -0.0318143004
C      -0.4798600554     -1.1446884638     -0.1471217454     -0.7526492557     -1.6403101185     -0.1004025853     -0.0313566942
C       1.3250880587      0.4908242397     -0.4314435149      1.8934005953     -0.0569882381     -0.3679151055     -0.0503554813
C      -2.4489079114      1.0152886468     -0.1761200643      0.0320833851     -0.0756684719      0.0346100118     -0.1786423448
C      -1.9577686866     -1.4088492431      0.1897093762     -0.0372831285      0.1478586107     -0.0204656469     -0.1709845512
C      -2.8637196208     -0.4103115480     -0.5201061068     -0.3371620896     -0.0581021676      0.0784740078     -0.1694868412
C       0.0144399266      0.4826977009      1.6270441019      0.0155544807      0.1506950454      1.4280357115      0.0088322508
C       2.4677841288     -0.3883048076      0.1335743392     -0.2764206880     -0.0293777432      0.1893538980     -0.2641545475
C       3.7821990071     -0.0989497686     -0.5881507049      0.0760161095      0.2086636029     -0.2151025244     -0.0963396173
H      -0.8485740551      1.2082702338     -1.5932802789      0.3375131194     -0.2890649395      0.4601530703      0.1539721624
H      -0.6926226725      2.2790548062     -0.1733089285      0.3124628039     -0.5461690450      0.0402672176      0.1614683100
H       0.1171472908     -1.8867508171      0.4252383178      0.1469470536      0.6066409709     -0.1671192835      0.1632440867
H      -0.3303845276     -1.3698633688     -1.2280792111      0.1393142872      0.4669965350      0.3311602420      0.1486525500
H       1.6186262579      1.5563505993     -0.2816024301     -0.4326992715     -0.3080093822      0.1305924619      0.1794080275
H       1.2925521176      0.3315600873     -1.5344918855     -0.4026968532     -0.0162129016      0.4171970071      0.1454452468
H      -3.0534010390      1.7204164062     -0.7869897560      0.3582419577      0.0008711063      0.2042026653      0.1333484988
H      -2.6787516194      1.2366790778      0.8865043541      0.0663730566     -0.0084042146     -0.1991240440      0.1134458304
H      -2.1237288727     -1.3620540060      1.2869208105      0.0548182742     -0.0666103918     -0.2245519218      0.1139028684
H      -2.2265625479     -2.4359925405     -0.1397738827      0.3175915397      0.1977105326      0.1778779076      0.1279150820
H      -3.9171890766     -0.5764898404     -0.2076014148      0.2513501959      0.0219789010     -0.2230197982      0.1097333961
H      -2.8011395024     -0.5640222823     -1.6201945746     -0.0621282436      0.0149458723      0.2252725611      0.0997143355
H       0.5877126538     -0.3142708677      2.1465379633     -0.0757417068      0.2582849896     -0.4921564709      0.1229839653
H       0.4832087508      1.4643025620      1.8620200757     -0.0970923286     -0.3756718828     -0.3673900893      0.1385737841
H      -0.9917360941      0.4793391201      2.0888427388      0.1736421325     -0.0029549211     -0.4862542746      0.1340273065
H       2.6248445228     -0.1810525332      1.2121323310     -0.1486457725     -0.0872427026     -0.2197504143      0.1404081899
H       2.2448139587     -1.4659893931      0.0013828206     -0.1036140765      0.2016326912      0.1297788088      0.1162246625
H       3.6896833698     -0.3364591637     -1.6693523572      0.1329052811      0.0954872001      0.2705424427      0.0443705306
H       4.0626909970      0.9692254629     -0.4717353115      0.0361915867     -0.3348467683     -0.0569550576      0.0948846283
H       4.5903071134     -0.7262989040     -0.1561034175     -0.2450118283      0.2620062536     -0.1718332430      0.0801509729
P       6.2815731633      5.5318869330      3.2826640320      1.2461436923      2.7311149801     -0.7598559331      1.6409042950
F       7.4183954297      6.8086708420      3.0768826243      0.1140713183      1.2757560710      1.0893487884     -0.5229213665
F       5.6541773727      5.4859743644      4.8876227820      0.6271780985     -0.7004951108     -0.1891395150     -0.5159772542
F       6.5093535974      5.5803279856      1.5776917618     -0.1110596586     -0.7691882566     -0.0580302814     -0.5205514752
C       5.1058929566      7.0733227493      3.3282119906     -0.1902875382     -0.1756614861     -0.4054619257      0.5360428959
C       7.9580657567      4.9086635329      4.0260576600      0.0953919569     -0.9508274107     -0.1251638823      0.5482040564
C       5.4274211268      3.8885964395      2.7291456873     -0.0423429928     -0.0983832531      0.8397984941      0.5388135880
C       5.0682833922      7.9796701395      2.0693901298      0.4802408422      0.5944548797     -0.3789765569      1.3326264377
C       7.9507358803      3.5329192083      4.7253549875      0.4726009134     -0.3267154191      0.6527387829      1.3256757165
C       4.0651115911      4.0036677939      2.0202470507     -0.1940688093      0.6451026051     -0.2828494282      1.3619544908
F       5.4785127942      7.8919439987      4.3876065262     -0.2605833608     -0.1793457258     -0.6109672257     -0.4355510806
F       3.8104143669      6.6659299094      3.5782206102     -0.3109646476      0.5446024663     -0.1017588749     -0.4605545860
F       8.4059797438      5.8140199264      4.9840842874     -0.3074563535     -0.7853561561     -0.3549805683     -0.4324688718
F       8.9053939294      4.8424946818      3.0133584544     -0.1272737843     -0.2670890757      0.5291501220     -0.4382965376
F       5.2002982189      3.1092156012      3.8487869724     -0.4369491027     -0.4083896152     -0.3390638061     -0.4516200771
F       6.2772587365      3.1773880324      1.8933455561     -0.6360324094      0.0796916717      0.1703982187     -0.4414099694
F       4.1095929758      8.9596071502      2.2581042733      0.3647740977     -0.3132241627     -0.2626147747     -0.4577989004
F       4.7296266935      7.2773762641      0.9330429004      0.0976967341      0.9692136509      0.7246775413     -0.4497058576
F       6.2789597206      8.6152419510      1.8604833971     -1.4458897317     -0.3430812414     -0.1260736062     -0.4341941610
F       9.1799440373      3.3366286847      5.3305181087     -0.6050611716     -0.2207975387     -0.1576690457     -0.4543928344
F       6.9829216686      3.4694099615      5.7101463060      1.1095545976     -0.3385160468     -0.7493768845     -0.4396155975
F       7.7707700009      2.5047474007      3.8218690033      0.2259613654      0.5543116309      0.9327724332     -0.4516458596
F       3.0845869369      4.4173248611      2.9001673972      0.5833699257     -0.6083606017     -1.0121098718     -0.4427838943
F       3.7000693326      2.7527283438      1.5554086711     -0.3193784056      0.0947827760     -0.0905148260     -0.4883619272
F       4.1155202056      4.8543515068      0.9383173501     -0.5883244715     -1.1358797995      0.9860051948     -0.4343859409
