57
Properties=species:S:1:pos:R:3:forces:R:3:charge:R:1 energy=-308.8809856252983 homo_lumo=1.712414220946221 dipole="-9.832534690784469 -3.489243035066297 -1.8944943144466089" free_energy=-308.8809856252983
N      -0.7232797597      0.5157414345     -0.2119949400      0.0184764955      0.2800499612     -0.2504266309     -0.5195652806
C      -1.7075045002      0.2528942132     -1.3123616162     -1.4125012094     -0.4139379251     -1.1091680977     -0.0326155543
C      -1.2657649436      1.6016864829      0.6693434528     -0.8892216169      1.0919392881      1.2607993969     -0.0403330648
C       0.5307932142      1.0177703510     -0.8724303228      1.7291678461      0.5232682560     -0.2896754865     -0.0485047565
C      -0.4615680057     -0.7163507559      0.6126624813      0.4734695271     -1.4416852662      0.4983417290     -0.0606433023
C      -3.1252524241     -0.0852477475     -0.8215077929      0.0468499049      0.0256611539      0.0460747903     -0.1802241395
C      -2.6844401864      1.3248488218      1.2069737926     -0.0311867582     -0.1190136430     -0.1002634565     -0.1716455435
C      -3.6600062229      1.0289488859      0.0721511689     -0.3024497348     -0.0659677685      0.1382196422     -0.1691826202
C       1.7309087464      1.2788339722      0.0704273797     -0.3999331132     -0.1492898680     -0.1680702549     -0.2288505233
C       0.2094311017     -1.8962964432     -0.1334295397     -0.1237192217      0.4107722921      0.0829967265     -0.2269892502
C       2.9321118131      1.8075692669     -0.7224609567     -0.0213338282      0.0223270751     -0.1145510159     -0.1927570143
C       0.4464066235     -3.0742917980      0.8206262663     -0.0583148318      0.0432148057      0.1119111744     -0.2136267684
C       4.1381218448      2.0239478365      0.1846442539      0.1074683234      0.0395632891     -0.0042755528     -0.1241349794
C       1.1100838252     -4.2451482304      0.1005047181      0.0488894925     -0.1255501631      0.0138008507     -0.0923380015
H      -1.3596851567     -0.5564801101     -1.9870319395      0.3284082730      0.2144543170      0.4712129152      0.1583332693
H      -1.8002290341      1.1534447624     -1.9641176002      0.3955842271     -0.0900995028      0.5152649155      0.1548405415
H      -1.3017932907      2.5699731454      0.1183388388      0.2306498168     -0.5618492052     -0.1619299063      0.1520400166
H      -0.6122026357      1.7618988435      1.5536462929      0.1325607262     -0.2780158037     -0.5548545867      0.1671521131
H       0.3192622215      1.9708940291     -1.4111998909     -0.3665179543     -0.3652234687      0.3422434351      0.1557948844
H       0.8595847233      0.3118684603     -1.6676122549     -0.4046108223     -0.0373003094      0.3920479746      0.1564197627
H      -1.4007675068     -1.1060831411      1.0504018577     -0.0060058416      0.4413705704     -0.3450628170      0.1846543836
H       0.1640087534     -0.4593445146      1.4956104877     -0.1276190264      0.3296341810     -0.4779522697      0.1632857729
H      -3.1472437343     -1.0581547972     -0.2889289425      0.0363428089      0.1634340800     -0.1134111387      0.1123297888
H      -3.7953021331     -0.1880487124     -1.7023428319      0.3637776807     -0.0836356928      0.1038283600      0.1259075887
H      -3.0408663565      2.2215460548      1.7587466389      0.3508771439     -0.2074591412     -0.0683061431      0.1324334948
H      -2.6771910768      0.4861749265      1.9339251758      0.0450525723      0.1801820596     -0.1240731260      0.1109761371
H      -3.8140955645      1.9493935967     -0.5334496231     -0.0116081901     -0.2000616307      0.1196513945      0.1015161646
H      -4.6424184268      0.7273096566      0.4950128833      0.2059559178      0.1972923595     -0.1715257648      0.1086693740
H       2.0412459969      0.3431061096      0.5784949553     -0.1112421385      0.2039608320     -0.0187926231      0.1314374811
H       1.4656924745      2.0328943226      0.8392598153      0.0522494074     -0.2213428511     -0.0760539046      0.1262069041
H       1.1904721159     -1.5935741755     -0.5520924435     -0.2437536240     -0.0207839606     -0.0107787411      0.1382232115
H      -0.4395118974     -2.2504141450     -0.9596013378      0.1703550979      0.1219007957      0.0548976435      0.1216641618
H       2.6673763228      2.7740843420     -1.2043275892      0.0047349944     -0.2716741922     -0.0207776727      0.0980782093
H       3.2091163775      1.0813286172     -1.5175981060     -0.1626736886      0.1983388639      0.0572797725      0.0963639950
H      -0.5237589020     -3.4165457893      1.2426492815      0.2142030868      0.1547030186      0.0272655761      0.0955933994
H       1.1010883065     -2.7526464547      1.6599525087     -0.2509034330     -0.0300599709     -0.1095523051      0.1091890443
H       4.4507903952      1.0636533002      0.6475414273      0.0082282790      0.3600385952     -0.0638991026      0.0501788508
H       3.8915693285      2.7534779191      0.9849167808      0.2344525319     -0.2319353263     -0.1912881710      0.0632537652
H       4.9838928148      2.4216126664     -0.4138549207     -0.1760807490     -0.1156315459      0.3487470006      0.0935171886
H       2.1005234812     -3.9402820445     -0.2997556766     -0.2805912647     -0.1896244822      0.0597375331      0.0574506958
H       0.4691429319     -4.5977401648     -0.7355530744      0.2652592908      0.0327805749      0.1959067683      0.0471670781
H       1.2579632478     -5.0843115781      0.8123912996      0.0136695078      0.1941671962     -0.3133757699      0.0700546745
N       9.7571600011      3.2285974741      2.2323240559     -0.1874246821     -0.2948682018      0.2748556143     -0.8664977015
S      10.8211909135      3.7877589812      1.1177367166     -4.1703694767     -2.2209076430     -5.1939425918      1.5588179928
S       8.4259251099      4.0700103883      2.6878365725      4.5828811252      4.2130219078      4.0938157393      1.5804155523
C      12.1006948773      4.7121342487      1.9424511583      1.1147366283      1.0535088344      1.1882561299      1.1524517434
C       7.0293065680      3.5056486239      1.7416441457     -0.8443828898     -0.6040018587     -1.1473641132      1.1415159039
O      11.4471017409      2.6225071480      0.4053456338      0.1586906846      1.3500801032      2.1127967904     -0.7329148746
O      10.1268219974      4.6731022001      0.1203730913      1.4637897970     -0.0594636660      1.6753034913     -0.7366214025
O       8.6214720088      5.5431679010      2.4597988129     -1.2736909941     -1.8704305075     -0.6846592494     -0.7294353504
O       8.1566524223      3.8173149026      4.1440279458     -0.5164536893     -1.0108670775     -2.2657493807     -0.7331716997
F      13.0176604816      5.1643739594      1.0126081702     -0.6078086957     -0.2808598681      0.9082063815     -0.4325124189
F      12.7403167074      3.8978452734      2.8574729145     -0.1844279537      0.8238772326     -0.5527311820     -0.4330928906
F      11.5469300759      5.7929093088      2.6011400560      0.8414239464     -0.8590577786     -0.4849219361     -0.4234603660
F       5.9062706045      4.2259071707      2.1021430154      0.5186183666     -0.6868037329     -0.4560027721     -0.4470838102
F       6.8151041538      2.1639294170      1.9936070302     -0.3029117581      0.7647538488     -0.4362261803     -0.4464252050
F       7.2764321201      3.6857066054      0.3942914434     -0.6890863143     -0.3268934405      0.9862001976     -0.4333066255
