57
Properties=species:S:1:pos:R:3:forces:R:3:charge:R:1 energy=-312.0574518354749 homo_lumo=5.475338245906132 dipole="-2.573474605293254 0.15288792766198592 -1.5526933305138477" free_energy=-312.0574518354749
N       0.3995228335      0.2982773347      0.2034201776     -0.1516618748      0.2031119607     -0.2471876373     -0.4953220648
C      -0.8296705305     -0.1108610884     -0.5533804803     -0.4748114225     -0.3936998064      0.1605376964     -0.0014443556
C       0.0064780659      1.2057570648      1.3340148373     -0.2159361875     -0.0676183412      0.5514624545     -0.0324935396
C       1.2658426694      1.0793900486     -0.7552137973      0.5471422762      0.2478853755      0.2300640118     -0.0060568148
C       1.1124367582     -0.9121456159      0.7535932423      0.3588764756     -0.3548677184     -0.2242635226     -0.1026274513
C      -1.9037942090     -0.7438388227      0.3267213537      0.0955027639      0.4646659568      0.0497936267     -0.1612498895
C      -1.0162331461      0.5702177850      2.2640004158     -0.1763685236      0.0913426966     -0.4869282634     -0.1541680723
C      -2.2727629250      0.1698828215      1.4949775003      0.3814931134     -0.2532407705     -0.0091750617     -0.1479573210
C       2.5130884020      1.6970360391     -0.1257255319     -0.1959261963     -0.2131827690     -0.6220870878     -0.2682652653
C       1.9534639361     -1.6971772670     -0.2470591064     -0.2295695653      0.0455141227      0.5416643681     -0.2305481292
C       3.5396228793      2.0360423990     -1.2137182964     -0.0488771770      0.1445712666      0.5431532567     -0.2032763867
C       2.4703748502     -2.9674739139      0.4437199392      0.1508294377      0.2249648540     -0.4824531634     -0.2101599475
C       4.7515469803      2.7424880838     -0.6103027565     -0.2769053311     -0.2229224513     -0.2841636481     -0.0683225690
C       3.4989638917     -3.6810105189     -0.4289009031     -0.2575064202      0.0926462063      0.2808395389     -0.0558770088
H      -0.5160356879     -0.8055166631     -1.3357885251      0.1394138283     -0.0841810501     -0.2129448524      0.1391253262
H      -1.2297289945      0.7912642403     -1.0248089015     -0.0266772042      0.2345141211     -0.1062135573      0.1187065288
H      -0.3992402536      2.1179646043      0.8869609566     -0.1158164953      0.2096189675     -0.2124269665      0.1024937680
H       0.9105344987      1.4478891027      1.8936269342      0.1960995184      0.0042330413      0.0601425962      0.2151538389
H       0.6328515048      1.8664234955     -1.1747863128     -0.2434426908      0.1135375484     -0.0960994929      0.1088131227
H       1.5363393495      0.3977906568     -1.5640926983      0.0247502826     -0.1957673742     -0.1564849165      0.1396289200
H       0.3536361409     -1.5638079604      1.1877647437     -0.1761049806     -0.0559861312      0.0716400004      0.1479904191
H       1.7568064530     -0.5644172323      1.5613913200      0.0722642967      0.0553986829      0.0859500290      0.2773295550
H      -1.5754245395     -1.7170771270      0.6997395820      0.0461791624     -0.2791217378      0.0441010417      0.0991302362
H      -2.7801123145     -0.9134011854     -0.3047631968     -0.1973803911     -0.1416626007     -0.2140384903      0.1009639039
H      -1.2665949488      1.3106985335      3.0276331935      0.0568834169      0.1508120183      0.2632061954      0.1051484041
H      -0.5789245049     -0.2917676233      2.7729297928      0.1534734549     -0.1318035909      0.2071952263      0.1229533133
H      -2.7716195769      1.0673734751      1.1141963413     -0.1832904430      0.2452467083     -0.0987471873      0.0779313722
H      -2.9672091498     -0.3491290910      2.1593999709     -0.2675401535     -0.0660925608      0.1582661083      0.0845161411
H       2.9706556352      1.0056744422      0.5831385597      0.0554720717     -0.1300331716      0.1520815336      0.2469764766
H       2.2429831994      2.6064560160      0.4177085388     -0.0410088022      0.2043638587      0.1564066348      0.0929390063
H       2.8162715196     -1.1059873188     -0.5627682277      0.2192306024      0.1247889960     -0.0406920500      0.1776051012
H       1.3699813198     -1.9672539033     -1.1328114014     -0.1309048054     -0.1416289793     -0.3032247144      0.0677096286
H       3.0748875455      2.6754200299     -1.9728660063     -0.1171284117      0.1402172231     -0.2706695837      0.0576791429
H       3.8624427114      1.1102202468     -1.7008626416      0.0602857874     -0.2484974825     -0.1402134734      0.0922045546
H       1.6300605198     -3.6358059209      0.6605392272     -0.2399030966     -0.1704313194      0.1060647658      0.0562081477
H       2.9364367885     -2.6900735624      1.3937416882      0.0204978283      0.0772370196      0.2014435824      0.1574290913
H       5.2280672953      2.1093162495      0.1373542489      0.1766467271     -0.1123354183      0.1902802675      0.1158889061
H       4.4518663887      3.6772481541     -0.1352329851     -0.0434869689      0.3048904230      0.1530766923      0.0119320807
H       5.4762723505      2.9635359257     -1.3935646254      0.2882309905      0.1213103017     -0.1775449759      0.0207714360
H       4.3579492938     -3.0318210556     -0.6000330221      0.2549139199      0.1688585769     -0.0375482375      0.0692662879
H       3.0666215065     -3.9546560683     -1.3926112441     -0.1068163175     -0.1339567740     -0.3190627898      0.0113180341
H       3.8413765356     -4.5866441303      0.0712182637      0.1647406033     -0.3090007829      0.0664368233      0.0278926886
N       3.6669977922     -0.2230481047      2.2351010232      0.3773887513      0.0572120697      0.2366032561     -0.9300905100
S       3.3268109603      0.3599240213      3.6873486761     -0.4126888340     -0.1952384841     -0.0874041844      1.6432001154
S       5.1948595081     -0.3831489738      1.7607282354     -0.2415402075     -0.0448423417     -0.3332069369      1.6313473667
C       3.8534688012      2.1606850202      3.7506601611     -0.1581149864     -0.8283267957     -0.3440235581      1.2043450727
C       5.9056607451     -1.8738414511      2.6441738000     -0.5579542734      0.6597894847     -0.3071796205      1.2154591160
O       1.8765221180      0.4476713415      3.7051370826     -0.9994534934      0.2330585214      0.0032925968     -0.7950050437
O       3.9856329966     -0.2883834493      4.7895298030      0.7321753602     -0.3452993836      0.8158735009     -0.7240230693
O       6.0495405660      0.7294403846      2.0909765160      0.6955194118      0.6949615609      0.4971619686     -0.7437341850
O       5.1110625255     -0.7943623478      0.3770429802     -0.0196629573     -0.4941225100     -1.0098741074     -0.7782752321
F       3.0056630314      2.8198121458      4.5279262070     -0.8922712316      0.6888297460      0.9312773102     -0.4394683149
F       3.7761043682      2.6799284369      2.5260657954     -0.0329002800      0.6307470347     -1.1464895376     -0.4586493640
F       5.0714188828      2.3119767162      4.2164034957      1.2849563100      0.1474722803      0.5556336103     -0.4228770405
F       6.8124367076     -2.4434335779      1.8669826942      1.0312649193     -0.5491311192     -0.8675772968     -0.4364792581
F       4.9335663215     -2.7493156350      2.8705931829     -0.9716261784     -0.9925608087      0.2902915301     -0.4488782884
F       6.4645432252     -1.5348520259      3.7853630975      0.6190445908      0.3737516497      1.2339846907     -0.4248079814
