57
Properties=species:S:1:pos:R:3:forces:R:3:charge:R:1 energy=-312.38538541659693 homo_lumo=5.262140554395755 dipole="-2.8462909087359867 0.1113744737147644 -1.7409232681507392" free_energy=-312.38538541659693
N       0.3547901236      0.2900413386      0.1889248857      0.0060104836     -0.0015420026     -0.0005523410     -0.4847570752
C      -0.8820700619     -0.1490275055     -0.5689742760      0.0043347707     -0.0111185335      0.0025366150     -0.0084967015
C      -0.0562776220      1.1832402160      1.3477147461     -0.0079000404     -0.0059661090      0.0029676463     -0.0400303571
C       1.2145946917      1.0927391284     -0.7729624558     -0.0019934771     -0.0005096978      0.0010576798     -0.0111590125
C       1.1228041272     -0.9142784612      0.7321119206      0.0041473809      0.0056465233      0.0067485343     -0.1025982438
C      -1.9381361024     -0.8019087316      0.3099373810      0.0017634005      0.0053240546      0.0108464053     -0.1713869269
C      -1.0739071635      0.5227115386      2.2598472954     -0.0101049131     -0.0035838534     -0.0190145828     -0.1644299810
C      -2.3201906939      0.0960918059      1.4872811460      0.0035430846      0.0046295526     -0.0013056179     -0.1615997366
C       2.4599329912      1.7000678034     -0.1543841952      0.0012689634      0.0006289377      0.0066616396     -0.2655417749
C       1.9434033395     -1.6850651349     -0.2852340876     -0.0040028331      0.0018569559     -0.0047468552     -0.2346411223
C       3.4659927076      2.0883473927     -1.2404005056      0.0031953925     -0.0080621166     -0.0066066157     -0.2082563922
C       2.4673657902     -2.9668120585      0.3719829190     -0.0011648913     -0.0004947036      0.0089253441     -0.2143134447
C       4.6678001408      2.8265999543     -0.6577406418      0.0000413401      0.0069463861      0.0114413857     -0.0853402138
C       3.4953708934     -3.6807018388     -0.5004910358      0.0018773118      0.0089590208     -0.0110389538     -0.0778646171
H      -0.5407915191     -0.8179158263     -1.3721492768     -0.0032170699     -0.0026347154     -0.0002650883      0.1411912819
H      -1.2886561838      0.7655204167     -1.0301394075      0.0002393686      0.0041119567     -0.0007105152      0.1244171788
H      -0.4725435868      2.0964835035      0.8894783201      0.0008007676      0.0010725155     -0.0065085954      0.1083202338
H       0.8574656227      1.4252139783      1.9044208068      0.0063710431      0.0083442788      0.0058816726      0.2170333964
H       0.5525155442      1.8714193708     -1.1859174307      0.0043468347     -0.0033805264      0.0052934845      0.1102319615
H       1.4727297688      0.4041505084     -1.5910070942      0.0012844322      0.0005145545      0.0016415630      0.1443740749
H       0.3750990585     -1.5657921092      1.1998942251      0.0017439086     -0.0028576676      0.0039978439      0.1552688951
H       1.7824150075     -0.5358939723      1.5248528007     -0.0004645914     -0.0054351333     -0.0030910717      0.2631126243
H      -1.5892330174     -1.7834482369      0.6705132090      0.0027549845     -0.0050800688      0.0068143594      0.1043666024
H      -2.8126802565     -1.0026606631     -0.3314355599     -0.0018745661     -0.0042024660     -0.0013550536      0.1079129411
H      -1.3233216202      1.2559147823      3.0433366146     -0.0082845812      0.0065253078      0.0089939105      0.1145873914
H      -0.6086110069     -0.3269307049      2.7847949048      0.0005769811     -0.0053821409      0.0013448487      0.1255795962
H      -2.8379163681      0.9954517185      1.1048840275     -0.0018597333      0.0020940519     -0.0073738982      0.0856905618
H      -3.0306427953     -0.4240367843      2.1486118591      0.0023686526     -0.0054892785      0.0031234817      0.0901824665
H       2.9429392585      0.9921480234      0.5369896393      0.0060854439      0.0060880683     -0.0033911579      0.2329067047
H       2.1933443204      2.5918044021      0.4365012274      0.0062751704     -0.0018611346      0.0009681206      0.1044579485
H       2.8140438374     -1.0873576380     -0.5992791184      0.0014644145     -0.0017556407      0.0073886542      0.1744141103
H       1.3571256204     -1.9464914926     -1.1856751341      0.0069090819     -0.0003077726      0.0052725434      0.0720116841
H       2.9710848837      2.7135227940     -2.0072652599      0.0044614692      0.0077120972      0.0004948348      0.0640097613
H       3.8094078031      1.1681809711     -1.7467599877      0.0010412917      0.0084692881     -0.0025739887      0.0975666040
H       1.6178785091     -3.6375449972      0.5979573889      0.0032588305     -0.0020001992      0.0015974891      0.0624208879
H       2.9316715875     -2.6963095844      1.3342306566      0.0006394783     -0.0033756015     -0.0018358438      0.1586866391
H       5.1843101175      2.2045000603      0.0877827963      0.0049334881      0.0018539285     -0.0033361874      0.1069570238
H       4.3538479840      3.7591967386     -0.1622100159      0.0090471733     -0.0075208532     -0.0033358971      0.0250535671
H       5.3921399498      3.0852543556     -1.4441736582     -0.0030971953     -0.0025581638     -0.0085503969      0.0327504174
H       4.3667431437     -3.0283886935     -0.6643904717     -0.0051718158     -0.0038565623      0.0009743009      0.0748734008
H       3.0709410435     -3.9541292112     -1.4807666234     -0.0001612198      0.0043139006      0.0056549559      0.0187153571
H       3.8509275333     -4.6016020253     -0.0155171963     -0.0073596703     -0.0040598912      0.0059230656      0.0389920872
N       3.8517530754     -0.1582273334      2.3441856325      0.0021202107      0.0021409148     -0.0042239483     -0.9243063856
S       3.4240992830      0.4379627073      3.7782898107      0.0037517845      0.0023354961     -0.0115118570      1.6376933861
S       5.3725163110     -0.4121804018      1.8520682778     -0.0119418772     -0.0006552745     -0.0013453386      1.6238475150
C       3.9233932339      2.2763619864      3.8167873486      0.0215540755      0.0030248084     -0.0126040772      1.1699367391
C       5.9751477711     -1.9992233890      2.6985277480     -0.0071579819     -0.0104223324      0.0207762447      1.1814342777
O       1.9579299645      0.5140269146      3.7285124611     -0.0043455614      0.0217561041     -0.0019008427     -0.7849102347
O       4.0863381286     -0.1404815978      4.9371107570     -0.0018566291      0.0068494125      0.0002650393     -0.7128302163
O       6.3317616150      0.6043223938      2.2622438682      0.0072649886     -0.0029649783     -0.0088584129     -0.7249325584
O       5.2575914440     -0.7958595100      0.4457664662      0.0037558963     -0.0194986627     -0.0023863669     -0.7639667106
F       3.1177573525      2.9169540397      4.7021036049      0.0000061657      0.0082984630      0.0044051433     -0.4388708534
F       3.7445592522      2.8521287770      2.5965127238     -0.0058791778      0.0191569073     -0.0045951981     -0.4572304605
F       5.1985295085      2.4510583153      4.1966707909     -0.0084785836     -0.0000063822     -0.0166215355     -0.4220084913
F       7.0001514006     -2.5066706050      1.9709170075     -0.0016706786     -0.0087601079      0.0141571091     -0.4361043136
F       4.9886613047     -2.9310367510      2.7505745767     -0.0058062976     -0.0105497851     -0.0032713772     -0.4497321527
F       6.4104225454     -1.7558874971      3.9470865064     -0.0254446790     -0.0027611294     -0.0032423004     -0.4236893408
