38
Properties=species:S:1:pos:R:3:forces:R:3:charge:R:1 energy=-219.5184052082463 homo_lumo=2.5030729148050628 dipole="0.7937144985484307 0.9153919411399543 2.4188705775570285" free_energy=-219.5184052082463
N       1.8234771892     -1.3255252744      0.0280490406     -0.2353300044     -0.4771036101      0.0232285294     -0.5134109502
N       3.0079089332      0.3654530402     -0.5748397069      0.2244597775      0.4247954792     -0.2443564088     -0.5573789985
C      -0.5020387298     -1.8900258619      0.6440682618      0.2786861523      0.2396255371     -0.5082937480     -0.1642731292
C      -1.1733995136     -0.7742279504     -0.1611512045     -0.2841102542     -0.4441182929      0.6317945725     -0.2152993123
C       0.8033616966     -2.3688028704      0.0052138452     -0.5828099738      0.0136497232      0.3375516519     -0.0080460476
C      -2.5602991597     -0.4409960107      0.3962002099      0.4095366265      0.4266122212     -0.6461428203     -0.1451337108
C      -3.2187026522      0.6810430809     -0.4130166811     -0.3447859706     -0.3205391075      0.5809079224     -0.1991374085
C       1.9236630107     -0.3489529608     -0.8682044083     -0.2587853365      0.1582885713     -0.3381099375      0.5922383686
C       2.8621951354     -1.2332726234      0.9133921793      0.2100247412     -0.0007715299      0.2428288444      0.2145009514
C      -4.6073620465      1.0170777603      0.1274561673      0.3782454078      0.0375708944     -0.2711596811     -0.0432928788
C       3.6133405404     -0.1662562770      0.5335494710      0.2512458043     -0.0605063699      0.3193055987      0.2093467586
C       3.4903382051      1.4986010798     -1.3474603447     -0.0601746348      0.0518592671      0.1115135146      0.1030603779
H      -0.3076524087     -1.5523450074      1.6673758282     -0.0033110632      0.0422526002      0.3303056176      0.0773945582
H      -1.1696212761     -2.7551300697      0.6953758508     -0.1823194513     -0.2504601478      0.0470354077      0.0933498346
H      -1.2645647082     -1.0836623440     -1.2066882941      0.0120468563     -0.0417622162     -0.2458051485      0.1373995295
H      -0.5487485843      0.1249816479     -0.1314329197      0.0779478983      0.2474931936     -0.0458582453      0.1102491856
H       0.6504759170     -2.6398541192     -1.0445019943      0.1505919887     -0.0440547418     -0.2541380330      0.1777642552
H       1.1996768020     -3.2293640543      0.5490601266      0.2118232909     -0.1609468085      0.0543685771      0.0847459977
H      -3.1911531307     -1.3357706899      0.3621512760     -0.1747091683     -0.2434251305      0.0291269450      0.0803416479
H      -2.4702353174     -0.1353554229      1.4448240162     -0.0274929631      0.0483542711      0.3058152898      0.0718710504
H      -2.5867032102      1.5748716508     -0.3756418802      0.1967924061      0.2007603329     -0.0586184655      0.0780267502
H      -3.2996325931      0.3727518558     -1.4601976976      0.0608132659     -0.0468312285     -0.2909417134      0.0944742621
H       1.2611402147     -0.1777791567     -1.6954411390     -0.0726999987     -0.0846083784     -0.0947645792      0.2132376700
H       2.9879765081     -1.9293536969      1.7242166790      0.0230704233     -0.1745219930      0.1672249052      0.0289190619
H       4.5150464314      0.2480820554      0.9493122472      0.2250132447      0.0815279038      0.0839262568      0.0282920285
H      -4.5455298358      1.3455409976      1.1662040736     -0.0356078699      0.0946753230      0.3213502852      0.0228775806
H      -5.0542528401      1.8166390082     -0.4636424323     -0.2580304957      0.2428609390     -0.1119779367      0.0313763839
H      -5.2585342475      0.1432038256      0.0782400225     -0.2371664994     -0.2438748001      0.0093549415      0.0278580546
H       4.5508228065      1.3613183689     -1.5569215400      0.2177131860     -0.0713640666     -0.0991563810      0.0557004510
H       2.9310080590      1.5441491727     -2.2800576365     -0.0512881647      0.0018390059     -0.1366068982      0.1157489839
H       3.3442498510      2.4171273802     -0.7774939156     -0.0379987907      0.2177430797      0.1278765642      0.0495563641
C       1.0416904256     -1.8048071985     -3.9518498006     -0.5485466267      2.2012269864     -0.2320091049      0.9262441774
O       1.5748420444     -2.0213226707     -2.8588469223      0.8121119624     -0.4857697458      1.6090738029     -0.8296916890
O       0.7475445071     -2.4800234351     -4.9064810691     -0.4562708213     -1.1699123560     -1.5609475846     -0.7172458696
C       0.6261327806     -0.2029410014     -4.0715885301      0.3634464068     -1.4947438007      0.0631474315      1.2019058954
F       0.1343327698      0.2186629242     -5.2332538989     -0.3325715195      0.1421920876     -0.8910183332     -0.4491642871
F       1.6921395586      0.6064392363     -3.7813318363      0.8684135189      0.6557112581     -0.0023674865     -0.4971025062
F      -0.2990108189      0.1107055354     -3.1132456972     -0.7879733509      0.2862756494      0.6365358469     -0.4873033913
