38
Properties=species:S:1:pos:R:3:forces:R:3:charge:R:1 energy=-219.68614548960684 homo_lumo=2.782202332295533 dipole="-1.4914511837507025 1.1160804810959224 -0.10398954365907732" free_energy=-219.68614548960684
N       2.0346692872     -0.5184440239      0.2218856151     -0.2435804133     -0.3569718036     -0.2020564569     -0.5025341070
N       3.3845513822      1.1541646045      0.3352773592      0.2678803635      0.5647772362     -0.0649750837     -0.5303175058
C      -0.1029588168     -1.7430506130      0.1736060702      0.2403741022      0.6438906280     -0.5131324297     -0.1616701099
C      -0.9112028328     -0.5280501760     -0.2936181035     -0.2622934828     -0.6363351156      0.5436893778     -0.1720579128
C       1.3403710518     -1.6833133729     -0.3170344646     -0.5272599787     -0.1998374536      0.3263782315     -0.0032892884
C      -2.3585777915     -0.5989433823      0.2019370938      0.3556284300      0.6961051517     -0.5189474625     -0.1535181550
C      -3.1638572062      0.6198110253     -0.2595977126     -0.3104070817     -0.5354710195      0.4293675977     -0.1969994848
C       2.6900206393      0.3860066188     -0.5017928355     -0.1645100472      0.1147481792     -0.1377924785      0.5792387202
C       2.3534083579     -0.3538768591      1.5435179833     -0.1732012846      0.0205161039      0.1754412595      0.2329549144
C      -4.6078178781      0.5528877936      0.2345885049      0.3773028594      0.1944144098     -0.2423810720     -0.0441484370
C       3.2053995044      0.7008115606      1.6149904375     -0.1060659198      0.1211463619      0.2042740709      0.2537704944
C       4.4334848336      2.0789337923     -0.0569586180      0.0355903679      0.0260548148      0.0441305944      0.1112215946
H      -0.1179317611     -1.8001467522      1.2659997520     -0.0466017672     -0.0934176990      0.3055767225      0.0985139870
H      -0.5530701532     -2.6602090281     -0.2162950515     -0.1017158640     -0.2954006173     -0.0375529830      0.0922548679
H      -0.8992452948     -0.4824317638     -1.3880873348      0.0109309047      0.0422841861     -0.3149505197      0.0771734471
H      -0.4396234881      0.3867199192      0.0827918490      0.0913793150      0.2592855723      0.0639042494      0.1101029113
H       1.3853585687     -1.6208226660     -1.4066707650      0.0184157246      0.0237813587     -0.1655365503      0.0995673111
H       1.9124528239     -2.5575521906      0.0124205562      0.2767889548     -0.0725289401     -0.0399793706      0.1528159988
H      -2.8281828582     -1.5129027314     -0.1770134080     -0.1502386748     -0.2698097937     -0.0559483600      0.0834913179
H      -2.3656578881     -0.6493113341      1.2961743501     -0.0330143423     -0.0508812939      0.3080498715      0.0827547224
H      -2.6910355433      1.5326670261      0.1188759620      0.1636499632      0.2395053478      0.0433849625      0.0790641788
H      -3.1550628052      0.6682754471     -1.3537746604      0.0615530315      0.0524193931     -0.2874890590      0.0801400106
H       2.6740086492      0.4698434303     -1.5744753327      0.0393485410     -0.0071658287     -0.1671484167      0.0889625877
H       1.9888911536     -1.0185301942      2.3052750391     -0.0398492267     -0.1566899888      0.1595015027      0.0389300233
H       3.7246852629      1.1379469237      2.4484699640      0.1499574803      0.0477822608      0.1818606163      0.0324340841
H      -4.6379456066      0.5244786881      1.3246459987     -0.0637035440     -0.0165835054      0.3420011947      0.0280144961
H      -5.1602180101      1.4289581287     -0.1055653658     -0.2932107777      0.2311609504     -0.0402284414      0.0310120258
H      -5.1020567718     -0.3404371567     -0.1494515342     -0.1980670301     -0.2657543578     -0.0849935318      0.0285290291
H       5.3854302441      1.5559861587      0.0712796585      0.1616857375     -0.1711028871      0.0316524059      0.1071202568
H       4.2975156517      2.3551043093     -1.1005532875     -0.0561331911      0.1027554422     -0.2105904789      0.0452448390
H       4.3987479302      2.9627055748      0.5782540071     -0.0974865560      0.2478101473      0.1177701078      0.0547821486
C       4.8696485691     -1.4838755986      0.4274661805      0.2668233360     -0.0651478630     -1.9813927115      0.9119962526
O       5.4812251335     -0.5660104081      0.9606382848      1.2072506102      1.1496254940      0.9452811669     -0.7822339048
O       4.0663885408     -2.3101860225      0.8420940349     -0.9220676573     -1.4991341573      0.7145488643     -0.7843144161
C       5.0560387920     -1.5204058282     -1.2032657496     -0.4281512778      0.2709418030      1.4554849091      1.2519162356
F       5.9287189181     -2.4106847178     -1.6811137488      0.7556260286     -0.7791869946     -0.1927174116     -0.4541103912
F       5.4254049369     -0.3047131204     -1.6778012967      0.4466722009      0.8672811300     -0.4781607315     -0.4794582551
F       3.8597529115     -1.7809588427     -1.8077319447     -0.7092998341     -0.4448666523     -0.6563241560     -0.4873544872
