38
Properties=species:S:1:pos:R:3:forces:R:3:charge:R:1 energy=-219.6907787190134 homo_lumo=2.7817456724462697 dipole="-0.8227810934449585 1.5809758488646257 -0.5455226778770467" free_energy=-219.6907787190134
N       0.6464843377     -1.6030025403      0.9199684720     -0.3797012681     -0.2467235691     -0.1882141888     -0.5031253455
N       2.5914786900     -0.6831378730      0.9701221968      0.5038251164      0.3736704180     -0.1312788819     -0.5285524516
C      -1.8037967816     -1.7854577017      0.7194657880      0.5505125511      0.3491235609     -0.5468075996     -0.1612148373
C      -1.9415080252     -0.4851861739     -0.0783957781     -0.5680629274     -0.3209313825      0.5776177512     -0.1722249444
C      -0.4535646019     -2.4544153962      0.4796024488     -0.5875218870      0.1028559631      0.2658586707     -0.0047740971
C      -3.2988120851      0.1796250089      0.1709405612      0.6669441165      0.3415472530     -0.5601226189     -0.1536717499
C      -3.4399951518      1.4735910387     -0.6367784394     -0.5408138748     -0.2423094272      0.4589184432     -0.1968970990
C       1.6913318843     -1.2551204914      0.1728023894     -0.0794418892      0.1274631406     -0.1753596145      0.5778422471
C       0.9024164335     -1.2862176955      2.2271594314     -0.1443411597      0.1461326369      0.1498210179      0.2321847156
C      -4.7895810747      2.1433100110     -0.3841793787      0.4335747914     -0.0412403896     -0.1959720582     -0.0443568258
C       2.1298028656     -0.7059107469      2.2586954017     -0.0695259116      0.1814231340      0.1815590188      0.2535123777
C       3.9697891697     -0.4017929362      0.6087555283      0.0354733527      0.0302929530      0.0407510826      0.1105136688
H      -1.9278537822     -1.5806368094      1.7870032682     -0.1050994951      0.0096762442      0.2973719893      0.0984147868
H      -2.5852950381     -2.4897005058      0.4210397197     -0.2219527023     -0.2196748827     -0.0047412908      0.0921566865
H      -1.8283477753     -0.7000025340     -1.1467026834      0.0523145628     -0.0409773525     -0.2980620778      0.0775134050
H      -1.1388368338      0.2030541858      0.2095598694      0.1950824307      0.1999527094      0.0318968779      0.1099149863
H      -0.3011220170     -2.6710396426     -0.5801908332      0.0388146099     -0.0208442560     -0.1569332455      0.0997381011
H      -0.3630872527     -3.3870129955      1.0473078167      0.2151742715     -0.1848356001      0.0280665223      0.1539506615
H      -4.0997621090     -0.5141460988     -0.1059312738     -0.2520507209     -0.1827236693     -0.0285552505      0.0835285972
H      -3.4035101682      0.4011836471      1.2386086703     -0.0762090855      0.0411041657      0.2938937768      0.0827244392
H      -2.6339796643      2.1631389239     -0.3628089555      0.2507435605      0.1484074335      0.0240168348      0.0791271578
H      -3.3388075034      1.2488808804     -1.7039995505      0.0984565177     -0.0491250415     -0.2680645537      0.0799806587
H       1.8004439013     -1.4280188760     -0.8837498677      0.0278029434     -0.0652758618     -0.1484163829      0.0888840461
H       0.2199650125     -1.5333174626      3.0195684139     -0.1217957492     -0.0932226821      0.1750154113      0.0393367914
H       2.7233921950     -0.3494739984      3.0809550950      0.1440479273      0.0264848291      0.1903523664      0.0331733722
H      -4.8996957626      2.3954653192      0.6714314816     -0.0877850261      0.0927413619      0.3168176617      0.0281265316
H      -4.8677971019      3.0592035866     -0.9702173672     -0.1533291940      0.3147656226     -0.1315204412      0.0311088161
H      -5.6056058233      1.4777371383     -0.6687762831     -0.2898402843     -0.1664991289     -0.0640649801      0.0286910122
H       4.5764005288     -1.2249943202      0.9958772492      0.0631978050     -0.2218044762      0.0851899327      0.1061770377
H       4.0540581263     -0.3542072415     -0.4748414774      0.0197407851      0.0673298794     -0.2257401088      0.0460123153
H       4.2805886572      0.5404168058      1.0577354899      0.0100195022      0.2864735093      0.0499354969      0.0558489252
C       2.7228229255     -3.5962855637      1.7664730175      0.2847927543     -0.6539685803     -1.8948458503      0.9126795205
O       1.6102085970     -3.8759446093      2.1939069483     -1.5376112919     -0.7409132103      0.8480600764     -0.7823066988
O       3.6562613577     -2.9427776066      2.2152470167      1.5642432097      0.7189424393      0.8807491392     -0.7830893602
C       2.9601873827     -4.0716370245      0.2108825702     -0.3650444831      0.7190081873      1.2982888786      1.2505717494
F       3.5239420053     -5.2691839504      0.0353976186      0.4739097341     -0.9846147427      0.0526758921     -0.4540221726
F       3.7366099826     -3.1686048705     -0.4481214724      0.7578402173      0.4762362938     -0.6287968235     -0.4834433512
F       1.7849302633     -4.0838608160     -0.4750207393     -0.8063838095     -0.2779474824     -0.5993608737     -0.4840336731
