38
Properties=species:S:1:pos:R:3:forces:R:3:charge:R:1 energy=-219.69008378758164 homo_lumo=2.766257173726295 dipole="-1.7120227540680286 0.6448940631550122 -0.38046431031828787" free_energy=-219.69008378758164
N       2.3393468613      0.7836860085      0.6075851778     -0.1342302718     -0.4271343019     -0.2052855921     -0.5032519100
N       3.1662885272      2.7702453334      0.6443885856      0.1096947049      0.6173020892     -0.1317876518     -0.5291400168
C       0.6356424547     -0.9952111860      0.5079832534      0.1277267416      0.6475074642     -0.5495415001     -0.1623050995
C      -0.4061711459     -0.0987917813     -0.1690909356     -0.1449679791     -0.6356266435      0.5728459059     -0.1721607664
C       2.0590325252     -0.5746345962      0.1532579638     -0.4945994523     -0.3297716376      0.3011389916     -0.0038633568
C      -1.8303903386     -0.5304766014      0.1926059851      0.2101008916      0.7188118317     -0.5526498738     -0.1537389756
C      -2.8714888321      0.3630145985     -0.4891576454     -0.1993632962     -0.5614827776      0.4490490583     -0.1971295376
C       2.8226696184      1.7618033514     -0.1546236086     -0.1747208938      0.0330553885     -0.1351145114      0.5784560809
C       2.4141343982      1.1584808281      1.9220023090     -0.1704977958     -0.0142146520      0.1842319340      0.2324134827
C      -4.2934664402     -0.0698869931     -0.1364795320      0.3327542893      0.2759041764     -0.2092422683     -0.0442303023
C       2.9376195384      2.4113565207      1.9452274910     -0.1470092854      0.0786649880      0.1924978664      0.2541706532
C       3.9711542280      3.9122883061      0.2477687600      0.0135651171      0.0327818949      0.0403986347      0.1111716470
H       0.5026452265     -0.9638973659      1.5933590738     -0.0581088300     -0.0752850949      0.3055789580      0.0982950181
H       0.5011283148     -2.0306337469      0.1831643628     -0.0165935281     -0.3075037490     -0.0050405329      0.0926998705
H      -0.2732629433     -0.1434297888     -1.2556114115      0.0375368053      0.0155585329     -0.3062186859      0.0774432768
H      -0.2481571789      0.9396521639      0.1432325153      0.0120669298      0.2745837079      0.0367141515      0.1102145804
H       2.2220250321     -0.6029959808     -0.9264173605      0.0315539975      0.0160076190     -0.1642879284      0.0993287470
H       2.8001318173     -1.2173407257      0.6412750856      0.2813225088      0.0099647377     -0.0055603034      0.1543643255
H      -1.9839218523     -1.5707810467     -0.1135511025     -0.0662217944     -0.2994895805     -0.0348150052      0.0835728097
H      -1.9600471403     -0.4797860851      1.2791475607     -0.0565249153     -0.0313946865      0.3005413243      0.0826770253
H      -2.7189403447      1.4020938990     -0.1774203328      0.0888921890      0.2749027027      0.0272124474      0.0789596124
H      -2.7353290326      0.3166539595     -1.5749820929      0.0807507685      0.0414268860     -0.2763822315      0.0802630036
H       2.9387554208      1.7330441133     -1.2240859093      0.0504065853     -0.0254083013     -0.1548810329      0.0892818527
H       2.1365482904      0.4959487334      2.7214592194     -0.0145884758     -0.1459175345      0.1720816290      0.0398422641
H       3.1992075032      3.0544781609      2.7659465666      0.1054608727      0.1102644936      0.1861883828      0.0329823430
H      -4.4527806965     -0.0177732729      0.9414469084     -0.0992813049     -0.0040766032      0.3261846065      0.0283349159
H      -5.0154047902      0.5837173948     -0.6263925576     -0.3362778049      0.1334432982     -0.0952890305      0.0311616820
H      -4.4733617485     -1.0944780346     -0.4646337308     -0.1067470768     -0.3138117653     -0.0697842084      0.0284152444
H       5.0042076002      3.6872774754      0.5264424141      0.2044910041     -0.1191916473      0.0715170013      0.1064666310
H       3.8967725527      4.0483347440     -0.8291100436     -0.0583568974      0.0699204172     -0.2215033204      0.0457367789
H       3.6241180034      4.8026372671      0.7699192004     -0.1735692752      0.2149083692      0.0745189206      0.0553159685
C       5.2723876618      0.6669869157      1.2012507401      0.4872049163     -0.2285140875     -1.9553130668      0.9119851769
O       4.6771989597     -0.3033309697      1.6516587411     -0.5776050029     -1.6030566858      0.8558896243     -0.7826287099
O       5.5628039547      1.7644451021      1.6599810007      0.7450630450      1.5635739692      0.8658457522     -0.7828356912
C       5.6320401094      0.5228483727     -0.3971544702     -0.6223854081      0.2433734644      1.3699458828      1.2496296317
F       4.7133497709     -0.2546819419     -1.0317990725     -0.4639654851     -0.7258467370     -0.5905799564     -0.4839917258
F       6.8339163264      0.0210375160     -0.6913213892      1.0075158205     -0.4160080161     -0.0582671212     -0.4538602130
F       5.5473944595      1.7330510230     -1.0150076998      0.1895075859      0.8917784705     -0.6108372499     -0.4840463174
