50
Properties=species:S:1:pos:R:3:forces:R:3:charge:R:1 energy=-276.55014765442974 homo_lumo=3.7927830849331636 dipole="2.473188578994931 1.7446991619782632 -1.6099105595244507" free_energy=-276.55014765442974
N      -2.1185476246     -1.4080658484      0.2259698867      0.0031109730      0.0001827443     -0.0053260404     -0.4982937153
N      -0.3879033995     -1.4940267301      1.5328996514      0.0018068955     -0.0041916329     -0.0029461166     -0.5116218765
C      -3.4466889786     -1.0635974288     -0.2976261251     -0.0016349318     -0.0097895062      0.0006712740     -0.0658935986
C      -3.3661890876      0.0100129258     -1.3773897274     -0.0077373911     -0.0125055751     -0.0145821695     -0.2149001501
C      -1.6390100485     -1.0294119578      1.4146528719      0.0018782236     -0.0078515414     -0.0016370845      0.6008519028
C      -1.1552949594     -2.1413535722     -0.4302697108     -0.0028534302      0.0146738156     -0.0016368365      0.2215333122
C       0.4488824014     -1.3921989940      2.7375552847     -0.0108915373     -0.0092886542      0.0046520167     -0.0748357788
C      -0.0676659381     -2.1989054031      0.3914816082      0.0036407765      0.0089654874      0.0017913552      0.2126526838
C      -2.7645478630      1.3200336756     -0.8794437998      0.0055253964      0.0138128433      0.0028842132     -0.0928354291
C       1.7585771989     -0.6768932830      2.4587618887      0.0065955766      0.0045858287     -0.0032285131     -0.0817155989
H      -4.0388334062     -0.7347008472      0.5636878321     -0.0019766424     -0.0012338850      0.0069470268      0.1937153572
H      -3.9022919647     -1.9966762595     -0.6570855139      0.0009244035      0.0049695253     -0.0099946961      0.1457412848
H      -2.7934986917     -0.3712070974     -2.2416366903     -0.0001188444      0.0015576216      0.0095813548      0.0936705718
H      -4.3972793636      0.1733275479     -1.7343744030      0.0098807354     -0.0006628241      0.0059236353      0.1164169918
H      -2.2065491723     -0.5165568530      2.1809674002     -0.0055304889     -0.0149323744      0.0097558639      0.1215813420
H      -1.3341659789     -2.5761429268     -1.4055719690      0.0081743766      0.0038800094     -0.0045770161      0.0516269501
H      -0.1506523494     -0.8620483715      3.4885447053      0.0045879108      0.0013090364      0.0048661717      0.1331116649
H       0.5963855981     -2.4171053023      3.1102717766     -0.0006505722     -0.0037650021      0.0043320429      0.1527424859
H       0.8822402720     -2.7044138806      0.2756006677      0.0062988243      0.0039479503     -0.0067523645      0.0551683695
H      -1.7299975735      1.1796220093     -0.5274647282     -0.0000704563     -0.0043812752     -0.0015595419      0.0582538445
H      -3.3576345887      1.7354277711     -0.0489044317      0.0067155267     -0.0090232726      0.0050696600      0.0470701344
H      -2.7395853075      2.0720857452     -1.6824128421     -0.0019629363     -0.0150138690      0.0066925471      0.0589290762
H       2.3673651797     -1.2134533463      1.7164494796     -0.0008560555      0.0012390142      0.0009184752      0.0553329616
H       2.3431239974     -0.6163026276      3.3880190391     -0.0094576904     -0.0005524987     -0.0019036051      0.0716524630
H       1.5786289473      0.3444030764      2.0925263858     -0.0016173788     -0.0033445916     -0.0026459403      0.0614833430
P      -4.5580102237     -3.3706819520      2.9926409965     -0.0003740788     -0.0052918023      0.0134321317      1.7537313711
F      -4.1622671605     -1.7179896109      2.8888396540     -0.0007199416     -0.0092798754      0.0002837939     -0.5483708258
F      -4.8328744782     -3.2828051955      4.6221597087     -0.0023496925     -0.0048742899     -0.0013707271     -0.5042370813
F      -4.2485739516     -3.4687752483      1.3443066932     -0.0028891669     -0.0025551451     -0.0227228394     -0.5286478740
C      -6.4123218135     -2.7308410158      2.7425259412      0.0060737995      0.0095702510     -0.0009072423      0.5189412767
C      -2.5825354652     -3.6363094945      3.4540738233     -0.0054611731     -0.0035104658     -0.0008773401      0.4896168561
C      -4.8552632650     -5.3629868339      2.9431210078      0.0075388473     -0.0061411000      0.0069694571      0.5262637546
C      -6.8813690181     -2.1380987482      1.3772049753     -0.0169239595      0.0159059130      0.0011720874      1.3659630718
C      -2.0067950417     -4.6517210617      4.5056174787     -0.0017904860      0.0027797710      0.0016017578      1.3798455743
C      -6.0593856903     -6.1311425795      2.2931115874     -0.0121726671      0.0043864807      0.0122153396      1.3885670218
F      -6.6479824549     -1.7111455732      3.6410502570     -0.0085776908     -0.0051649946     -0.0041525518     -0.4368473119
F      -7.3135257395     -3.7236158464      3.0460893486     -0.0013320228      0.0030812531     -0.0028913073     -0.4492227976
F      -2.1377693413     -2.4256979767      3.9915631559     -0.0014191107     -0.0064480819     -0.0035182111     -0.4653128006
F      -1.8268578453     -3.8486317042      2.3106905581      0.0028060741      0.0112593223      0.0057354699     -0.4603202770
F      -4.7703837293     -5.8695385817      4.2202090103      0.0106111180     -0.0033917728     -0.0130698966     -0.4424722442
F      -3.7650757112     -5.8383558848      2.2318881023      0.0005690595     -0.0122680326     -0.0024522511     -0.4477890639
F      -8.2076368557     -1.8455138285      1.4430530550     -0.0029261751     -0.0050124707      0.0021132409     -0.4450804789
F      -6.6988700882     -2.9743318615      0.3311731096     -0.0122233088      0.0123242380     -0.0001632107     -0.4496763269
F      -6.2302059589     -0.9711947950      1.0971454533     -0.0015398501      0.0017354929      0.0026912757     -0.4714731722
F      -0.6803152773     -4.3326111291      4.7126667121      0.0067465149     -0.0014491632      0.0078912319     -0.4694417537
F      -2.6345481397     -4.5484846717      5.6922741720      0.0101942170      0.0060269838     -0.0049281463     -0.4344549844
F      -2.0235427492     -5.9341835451      4.1004603820      0.0001785813      0.0033304598      0.0093147402     -0.4388233121
F      -7.1168978496     -6.2299535074      3.1268829776      0.0038485923      0.0121476069     -0.0104204813     -0.4414251913
F      -5.6685958195     -7.4066051226      2.0064121739      0.0061329031      0.0102610588     -0.0030535286     -0.4492889689
F      -6.4519583674     -5.5585403804      1.1310309473      0.0022183532      0.0099909885     -0.0001885046     -0.4514830542
