32
Properties=species:S:1:pos:R:3:forces:R:3:charge:R:1 energy=-170.6541465364589 homo_lumo=4.574440433543774 dipole="0.500986637383054 -3.282921606254419 0.5668270612902255" free_energy=-170.6541465364589
N      -0.0313161428      0.2837359370     -0.2297943831     -0.0064477204      0.0096298760     -0.0016715198     -0.6083232049
C      -0.3775023152     -0.8585776919      0.6718232547     -0.0029579519     -0.0002851578      0.0051517868      0.0766145711
C       0.7585200595      1.3049554051      0.5448963119     -0.0068851452      0.0011660638     -0.0090887245      0.0339239326
C      -1.2992988976      0.9036309475     -0.7550413567     -0.0004967106      0.0002475418      0.0018348723      0.0335595346
C       0.7926488684     -0.2134537860     -1.3784121594     -0.0079439068     -0.0001390259     -0.0028566071      0.0674527445
H       0.5493807649     -1.3123037495      1.0455087651     -0.0024375918     -0.0005074227     -0.0019860796      0.0884685873
H      -0.9736593392     -0.4727797226      1.5076022973     -0.0002930566      0.0011077546      0.0042311846      0.1045374126
H      -0.9581926196     -1.5955917892      0.1027223863     -0.0018276713     -0.0010848964      0.0043731414      0.0903396790
H       1.0587645507      2.1090528646     -0.1354487523     -0.0076083409      0.0048574620     -0.0089428607      0.1571382532
H       0.1172491864      1.7233237683      1.3301637646     -0.0026380414      0.0072404486     -0.0022132028      0.1283406191
H       1.6409274337      0.8063533733      0.9669231714      0.0012616467      0.0053739403     -0.0025944775      0.0693239041
H      -1.0473895371      1.7686312895     -1.3817185732     -0.0046729109      0.0019364638     -0.0017011328      0.1929566083
H      -1.8433977473      0.1362578043     -1.3203147912     -0.0114905277      0.0005723005      0.0020213305      0.0665974479
H      -1.8840385246      1.2715038903      0.0969243801     -0.0062710325      0.0042072661      0.0031427335      0.1210754555
H       1.0167893309      0.6342280372     -2.0352774568     -0.0087078646     -0.0043701772     -0.0049953344      0.1407041400
H       1.7216135079     -0.6463343988     -0.9853517157     -0.0064793042     -0.0043755315     -0.0027010538      0.0820154885
H       0.2178867743     -0.9729199947     -1.9232569032     -0.0074898400     -0.0078333893      0.0034458613      0.0824110939
N      -1.0733916034      4.0077995857     -1.0432198279      0.0058070094     -0.0063371476      0.0062457865     -0.8970229468
S      -0.7696434001      4.4504890516      0.4762254029     -0.0059915885      0.0166015200      0.0128701435      1.5986662520
S      -0.5590175922      4.7885509576     -2.3588827666      0.0288054902     -0.0026757676     -0.0132430502      1.6267124563
C      -1.6523430015      6.1041017637      0.8236943564      0.0011752723     -0.0165597759      0.0120275876      1.1815771991
C       1.2412336357      4.2523564407     -2.6215226447      0.0094964820     -0.0039596236      0.0025315293      1.1543714385
O      -1.4920757117      3.4833405009      1.3137669059      0.0003527222     -0.0030782297     -0.0071451639     -0.7764070473
O       0.6378789810      4.7134539476      0.7741968849     -0.0051345384      0.0057979370      0.0081537425     -0.7341877274
O      -0.4788015341      6.2357903709     -2.2363364721      0.0075420008     -0.0043588497     -0.0070128062     -0.7184737991
O      -1.2214210352      4.1515745576     -3.4894493863      0.0122058004     -0.0150178623      0.0001768047     -0.7297943130
F      -1.9058873083      6.1641304171      2.1552694947     -0.0088579818     -0.0016695428     -0.0152103376     -0.4358631286
F      -2.8230850585      6.1778453567      0.1555155779     -0.0093242863     -0.0017741007     -0.0062287504     -0.4313866323
F      -0.8779037577      7.1490370848      0.4889420678     -0.0136538696      0.0040961176     -0.0000199217     -0.4211614039
F       1.6000530282      4.5145623308     -3.8970898707      0.0317747392      0.0125426782      0.0170906282     -0.4311104671
F       1.3749896152      2.8874162920     -2.4320583370      0.0163543174      0.0087817978     -0.0105484550     -0.4868277199
F       2.1063450942      4.8609999459     -1.7924471512      0.0128344008     -0.0101326672      0.0148623452     -0.4262284277
