32
Properties=species:S:1:pos:R:3:forces:R:3:charge:R:1 energy=-184.90417149072098 homo_lumo=0.03651069982230909 dipole="4.702154516168846 0.6984963576717246 2.292944751696072" free_energy=-184.90417149072098
N      -0.6718221379     -0.8952903404      0.4157142115      0.3315761082      0.2702735959      0.6668572633     -0.5128505801
N       1.5213728295     -0.5410528633      0.3269959377     -0.0420398096      0.1004545039      0.6105613388     -0.5183770851
C      -2.0751812371     -0.7828220680      0.8095387662     -0.9547629578     -0.0001264531      0.0349064154     -0.0268072320
C      -2.8906759125     -0.0386939972     -0.2551784485      0.0158880157      0.2130582592     -0.1459579562     -0.2511853923
C       0.3766474595     -0.2659117962      0.9813160748     -0.2930261854      1.2917128403      1.6187352494      0.5261788465
C      -0.1727786999     -1.5973759602     -0.6220932900      0.8573354267     -0.7337362966     -1.3076864644      0.2346554730
C       2.8395857866      0.0267170652      0.5957265831      0.4822232266      0.4098147209      0.0537221490     -0.0650534607
C       1.1876931609     -1.3742105951     -0.6795329185     -0.7202948550     -1.0886358850     -1.3127770438      0.2214327439
C      -2.3903497592      1.3889951764     -0.4708770177      0.0372341768      0.0324588835     -0.0875334179     -0.1026445976
C       3.1444974508      1.1421226228     -0.3974117098      0.0193845899      0.1906764240     -0.1849829537     -0.1144201805
H      -2.1591062675     -0.2449761008      1.7797823420      0.3757692992     -0.2087347225     -0.2961624030      0.1101699786
H      -2.4973297314     -1.8007572175      0.9528201791      0.3118654013      0.1896474227     -0.0168529948      0.1374864717
H      -2.8512265514     -0.5922851503     -1.2181607450     -0.2825686409      0.0807260490      0.3066454647      0.1543554595
H      -3.9508249434      0.0018292061      0.0744232230      0.2100357097     -0.3058329117     -0.2407566681      0.1544746858
H       0.3023358925      0.4080893647      1.8259209149     -0.0090883892     -0.0500773278      0.0039296292      0.0833119962
H      -0.7559852423     -2.2072721803     -1.2997540312     -0.2379090682     -0.0057487153      0.0837512958      0.0675382571
H       2.8710973825      0.4430167631      1.6264204312     -0.2285350276     -0.3786944478     -0.2523441816      0.1229064226
H       3.6125800650     -0.7683946894      0.5211390860     -0.4144763168      0.0514486887      0.1026867529      0.1264805414
H       1.8770854086     -1.7742297030     -1.4117453898      0.1934052648      0.0386809990      0.0856888645      0.0518867217
H      -1.3628248667      1.3817961433     -0.8920643243     -0.2070113275      0.1370278985      0.1122523858      0.0446973603
H      -2.3898227899      1.9490945497      0.4882247384      0.0342317919     -0.0377950488     -0.2602231810      0.0245367069
H      -3.0574704317      1.9117672558     -1.1878384817      0.2404268237     -0.1531426109      0.2191589859      0.0945716779
H       3.1391653468      0.7464554437     -1.4348994977      0.0242386014      0.2133734459      0.2742415721      0.0765317603
H       4.1444775750      1.5729283278     -0.1819127536     -0.2936104042     -0.1172136829     -0.1023624497      0.0728698229
H       2.3818610313      1.9452888794     -0.3107810678      0.2583985863     -0.2160452116     -0.0980616763      0.0805558385
C      -5.9023715652     -1.2708903991     -2.9742920503     -0.5384487139     -0.4621438092      0.7299624600      0.8568163165
O      -5.7697554448     -0.6015769168     -1.9618909869      1.6149997272      3.1117758100      2.3285441184     -0.7701661725
O      -6.6057095195     -2.2683462180     -2.9493603051     -1.4444976899     -2.9346012515     -1.7264243141     -0.7228301308
C      -5.2154465548     -0.8715444494     -4.2477164967     -0.1838235611      0.0639987123     -0.0644094230      1.2342440301
F      -4.4353195750     -1.9186679939     -4.7027941224      0.0246739212      0.6832125093     -0.3483232544     -0.4650849029
F      -4.4075120081      0.2334338886     -4.0412760615     -0.0449608930     -0.4249662136     -0.7688245165     -0.4694970224
F      -6.1636275381     -0.5631475255     -5.2056578931      0.8633671695      0.0391538252     -0.0179610466     -0.4567843548
