37
Properties=species:S:1:pos:R:3:forces:R:3:charge:R:1 energy=-198.33518157040396 homo_lumo=3.338831649614883 dipole="-1.3139177173313605 -0.22511115855704966 1.9693894712795221" free_energy=-198.33518157040396
N      -1.0303412727      0.0462210656      0.1674282981     -0.0006869715      0.0014062928      0.0028880997     -0.4837221658
C      -1.3467433727     -0.9038557803     -0.9786365065      0.0089986634      0.0011626800      0.0027280596     -0.0270001599
C      -2.2839051193      0.0022170660      1.0091311590     -0.0034349075     -0.0086555697      0.0126475987      0.0172336481
C       0.1605823856     -0.4358559381      0.9620445281     -0.0114441356     -0.0046353086      0.0161536902      0.0011364648
C      -2.8138835940     -0.6397541337     -1.2964587528      0.0063196978      0.0017693578     -0.0133853896     -0.1413642312
C      -3.4427465439     -0.0916063742      0.0128327406     -0.0058221455      0.0008227244     -0.0044459827     -0.1552583848
C      -0.8178798656      1.4480569730     -0.3988937307     -0.0056101544      0.0009577674     -0.0001183266     -0.1031583193
C       1.4386375166     -0.5435624921      0.1586856831      0.0067130077      0.0014303914     -0.0137219329     -0.2289262074
C      -0.3227083795      2.4549885212      0.6165191313      0.0049205018      0.0005830483      0.0014871185     -0.1020477063
C       2.6102229334     -0.9472797350      1.0515614326      0.0057478723      0.0024311181      0.0141188466     -0.1550252542
C       3.8791451696     -1.2346314820      0.2428870268      0.0059503880      0.0028923783     -0.0090050169     -0.1924831050
C       4.3797776261     -0.0292658730     -0.5516423940     -0.0104567981      0.0043028469     -0.0039874437     -0.0877380443
H      -0.6357967541     -0.6854418911     -1.8137542240      0.0054654816     -0.0061070736      0.0093172796      0.1912701046
H      -1.1919567179     -1.9171684999     -0.5767826748     -0.0010805613     -0.0076515344      0.0043423651      0.0982507794
H      -2.2124041577     -0.9029247174      1.6299800577      0.0004565455     -0.0090584355     -0.0058006614      0.1146791021
H      -2.3129169098      0.8814834013      1.6654305281      0.0032827000     -0.0108210352      0.0065374131      0.1269568950
H       0.2716683735      0.2520787396      1.8152170261     -0.0042158137     -0.0057635019      0.0002741006      0.1317629896
H      -0.1352414023     -1.4204619415      1.3617031522      0.0021109896      0.0094856299      0.0065289510      0.1055166463
H      -2.8989180411      0.0912224044     -2.1142143738      0.0100734377      0.0034726937     -0.0064212407      0.0973716466
H      -3.3008210265     -1.5651453219     -1.6345201221     -0.0014470631      0.0077140269     -0.0137169167      0.0949185734
H      -4.2222684217     -0.7569008550      0.4120316719     -0.0063816072      0.0071816118     -0.0046377525      0.0941913841
H      -3.9079613656      0.8913457969     -0.1509472665     -0.0011731393      0.0050826019     -0.0000219529      0.0817632599
H      -1.7950238139      1.7480301592     -0.8038330950     -0.0045717824     -0.0060296719      0.0055375780      0.1463741311
H      -0.1210447181      1.3233093388     -1.2648812184     -0.0139042961     -0.0065477221     -0.0058686308      0.2025050497
H       1.6512302261      0.4002296389     -0.3652487760      0.0001201150     -0.0058449867      0.0076174958      0.1798680594
H       1.3161077952     -1.2751969210     -0.6570720905     -0.0008625389      0.0119510476      0.0059962327      0.1370099347
H      -0.9437689181      2.5148036833      1.5251326263      0.0136944476      0.0127065712     -0.0081895326      0.0239951332
H       0.7203401130      2.2683068221      0.9094404385      0.0014093524     -0.0039440343     -0.0020706295      0.0605801324
H      -0.3497444004      3.4458472465      0.1378217661      0.0100294708     -0.0025945650     -0.0085800264      0.0763128666
H       2.3433671813     -1.8460191484      1.6393127417      0.0048849259     -0.0013075389      0.0065457032      0.0643020067
H       2.8168142350     -0.1397430391      1.7808701538      0.0027205084     -0.0161579080      0.0080216881      0.0693481499
H       4.6658336900     -1.5846106743      0.9343251387      0.0060714431      0.0063539540      0.0026376500      0.0725258712
H       3.6746653136     -2.0691527167     -0.4524247422      0.0053911622     -0.0029427146      0.0112261499      0.0861698363
H       3.6677446945      0.2592167923     -1.3421267890     -0.0045339389     -0.0038134941      0.0002053710      0.0821945008
H       4.5358729082      0.8376114910      0.1132771463     -0.0054367390      0.0043123696     -0.0128125544      0.0177582179
H       5.3422753856     -0.2551669321     -1.0361154650     -0.0073127768      0.0033853939     -0.0093946716      0.0404960141
Cl      0.9062946314      0.4121429169     -3.0082084608     -0.0159853417      0.0124705888     -0.0026327297     -0.7377678196
