40
Properties=species:S:1:pos:R:3:forces:R:3:charge:R:1 energy=-214.21118736774574 homo_lumo=6.252518194701711 dipole="-1.8498293001861434 0.379832196115917 -2.459038369749182" free_energy=-214.21118736774574
N      -0.0044288757      0.2302824593     -0.0158342635     -0.0592883902      0.2258659378     -0.2566059782     -0.4962467015
C      -1.3069835811     -0.2455958426     -0.5800035687     -0.3898371961     -0.2625431024      0.1027367389      0.0160779927
C      -0.4171386696      0.8958524265      1.2662133214     -0.2675594894      0.0234364504      0.4803536577     -0.0197624357
C      -2.1109201412     -0.7329128686      0.6241115969      0.0432034452      0.0363635956     -0.1406740013     -0.1456025663
C      -1.5260883697      0.0161604640      1.8318512478      0.0449794601      0.0314393670     -0.0697488094     -0.1360002428
C       0.6394169978      1.2104460460     -0.9480879898      0.6303900959      0.1791966783      0.1794879130     -0.0084224126
C       0.9001622969     -0.9304966673      0.2962154466      0.3342791067     -0.3297519183     -0.5513195092     -0.1010366316
C       1.9551911449      1.7856313573     -0.4241673460     -0.3471709342      0.1072937800     -0.5124580080     -0.2548650785
C       1.4437418866     -1.6822166341     -0.9149492884     -0.1045149993      0.0294824514      0.4247945485     -0.2514149477
C       2.4792891153      2.8372160995     -1.3994543321     -0.1648805730     -0.3127704865      0.2473127325     -0.0441913711
C       2.2402843792     -2.8889501204     -0.4139328584     -0.1477536226      0.2998557327     -0.2243381826     -0.0505564937
H      -1.7941351266      0.6094876619     -1.0550585275     -0.0201831622      0.2463773310     -0.1071108337      0.1108794632
H      -1.1282943644     -1.0165213278     -1.3285180210      0.0874737421     -0.0966666456     -0.2207781352      0.1294865268
H       0.4413835032      0.9792144477      1.9293763488      0.2092194434      0.0317046289      0.0855199069      0.2230474460
H      -0.7903259476      1.8911791282      1.0131149942     -0.0826358851      0.2163852514     -0.2093699263      0.0971475335
H      -3.1693675651     -0.5085102357      0.4816585233     -0.2645778555     -0.0403372958     -0.0894939866      0.0896838380
H      -2.0063536866     -1.8125552754      0.7472814914     -0.0467256125     -0.2583151183      0.0180584928      0.0833164832
H      -1.1190901128     -0.6814592041      2.5654244988      0.0849751233     -0.0482297930      0.1913698218      0.1290662398
H      -2.2789250932      0.6325410043      2.3255846985     -0.1319831208      0.1411146430      0.1755212724      0.0842029092
H       0.7921640833      0.6994153409     -1.9020656483     -0.0028140890     -0.1298195229     -0.2293099353      0.1345718807
H      -0.0830452144      2.0172672625     -1.1039227550     -0.2205053936      0.1252963473     -0.0120039886      0.1168100564
H       1.7289199930     -0.5350923847      0.8795550425      0.0052605223      0.0332555673      0.1193884532      0.2834732948
H       0.3345613952     -1.6084952674      0.9364762281     -0.0804554002     -0.0645715429      0.1925071552      0.1836779594
H       1.8019963419      2.2404239372      0.5559448273      0.0133189350      0.0234919214      0.2352505910      0.1494007522
H       2.6998240169      0.9957809205     -0.3123817248      0.1546922820     -0.1879862998      0.1432190658      0.1383435947
H       2.1046739512     -1.0368860065     -1.5000790273      0.1467803989      0.1785798723     -0.1798980500      0.0972548044
H       0.6357939963     -2.0238955099     -1.5694779537     -0.1800274416     -0.0849945738     -0.2374649887      0.0799810877
H       2.6581012728      2.3974934450     -2.3816774051      0.0901138443     -0.0599892379     -0.3391211101      0.0285053438
H       1.7648580108      3.6545429849     -1.5071292884     -0.1672915156      0.2964587730     -0.0803563390      0.0254320947
H       3.4178414060      3.2428204554     -1.0240136738      0.2798072584      0.1663720553      0.0460084869      0.0559748546
H       3.0159041987     -2.5655287882      0.2796700725      0.1912695950      0.0143216768      0.2146780171      0.0918935317
H       1.5833215328     -3.5901736999      0.1009716706     -0.1321279378     -0.2401950900      0.1837655876      0.0305208920
H       2.7075126867     -3.3979683455     -1.2562909108      0.1347699162     -0.2161181320     -0.2262913105      0.0302851964
P       2.6436742523     -0.3433392712      3.4856711953     -0.2273141888      0.0040726970     -0.1185486134      2.1934477022
F       1.0661311353     -0.8322679949      3.1291291789      0.1041080599     -0.0608821766      0.2520244023     -0.5401927123
F       3.1698865046     -1.3452522601      2.2662230041      0.1425621390     -0.0818067287     -0.0292955223     -0.5265314738
F       2.4563527665      0.8734500100      2.3177232089      0.1171152809      0.0201106409      0.1366324579     -0.5412266517
F       4.1634547805      0.1587054748      3.7548740290      0.2670348251      0.0886646382      0.0402288138     -0.4927396306
F       2.0477073699      0.6792757073      4.6084246204     -0.0816787603      0.1684652985      0.1812591148     -0.5012124855
F       2.7739058969     -1.5478931388      4.5644698805      0.0379720941     -0.2126276710      0.1840699983     -0.4924796426
