46
Properties=species:S:1:pos:R:3:forces:R:3:charge:R:1 energy=-247.25014049037867 homo_lumo=6.136487249611919 dipole="3.39062477661161 0.20826469072067913 0.6418265973956162" free_energy=-247.25014049037867
N      -2.2997260087      0.1196691096      0.6285100979      0.0340214552      0.1900416950     -0.0267361532     -0.5025956841
C      -2.7482234521     -0.8852628670     -0.3942544171     -0.0599284340     -0.4752959034     -0.1818258333     -0.0084945532
C      -3.2363879042     -0.1435206773      1.7732840905     -0.2542593933     -0.2458152077      0.3842639389     -0.0177130326
C      -0.8946476203     -0.1579615898      1.0743561880      0.4154804672      0.1318182192     -0.4457028224     -0.0148903166
C      -3.0924735156     -2.1441685570      0.3955083991      0.1064108905      0.0460689103     -0.0731143040     -0.1487682093
C      -3.3938662840     -1.6602845381      1.8215473593      0.0872381623      0.0880919595      0.0827264064     -0.1325100476
C      -2.4634810595      1.5071094247      0.0866393485      0.1153636737      0.5916466524      0.2225728642     -0.0757470047
C       0.1825010616      0.1356077452      0.0312657471     -0.0626318082     -0.2790966657      0.6414387011     -0.2105703861
C      -2.1088997557      2.5994208427      1.0828493672      0.0148313154     -0.4354702515     -0.2552025396     -0.0778798450
C       1.5375453456     -0.3677321297      0.5438482693     -0.1858035774      0.3610759087     -0.6871799527     -0.1515643828
C       2.6499114446     -0.0748431197     -0.4675785544      0.1149829008     -0.3961374040      0.7927568680     -0.1577105921
C       4.0056394572     -0.5761799733      0.0401323054     -0.0801147427      0.3296004221     -0.6478145101     -0.1989844126
C       5.1173836368     -0.2852248506     -0.9662049695     -0.1984854547     -0.1586827020      0.4078978958     -0.0464886352
H      -1.9671065608     -1.0324164131     -1.1389622195      0.2148605971      0.0594881781     -0.1570859763      0.1001090116
H      -3.6405274589     -0.4810705373     -0.8741416230     -0.1839580702      0.1211207910     -0.0107911789      0.2122608585
H      -4.1876848055      0.3331296967      1.5317386303     -0.1660527709      0.0558132105     -0.1331299215      0.2190514955
H      -2.8287590822      0.2801755947      2.6909994798      0.1617897226      0.1523192514      0.1691799929      0.0879355589
H      -0.8555871527     -1.2127161066      1.3549280243     -0.0603430492     -0.2185209772      0.0868585777      0.1728297181
H      -0.7127061198      0.4388264088      1.9714994122     -0.0221182677      0.1025345283      0.2104654467      0.1291244051
H      -2.2641492433     -2.8563303894      0.3882208746      0.1996818333     -0.2010928817     -0.0105525670      0.0583164212
H      -3.9652937572     -2.6212563258     -0.0518902469     -0.1525923874     -0.0765623047     -0.1357101868      0.1389647815
H      -4.4131406443     -1.9101284101      2.1176405698     -0.1902900872     -0.0025509609      0.0840262895      0.1359779241
H      -2.7036762967     -2.1055045473      2.5421530810      0.1573821709     -0.1154289262      0.1892617237      0.0597279450
H      -1.8445846492      1.5827476494     -0.8099350776      0.1307483947     -0.0639875238     -0.2113486042      0.1242565338
H      -3.5099716529      1.6055849406     -0.2056226695     -0.1722866757     -0.1483808250     -0.0732714756      0.2049368492
H      -0.0504031350     -0.3599892874     -0.9146522914     -0.0386179354     -0.1067892572     -0.2610888991      0.1132611795
H       0.2492210332      1.2101714915     -0.1569456467      0.0169714938      0.2718441246     -0.0892689195      0.1121624803
H      -2.3202899620      3.5588024266      0.6113964322     -0.0544665032      0.3016397397     -0.0919985498      0.0714474467
H      -2.7148655522      2.5216833397      1.9839374171     -0.2081905476      0.0538934348      0.2658928042      0.0614475370
H      -1.0556294628      2.5792767760      1.3593267527      0.3454919760      0.0722208893      0.1059351044      0.0346870961
H       1.4802653581     -1.4463451033      0.7246324528      0.0149035156     -0.2854910220      0.0908259556      0.0865256814
H       1.7692695974      0.1198487816      1.4967679676      0.0978457204      0.0833429956      0.2818288630      0.0864165256
H       2.7020569249      1.0042765008     -0.6478190659      0.0219028528      0.2897695060     -0.0997557510      0.0854588254
H       2.4121587412     -0.5614426555     -1.4195574557     -0.0555192977     -0.0956243999     -0.2889548360      0.0859905916
H       4.2392463961     -0.0895011382      0.9930724136      0.0328330317      0.0727358445      0.2867173772      0.0824384816
H       3.9495909966     -1.6549943959      0.2202501189     -0.0328332555     -0.2723335243      0.1169391126      0.0835918537
H       5.2008866665      0.7877012148     -1.1441758771      0.0684148596      0.3180624654     -0.0935824727      0.0303046416
H       6.0707816535     -0.6493811078     -0.5835093044      0.3700004079     -0.0724509141      0.0082646336      0.0356318655
H       4.9120527460     -0.7800042853     -1.9163513239     -0.0162828207     -0.1301533009     -0.3158749778      0.0308369743
P      -6.6489219731     -0.2298114689     -0.2527876929      0.1916978882     -0.0547616450      0.0965822648      2.1951959093
F      -7.8615771474     -1.3064379780     -0.2054535125     -0.1952334423     -0.1807233250      0.0077682951     -0.4925091848
F      -7.0691628527      0.2811930375     -1.7399004049     -0.0541868391      0.0891322985     -0.2239146886     -0.4955581687
F      -7.5564765877      0.9240868603      0.4529178235     -0.1155564787      0.1687819091      0.0976580224     -0.4965018103
F      -5.3336573995      0.8502264789     -0.2753712856     -0.1164777055      0.1214383827     -0.0676761999     -0.5496767490
F      -6.1194395125     -0.7307836504      1.2521221035     -0.1440824592     -0.0024996977      0.0718185180     -0.5305383630
F      -5.6359105426     -1.3722901955     -0.9340477730     -0.0925413261     -0.0546316967     -0.1200983361     -0.5301872146
