43
Properties=species:S:1:pos:R:3:forces:R:3:charge:R:1 energy=-230.59094364810272 homo_lumo=6.274079431734549 dipole="-3.0208135287235645 0.699999120928862 -1.3476607946835055" free_energy=-230.59094364810272
N       2.4333274149     -0.1293733333     -0.6069532491     -0.0952066846      0.4065739622      0.1081081739     -0.5310317090
C       2.5240940337     -1.6397415509     -0.5517430960      0.1257190712     -0.6004719083     -0.1585990263      0.0116352822
C       3.3503704380      0.3138660757     -1.7255443156      0.3280578528     -0.0564203562     -0.5445877879      0.0205832813
C       1.0368891543      0.3093404251     -0.9339936442     -0.4369545519     -0.1582294228      0.4801356919     -0.0026345959
C       3.5672443685     -2.0516007354     -1.5836499702     -0.0532900775      0.0737113809      0.0175230124     -0.1495700950
C       3.5508391489     -0.9134013086     -2.5985254910     -0.0977585698      0.0530745325      0.2585112722     -0.1456869736
C       2.8823171278      0.4818199167      0.6741737467      0.0296116102      0.0771110736      0.1570032439      0.0164349409
C       0.0008029219     -0.0408244641      0.1336436686     -0.0066460424      0.2496313550     -0.6547288419     -0.1934290394
C      -1.4076201545      0.2376995445     -0.4051859343      0.2383264849     -0.2621307900      0.7095917591     -0.1522579694
C      -2.4708428726     -0.0771901072      0.6515205073     -0.1647284673      0.3064772261     -0.8241821628     -0.1581181020
C      -3.8803584297      0.1963801460      0.1172935071      0.1244263795     -0.2396179485      0.6772402121     -0.1993468992
C      -4.9428610765     -0.1165761511      1.1691000145      0.1742126990      0.1373894443     -0.4320376118     -0.0461207644
H       1.5451523869     -2.0527875968     -0.8000019875     -0.2591007580      0.0547881256     -0.0960498162      0.1126721748
H       2.7977988808     -1.9398514241      0.4582366925      0.0722664282     -0.0379338528      0.1786764372      0.1630778455
H       4.2967904578      0.6191362379     -1.2787811541      0.1346153297     -0.0239990338      0.1534659127      0.1870392278
H       2.9037971731      1.1604693340     -2.2466618997     -0.1906874589      0.2242452215     -0.0624113588      0.0929499778
H       0.7739365335     -0.1591132182     -1.8863425480     -0.0101717597     -0.1089485948     -0.2450158518      0.1339591128
H       1.0641878356      1.3933019521     -1.0741026624      0.0621912199      0.2332476556     -0.0590095535      0.1230966171
H       3.3077617390     -3.0102023188     -2.0338796557     -0.0427021379     -0.2853873265     -0.0959025897      0.0588992693
H       4.5503586884     -2.1336639402     -1.1163884221      0.1466689984     -0.0051404226      0.1009610922      0.1953897006
H       4.4873895559     -0.8440181045     -3.1514122337      0.2320785467      0.0323164076     -0.2053528559      0.0932771544
H       2.7269434974     -1.0306795719     -3.3086640082     -0.2096037947     -0.0045740166     -0.2279718775      0.0703083296
H       2.2667408105      0.1084998877      1.4884287273     -0.1575773893     -0.1052037919      0.1949845854      0.0762074823
H       3.9188495599      0.2055602624      0.8492956846      0.1337836300     -0.0211413260      0.0447367930      0.2357701681
H       2.7892939541      1.5636985037      0.5971587962     -0.0542264907      0.3331064972     -0.0792973324      0.0559851824
H       0.0780146598     -1.0936673093      0.4163796384      0.0209085289     -0.2818619632      0.1066070707      0.1142324802
H       0.1671262171      0.5626177349      1.0296108954      0.0367494151      0.1140013504      0.2394987517      0.1109253415
H      -1.5835383372     -0.3733797412     -1.2968963070     -0.0771773576     -0.1337690510     -0.2667931184      0.0847866583
H      -1.4824011172      1.2897457145     -0.6999947096     -0.0667127840      0.2770727262     -0.1249964430      0.0869534944
H      -2.2907884101      0.5351988824      1.5413959472      0.0426287673      0.1333808543      0.2793222517      0.0877293955
H      -2.3883833962     -1.1284627087      0.9472156905      0.0236248790     -0.2792968745      0.1281424304      0.0874869468
H      -3.9587475989      1.2477448100     -0.1792271784     -0.0016975079      0.2595046090     -0.1425083753      0.0829795978
H      -4.0566213529     -0.4163141929     -0.7732198391     -0.0230816479     -0.1136331661     -0.2796617809      0.0818564869
H      -4.7952263079      0.4996845310      2.0567976444      0.0025739501      0.1675726465      0.3027146182      0.0310031057
H      -5.9356690973      0.0850745795      0.7671634035     -0.3719945446      0.0237066125     -0.0093874552      0.0350732925
H      -4.8929341094     -1.1658545246      1.4625594046     -0.0233946882     -0.3185195871      0.1277124922      0.0310473337
P       6.2636784979     -1.1833587808      1.1711149708     -0.1773599442     -0.0216694111     -0.0486193246      2.1916410985
F       6.6692563128     -2.4645879926      0.2331475544      0.0751594390     -0.1744435566     -0.1250101145     -0.5072612173
F       5.7419207978     -0.3787170814     -0.2276188906      0.1508518012      0.0338066438     -0.0276333378     -0.5453764647
F       4.7063852827     -1.8222044283      1.3073899996      0.0855197997     -0.0950913380      0.1343704790     -0.5411336890
F       5.7447863962      0.1222094192      2.0440330195     -0.0145766839      0.1573979854      0.1268076514     -0.5177810413
F       6.7024147205     -1.9641683349      2.5239832651      0.0751843205     -0.1203983071      0.2158174445     -0.4912772083
F       7.7361137201     -0.5219434413      0.9932577059      0.2194901897      0.0997657354     -0.0321747592     -0.4919752105
