26
Properties=species:S:1:pos:R:3:forces:R:3:charge:R:1 energy=-145.55911680541533 homo_lumo=3.7753354549164446 dipole="-0.04737599153195299 -1.2061085418221011 0.43232202218673027" free_energy=-145.55911680541533
H       0.3161023683      0.8116828548     -4.4891346444      0.0327378555      0.3022405449     -0.0342461660      0.0713180594
H      -0.9145838778     -0.4824488304     -4.4766345154     -0.2368714700     -0.0939737847     -0.1102310285      0.0420300623
H       0.7956178166     -0.8909680834     -4.7785077039      0.1133945652     -0.2221200236     -0.1038081822      0.0369106209
C       0.1189141075     -0.2338888995     -4.2359770008      0.0210320278     -0.0234075920      0.2442609709      0.1345834283
H       2.1528928309     -0.6640677420     -0.1182664958      0.1498961901     -0.0384987917      0.1524614409      0.0221659072
H       2.2754345014     -1.3265531326     -2.7951682503      0.1780485598     -0.0887488256     -0.1226221229      0.0136252948
H      -1.4037695143      0.5626176003     -2.0093364035     -0.2853785486      0.0197536081     -0.0269077749      0.1112679964
N       0.3361743726     -0.3949387706     -2.8092148192     -0.0018191523     -0.5953535737     -0.7653870766     -0.5320416745
C      -0.3659607698      0.3045780720     -1.8973587885     -0.1389503717      0.4691814300     -0.1181546982      0.5064327361
N       0.2384989353      0.1280204569     -0.7093481464     -0.0999592633     -0.0840887585      0.6906833880     -0.4944578467
C       1.4553060966     -0.4932056369     -0.9188996330      0.1419590882      0.0126208795      0.1776218851      0.1885817121
C       1.5173030419     -0.8146003061     -2.2289954844      0.1476751655     -0.0626392224     -0.0699053641      0.2154709527
C      -0.1269973171      0.8748357166      0.4871669354      0.0917080210     -0.6961849989      0.1883991133      0.0165324062
H       0.6260376564      1.6540032099      0.6462026948      0.0635365935      0.2606820442     -0.0576971881      0.1092259761
H      -1.0881174594      1.3562635905      0.2903397372     -0.1127155217      0.1560591154     -0.0732907935      0.1109009261
C      -0.2226349123     -0.0518579592      1.6990713431     -0.2199669091      0.7333703542      0.0115642178     -0.1797895037
H       0.7518496302     -0.5136627377      1.8856834230      0.2422734503     -0.1639543333      0.0866418951      0.1001022292
H      -0.9378413731     -0.8526873848      1.4847912399     -0.1511732799     -0.2375993664     -0.0701287249      0.0961526180
C      -0.6690799173      0.7281442839      2.9394839075      0.1955952848     -0.6433352331     -0.0199968794     -0.2063300752
H       0.0445305972      1.5349921310      3.1364248526      0.1307870321      0.2665196215      0.0230791914      0.0893775589
H      -1.6461564896      1.1844295043      2.7492913554     -0.2216208695      0.1819003121     -0.0709815438      0.0868426742
C      -0.7611040384     -0.1805256007      4.1636941940     -0.0247751773      0.3851192381     -0.2653697213     -0.0450435069
H       0.2094249505     -0.6283102622      4.3816313647      0.2728449173     -0.1631133686      0.1078209056      0.0286836323
H      -1.4824365073     -0.9808089044      3.9928538775     -0.2034764859     -0.2638197979     -0.0052683575      0.0304246113
H      -1.0806596454      0.3960967868      5.0316826628     -0.0939244789      0.0747957667      0.3434409564      0.0357291895
Cl      0.1522584280      2.5189300285     -2.4367129130      0.0091427770      0.5145947557     -0.1119783424     -0.5886959851
