26
Properties=species:S:1:pos:R:3:forces:R:3:charge:R:1 energy=-145.6274043288612 homo_lumo=3.4816577364814605 dipole="0.9043413990244938 0.9326561769414047 -0.5342678000260214" free_energy=-145.6274043288612
H       0.0999509271     -1.8960969862     -4.2090159138      0.2022467147     -0.0449853482     -0.1820574581      0.0353542479
H      -1.2718092638     -0.7521637123     -4.1795350316     -0.1131604987      0.1371836302     -0.2087567475      0.0398404976
H      -1.2390585948     -2.1244802864     -3.0368017096     -0.1570343883     -0.1932776974      0.2235596907      0.0845150807
C      -0.6292141835     -1.3944532518     -3.5771660034      0.0387347659      0.1486411308      0.0861182639      0.1302371334
H       2.4333296434      0.1495081559     -0.4818994286      0.1862171220      0.0237104502      0.1378083206      0.0201290812
H       2.0812479951     -1.2935814989     -2.8156633277      0.1471696841     -0.1317285677     -0.1162718100      0.0181354714
H      -1.5907942744      0.4467202764     -1.6972712403     -0.2100901176      0.1084576871     -0.0373511416      0.0969202362
N       0.0650764044     -0.5944895234     -2.5838602144      0.0569898083     -0.1937117779     -0.9707797272     -0.5308499084
C      -0.5775816729      0.0958013723     -1.6346927912     -0.5292458041     -0.1702116778      0.1827220586      0.5651363652
N       0.3345627475      0.5225506526     -0.7569075356      0.1907289266      0.7509696067      0.2733850616     -0.4921365355
C       1.5556732617     -0.0226435200     -1.0796161479      0.2771838472     -0.0863640109      0.0700808009      0.1906104394
C       1.3839159654     -0.7272375011     -2.2238148950      0.2157445787     -0.0873966698      0.0136580346      0.2263155710
C       0.0255736622      1.1985439607      0.4960825266      0.0755061978     -0.6282000588      0.1997189657      0.0102700334
H       0.7984992179      1.9509025025      0.6819272771      0.1154750903      0.2204592300     -0.0127695605      0.0887330513
H      -0.9377330957      1.7011630082      0.3736661266     -0.1783499683      0.1127952487     -0.0380677494      0.1006230098
C      -0.0381341379      0.1728862434      1.6327018613     -0.2603668987      0.7548065830      0.2368400062     -0.2023005232
H       0.9496668527     -0.2791534842      1.7642740370      0.2778461264     -0.1513539975      0.0414794880      0.0826718905
H      -0.7384682190     -0.6187940674      1.3487096932     -0.1303579747     -0.2342598109     -0.1848901453      0.1875779557
C      -0.4904192806      0.8364566734      2.9348824464      0.2568098854     -0.5491655308     -0.1107954654     -0.2057108271
H       0.2112715245      1.6336982948      3.2066360980      0.1265944551      0.2819391471      0.0988342416      0.0673256469
H      -1.4749132587      1.2930334104      2.7872820863     -0.2493204401      0.1575418493     -0.0564548234      0.0806912651
C      -0.5697423151     -0.1850381618      4.0679015866     -0.0351950124      0.4088755792     -0.2069137755     -0.0429739428
H      -0.9038388471      0.3001498911      4.9850947729     -0.0883642940      0.0512712906      0.3532417188      0.0267764994
H       0.4082532262     -0.6336393350      4.2467292066      0.2772629178     -0.1722840939      0.0884824500      0.0263306384
H      -1.2744571019     -0.9774985216      3.8150409283     -0.1961541390     -0.2710198306     -0.0558463924      0.0446912624
Cl     -1.7324644991     -1.8457279887     -0.5501186623     -0.2968705845     -0.2426923606      0.1750256950     -0.6489136399
