49
Properties=species:S:1:pos:R:3:forces:R:3:charge:R:1 energy=-263.95883845024014 homo_lumo=6.411106797213765 dipole="-0.5823585094276685 -1.1876876888100611 -2.791812961329008" free_energy=-263.95883845024014
N      -0.9553372799      0.8460471451     -0.4425203062      0.0109095846      0.0632678992     -0.3422411371     -0.4985352849
C      -1.7428154998      0.1797828107     -1.5303235482     -0.5082591610     -0.3775346368      0.0631849243     -0.0004625652
C      -1.6926135189      2.0840153487     -0.0055375251     -0.4565914153      0.1855292251      0.3956715075     -0.0507611623
C       0.3631895850      1.2629317136     -1.0465114534      0.5005930536      0.1938046930      0.4215056050     -0.0115855369
C      -0.7512792860     -0.0623329861      0.7373177995      0.3498566801     -0.5676135518     -0.0988985292     -0.1058618482
C      -3.1676479686     -0.1617947181     -1.1078361870      0.1318064858      0.4791124693     -0.1153626059     -0.1611674138
C      -3.1206585900      1.8036337467      0.4389883227      0.0532923118     -0.1878764431     -0.5245527413     -0.1625962200
C      -3.9134964007      1.0931126882     -0.6550179763      0.2939217580     -0.2113905493      0.2654680929     -0.1475839212
C       1.3610572696      1.8740058758     -0.0659392189     -0.0443995520     -0.1159109075     -0.7506593852     -0.2477553036
C       0.0293560604     -1.3412099596      0.4542642999     -0.3184239815      0.3202478360      0.3969294130     -0.2121287592
C       2.6083136069      2.3385086426     -0.8263655489     -0.1435848365     -0.0074893100      0.5230710216     -0.1941856806
C       0.2702603108     -2.0606218498      1.7891425032      0.2327087342     -0.1833932251     -0.5378177572     -0.2036152981
C       3.6231100453      2.9491876055      0.1381651097     -0.1793533131     -0.1348039675     -0.4138365496     -0.0477049619
C       1.0744292882     -3.3422636178      1.5883431839     -0.2754939416      0.3367087543      0.1388199608     -0.0462996845
H      -1.2028138540     -0.7194953675     -1.8330312777      0.2038666666     -0.1285196635     -0.0737286627      0.1323779510
H      -1.7647934738      0.8738267045     -2.3757034067      0.0536835450      0.1932154060     -0.1685040815      0.1217825780
H      -1.6909104757      2.7680554509     -0.8591593633      0.0450472206      0.0977495744     -0.2858743811      0.0947573529
H      -1.1323441217      2.5299037053      0.8152970968      0.1376115841      0.1000131864      0.1286203333      0.2537286105
H       0.1262333057      1.9843406493     -1.8341283194     -0.1386271309      0.1255670130     -0.1842115381      0.1193574592
H       0.7940455645      0.3766938012     -1.5199313368      0.0242537252     -0.2210908850     -0.1295250539      0.1219757642
H      -1.7357847971     -0.3152912844      1.1302711184     -0.1438600807      0.0480690984      0.0827741575      0.1660265946
H      -0.2355518846      0.5203369221      1.4976689782      0.0089735188      0.1573039840      0.1188450075      0.2921200200
H      -3.1632484203     -0.9091181079     -0.3105669850     -0.0063041630     -0.2503182377      0.1741812870      0.1032400014
H      -3.6685932414     -0.6034604936     -1.9735991925     -0.0928334912     -0.2202142043     -0.2137454593      0.0960024184
H      -3.5812856172      2.7684370852      0.6653913439     -0.0430712193      0.2485572326      0.1952741782      0.1064041566
H      -3.1233458044      1.2174275041      1.3601754330      0.0026412382     -0.0009174284      0.2496092797      0.1316038975
H      -4.0489136510      1.7640148536     -1.5100547188     -0.0782733640      0.1735807270     -0.2590832950      0.0754379483
H      -4.9013648182      0.8172338371     -0.2792619693     -0.3199874498     -0.0161628311      0.0248808022      0.0821009994
H       1.6561048956      1.1426569150      0.6884835154      0.0318763637     -0.0900655417      0.2199396654      0.1527279414
H       0.9199314731      2.7276975501      0.4503690736     -0.0559597530      0.1154694607      0.2251579489      0.1782732936
H       0.9951046435     -1.1172032591     -0.0058466129      0.2836598844      0.0311961581     -0.1177347092      0.1071958083
H      -0.5251994963     -1.9996814390     -0.2217268502     -0.0886763398     -0.2468124710     -0.1967319756      0.0830251901
H       2.3235602844      3.0809863942     -1.5800217799     -0.0536675433      0.1623902902     -0.2502862742      0.0708533559
H       3.0599798376      1.4870683518     -1.3477959236      0.1242594952     -0.1972970045     -0.2126588771      0.0700103873
H      -0.6929139367     -2.2992398579      2.2509966906     -0.2356991343      0.0067923890      0.1801728612      0.0872907765
H       0.8096026513     -1.3896227312      2.4643865308      0.0236272670      0.2088839362      0.2075443092      0.1289551465
H       3.9336481789      2.2127319048      0.8795759102      0.1036970150     -0.1684772629      0.2712607169      0.0419131248
H       3.1865940420      3.8016889186      0.6586089294     -0.0978418776      0.2384762142      0.2156637254      0.0509398422
H       4.5024146960      3.2860073653     -0.4107537796      0.3161661286      0.1293531837     -0.0850795385      0.0292381664
H       2.0467670588     -3.1190300266      1.1471486999      0.3137283719      0.0158012714     -0.1265488307      0.0276300764
H       0.5431793933     -4.0311377147      0.9296949225     -0.1104203747     -0.2621209912     -0.1965876863      0.0217797977
H       1.2332075395     -3.8320154137      2.5487130253      0.1143568082     -0.2341472687      0.2484233894      0.0424974070
P      -0.1732415314      2.4667365582      3.6654466498     -0.1659135818     -0.1740602884     -0.1901596465      2.1982057511
F      -1.4501763537      1.6460543502      2.9249880085      0.0242586770      0.0814889313      0.2562580373     -0.5398167923
F       0.8783073090      1.3984292767      2.9056050190      0.1126330472     -0.0752513758      0.1014663521     -0.5355933337
F      -0.0860566594      3.4337645334      2.2968219630      0.0168873275      0.2019738400     -0.0337507869     -0.5344634952
F       1.0914998394      3.2557161851      4.3114664768      0.2031476080      0.1247931116      0.0810814806     -0.4941240513
F      -1.2377736736      3.5022498081      4.3295112568     -0.1586931964      0.1878930381      0.1126454141     -0.4960924794
F      -0.2739370367      1.4561956343      4.9374357676     -0.0015291992     -0.1557708776      0.2091300310     -0.4971180249
