49
Properties=species:S:1:pos:R:3:forces:R:3:charge:R:1 energy=-264.0732212676952 homo_lumo=6.194045092879362 dipole="-2.4791583231191594 -0.5377080109255622 -2.1100510474588368" free_energy=-264.0732212676952
N      -0.1405777281      0.8204746707     -0.2504991204     -0.0066240582      0.0022220879     -0.0008282089     -0.4914958538
C      -1.4303421456      0.1913478733     -0.7291964200     -0.0035657403      0.0049759164      0.0179631871     -0.0034840515
C      -0.4324797908      1.6480703973      0.9986147439      0.0088131133     -0.0067598066      0.0101964125     -0.0516135771
C       0.3386288324      1.7563562805     -1.3529406638      0.0028664052      0.0002590847     -0.0008551974     -0.0026063202
C       0.9120695458     -0.2239447118      0.0738370928      0.0019609851     -0.0012200341     -0.0106292697     -0.1116500797
C      -2.1076705073     -0.6520858112      0.3375665128      0.0120232598     -0.0081111722     -0.0093344662     -0.1727113309
C      -1.1455948901      0.8620057048      2.0849792933     -0.0004556182      0.0055940959      0.0017336826     -0.1751426356
C      -2.4161066055      0.1880650345      1.5760436638     -0.0048537376      0.0081408840      0.0018700328     -0.1594140663
C       1.6620877626      2.4762626883     -1.0979584126     -0.0077072701      0.0017666731      0.0025393665     -0.2289845925
C       1.1947636157     -1.2345718887     -1.0227523990      0.0022166081      0.0089824007      0.0072040409     -0.2359497318
C       2.8836030386      1.8658123539     -1.7888031170     -0.0102506689      0.0017214691     -0.0133344295     -0.2587784501
C       2.4093327585     -2.0787717668     -0.6186539083      0.0057609634      0.0059264343      0.0160405822     -0.2146081576
C       4.1333751471      2.6976155310     -1.5149492950      0.0087978039      0.0014403160     -0.0047774472     -0.0731157608
C       2.7646513352     -3.1294304274     -1.6645983772     -0.0069660213      0.0013300706     -0.0099286259     -0.0687685100
H      -1.1913471065     -0.3878049360     -1.6311926681     -0.0022396324      0.0027882664     -0.0146992587      0.1340414692
H      -2.0834530149      1.0313566367     -1.0183196052      0.0069361117     -0.0030257035     -0.0094139193      0.1264336146
H      -1.0545972020      2.4881585069      0.6472736998      0.0007394610      0.0002307416      0.0055944878      0.1027197990
H       0.5270089796      2.0290883509      1.3733985981      0.0016710263      0.0048065245     -0.0001023177      0.2389899969
H      -0.4869228724      2.4741360727     -1.4731983833     -0.0012895230      0.0058431683     -0.0038659377      0.1123790651
H       0.3854746749      1.1491523654     -2.2697179813      0.0016261370      0.0031933819     -0.0019721532      0.1245729922
H       0.5872965522     -0.7318628868      0.9883983316      0.0017525998      0.0067051592     -0.0001391154      0.1845630853
H       1.8168518341      0.3325448026      0.3484495606      0.0003879417     -0.0001748689      0.0132048614      0.2875076030
H      -1.4744749508     -1.5162779440      0.6018284795     -0.0126448787      0.0071748937     -0.0003826470      0.1125573765
H      -3.0325770408     -1.0597552276     -0.1032328542      0.0003907731     -0.0149551158     -0.0053182427      0.1006746953
H      -1.3731338556      1.5830939283      2.8868969084      0.0053624301     -0.0047843492      0.0162791297      0.1165195980
H      -0.4516771772      0.1349190202      2.5341308087     -0.0112236577      0.0006076041      0.0081858312      0.1375942989
H      -3.1666523841      0.9570640140      1.3101388657      0.0161488718     -0.0151271471      0.0102085165      0.0817885574
H      -2.8619876942     -0.4386914674      2.3642928236     -0.0046044962      0.0052362614     -0.0030654229      0.0880311203
H       1.8694538382      2.5711797644     -0.0204749344      0.0053030482      0.0047943223      0.0028605335      0.1899334288
H       1.5376678740      3.5111803175     -1.4632016580      0.0020940371      0.0007280347      0.0001064209      0.0947589058
H       1.4122278060     -0.7348720182     -1.9821985399      0.0123667018     -0.0011892768     -0.0063759483      0.1117879731
H       0.3309649695     -1.9024260848     -1.1888601973     -0.0036962050     -0.0067425398      0.0011975291      0.0941049946
H       2.6927028116      1.8005872434     -2.8774790715      0.0076533366     -0.0045297973      0.0175082314      0.0597442086
H       3.0531334586      0.8401351305     -1.4264948138      0.0100282905     -0.0031765942      0.0062880848      0.1637220954
H       2.2040433918     -2.5656368246      0.3514018058      0.0068657189      0.0072547888     -0.0031433109      0.1000059766
H       3.2678186993     -1.4091400713     -0.4400995476      0.0063717310     -0.0043571101      0.0039431317      0.1343980908
H       4.3505259571      2.7099409798     -0.4360465437      0.0065044020     -0.0003656934      0.0001912571      0.0963958097
H       3.9948800335      3.7371245317     -1.8540730941      0.0042768972     -0.0011369525      0.0007220865      0.0205699838
H       5.0101026426      2.2850254220     -2.0358579710     -0.0047518842     -0.0092149035      0.0024018531      0.0298638954
H       3.0065249152     -2.6600675262     -2.6319072349     -0.0081477670      0.0023790195     -0.0011752223      0.0339332696
H       1.9303046412     -3.8311747789     -1.8267470187     -0.0011398913      0.0094450428     -0.0071281073      0.0270590464
H       3.6400855242     -3.7162977065     -1.3501668017      0.0017909319      0.0015576119      0.0052064964      0.0497030537
P       3.3245929554      1.3674663830      2.8314464867      0.0086139910      0.0076349695     -0.0013954180      2.1968911940
F       4.6414235730      2.3343975096      2.7131615073     -0.0167077856     -0.0037703602     -0.0136528105     -0.4992770248
F       4.2200942969      0.1268729030      3.4115580802     -0.0114889525      0.0037609448     -0.0085053002     -0.4966541334
F       2.9972142099      1.9125135812      4.3392056875     -0.0158733159      0.0005240473     -0.0175593336     -0.4967071038
F       1.9523571273      0.4051096648      2.8777569045     -0.0152747774     -0.0148389448      0.0037865185     -0.5357406756
F       2.3723387756      2.6036996337      2.1817342164      0.0010067579     -0.0104981993     -0.0080394494     -0.5377456751
F       3.5959703090      0.8269192879      1.2580399174     -0.0008244537     -0.0030456460      0.0003892858     -0.5367974677
