78
Properties=species:S:1:pos:R:3:forces:R:3:charge:R:1 energy=-416.102667299821 homo_lumo=3.4050157978097304 dipole="2.8361938721961124 8.499948869956556 0.38560123735147817" free_energy=-416.102667299821
N      -0.0010459370     -0.0001246842      0.0062272612      0.0454954514      0.0593132614      0.0001440408     -0.5131460827
C       0.8452130321     -1.0304575660      0.7068788572      1.1384826591     -0.7621017595      1.0054392293     -0.0675200040
C      -0.8682217670      0.6837155901      1.0308209598     -1.1526500332      0.9433248133      0.7350454398     -0.0612735070
C      -0.8305360133     -0.6963554411     -1.0408730274     -1.1907447876     -1.0427280047     -0.7893731253     -0.0677718068
C       0.8489863003      1.0427157011     -0.6710045695      1.1299946460      0.7433825332     -0.9142393820     -0.0592245628
C       1.8979570833     -0.4811695865      1.7040482839     -0.2688188842      0.0125054321     -0.3062915284     -0.2192757079
C      -1.9387052384      1.6576830567      0.4734151861      0.2592640483     -0.2999399429     -0.0113119022     -0.2194672355
C      -1.9015515309     -1.6849103746     -0.5104662260      0.3041974457      0.2922734949      0.0249754266     -0.2259166102
C       1.9342645611      0.5101414239     -1.6418775191     -0.2720859505     -0.0048092769      0.2763817620     -0.2204000179
C       2.6864474209     -1.6326623123      2.3424250326     -0.0816362169     -0.0998367799     -0.0475029589     -0.2131964983
C      -2.7576119644      2.2703321953      1.6175221150      0.0790676113     -0.0646291548      0.0862543198     -0.2113574617
C      -2.6856497017     -2.3075206981     -1.6730013016      0.0415888451      0.0352786018     -0.1130402802     -0.2078400775
C       2.7318686700      1.6737707392     -2.2465357429     -0.0854124043      0.0750881928      0.0656870344     -0.2104688628
C       3.7182107829     -1.1128786343      3.3397537929      0.1032705693     -0.0503661314      0.0851842429     -0.0903624994
C      -3.8039976323      3.2478073748      1.0890848114     -0.1115296763      0.0876415224      0.0556899211     -0.0909275814
C      -3.7556350825     -3.2701548011     -1.1653700951     -0.0737027288     -0.1210113464     -0.0096049610     -0.1135992894
C       3.7933190961      1.1723290706     -3.2218008149      0.1087819471      0.0609806472     -0.0950491309     -0.0913474219
H       1.3676738440     -1.6760356039     -0.0338235516     -0.3405208377      0.4637009372     -0.0261427517      0.1617408034
H       0.1995287850     -1.7197947289      1.2922544309     -0.1670632149      0.4102118899     -0.4077706942      0.1862998612
H      -0.2398504392      1.2845245313      1.7228005551      0.1864383836     -0.3736999248     -0.4174857008      0.1704256531
H      -1.3775792982     -0.0669020942      1.6753372664      0.3133876194     -0.0316033523     -0.4958116138      0.1597357093
H      -0.1754827265     -1.2877463047     -1.7162618970      0.1567426033      0.3655757153      0.4340315068      0.1791862034
H      -1.3335588578      0.0474512790     -1.6981684877      0.3024236719      0.0404735659      0.4835337976      0.1488266482
H       1.3432237878      1.6938704473      0.0841072189     -0.3006230074     -0.4773007461      0.0235326828      0.1493462770
H       0.2096008229      1.7241909814     -1.2721970913     -0.1766784812     -0.4273375707      0.3741806786      0.1730103094
H       1.4027249189      0.0838214999      2.5194262552      0.1006385930     -0.0037929756     -0.2057441807      0.1197775653
H       2.6191472375      0.1889834345      1.1944494193     -0.1822277151     -0.0401169517      0.1098924686      0.1233064460
H      -2.6390242873      1.1353081483     -0.2087497946      0.1989394325      0.1020491930      0.0609051225      0.1358270926
H      -1.4561003202      2.4879517248     -0.0808852500     -0.0954184104     -0.2098908831      0.0037811618      0.1181789219
H      -2.6243382280     -1.1712882269      0.1545156672      0.1800003860     -0.1019476861     -0.0419341823      0.1246552480
H      -1.4226619455     -2.5098161139      0.0551328559     -0.1194906317      0.1990771320     -0.0259542302      0.1363391885
H       1.4660707303     -0.0511645137     -2.4757714383      0.1030676276      0.0062975928      0.2311229228      0.1285121445
H       2.6460258657     -0.1591066099     -1.1182227143     -0.1963245804      0.0460093424     -0.1174441650      0.1311878543
H       3.2111955680     -2.2125015290      1.5520679982     -0.2308839726      0.0279093712      0.1635987204      0.1064784105
H       1.9887845657     -2.3159288770      2.8743841464      0.1429605344      0.0662309910     -0.2515660343      0.1094823997
H      -2.0820460370      2.8129945253      2.3143830524     -0.1233951091     -0.2326813387     -0.0618429352      0.0955414046
H      -3.2728537088      1.4643493772      2.1842365972      0.2169591972      0.1611841414     -0.0352333651      0.1069658812
H      -1.9905391001     -2.8632998134     -2.3397056951     -0.1435607392      0.1903099134      0.0832257052      0.1106663277
H      -3.1772586197     -1.5065457797     -2.2671492609      0.2176193593     -0.1115678648      0.0309786662      0.0817252189
H       3.2317676832      2.2478426529     -1.4360523291     -0.2125247443     -0.0295877209     -0.1561488197      0.0982324181
H       2.0442301128      2.3589192083     -2.7890025938      0.1214540366     -0.0671761399      0.2334223616      0.0972943209
H       3.2180591365     -0.5419882254      4.1510777152      0.2421626998     -0.1251172186     -0.1937105261      0.0473683533
H       4.4533566574     -0.4563681687      2.8275486688     -0.1586926959     -0.1448525028      0.2505463983      0.0445747753
H       4.2615347008     -1.9692718082      3.7923956890     -0.1001268473      0.3482796830     -0.0748347177      0.0711364083
H      -4.5168833498      2.7241206413      0.4172312873      0.1594262845      0.2534620775      0.1588918586      0.0532893735
H      -3.3138839113      4.0748105106      0.5321398473     -0.2391283331     -0.2022537035      0.1158323495      0.0464677527
H      -4.3708872203      3.6812120657      1.9401206278      0.0994481455     -0.0707630170     -0.3500911618      0.0670854762
H      -4.4838859835     -2.7335763887     -0.5209467212      0.1518288745     -0.2111412553     -0.1267125834      0.0334928610
H      -3.2895104831     -4.0946699089     -0.5845880156     -0.2802760530      0.1869917855     -0.2071298923      0.1008935913
H      -4.3013849638     -3.7061465275     -2.0286291916      0.1563625339      0.0224061426      0.3983308723      0.0777877219
H       3.3186420383      0.6091742381     -4.0535318782      0.2421559964      0.1203707145      0.2131662597      0.0538891805
H       4.5182258960      0.5135369536     -2.6980864968     -0.1634182745      0.1482451525     -0.2585315125      0.0510264255
H       4.3437088331      2.0374477281     -3.6486839526     -0.0942233700     -0.3518468911      0.0653274734      0.0653169142
P      -2.9920886258     -9.1374767355     -0.2946018047     -0.6539032217     -0.0821017446     -2.5813708592      1.6459214956
F      -3.2103354544     -9.6991766231     -1.9073163069      1.2716559035     -0.0648677544     -1.1429975929     -0.5257115378
F      -1.3372746642     -9.1536820767      0.1878063284     -0.4483253524     -0.6422789874      0.2800063593     -0.5181248017
F      -4.6295706894     -8.7254393250     -0.6254172424     -0.1266650541     -0.1474149080      0.5549086815     -0.5197255181
C      -2.2375914038     -7.6600063841     -1.3002978731     -0.4790507753      0.0846726217      0.1931746255      0.5380783509
C      -2.9380228022    -11.0710703693     -0.2119827267     -0.4016376095     -0.2892261865      0.8553530273      0.5450350883
C      -3.6455704104     -8.6453736509      1.4567330507      0.7440669578     -0.3641631960      0.3563297196      0.5431450857
C      -3.1555607694     -6.9449570617     -2.3283183890     -0.5444688723     -0.4489203114     -0.5953127481      1.3404611048
C      -2.6003966712    -11.7096032860      1.1514613658      0.2955536340     -0.6915932696      0.3638557535      1.3273502058
C      -3.8693175988     -7.1430891608      1.7241500106     -0.4512123330      0.5042740283      0.2354137738      1.3579504726
F      -1.1389901077     -8.1181324426     -2.0177078369     -0.4677922950      0.4350137219      0.0766309462     -0.4388023837
F      -1.7705042305     -6.6970517899     -0.4274022522      0.1887589256      0.6101905095     -0.3604408337     -0.4684322401
F      -1.9752022048    -11.5463668721     -1.0979379138     -0.3680760775      0.1400050454      0.7381425615     -0.4360816863
F      -4.1724571955    -11.5733272712     -0.6004038419      0.4784939110     -0.1265176915      0.3280301828     -0.4375805753
F      -2.7287406321     -9.0638747544      2.4046829918     -0.2960348873      0.3815286059      0.3897190497     -0.4490365756
F      -4.8375852180     -9.3077526224      1.7186670532      0.5073793136      0.5418489894      0.0518508051     -0.4360496098
F      -2.4866341384     -5.8389933505     -2.8228603608     -0.3062028384     -0.1011345069     -0.0362271496     -0.4773775824
F      -4.3340469837     -6.5056934660     -1.7645754715      1.0374443148      0.0026897094     -0.9072850935     -0.4499172924
F      -3.4511128243     -7.7648853404     -3.4023218588      0.1607389723      1.2751173979      0.8239545227     -0.4317981835
F      -2.4505074638    -13.0744448060      0.9754745096     -0.0098118100      0.5222442581      0.3712033145     -0.4550884282
F      -1.4133207095    -11.2187054226      1.6619812615     -1.0979751925     -0.8120783621     -0.1673383539     -0.4396933352
F      -3.6180306323    -11.5226025139      2.0655322555      0.9838724609     -0.3782879269     -0.5751431507     -0.4465382031
F      -2.6619605232     -6.4870664619      1.8725535011     -1.0775811597     -0.2440250519      0.0695041031     -0.4522325308
F      -4.5675250946     -6.9991192654      2.9105050906      0.3678867592      0.1932753960     -0.5712799139     -0.4524360870
F      -4.6058960741     -6.5408779617      0.7284214043      0.7518848230     -0.1087240872      1.2207181813     -0.4452911474
