31
Properties=species:S:1:pos:R:3:forces:R:3:charge:R:1 energy=-165.32000078384914 homo_lumo=3.7112614246709503 dipole="-1.3295329426336029 0.11774872492196692 1.6988877228461132" free_energy=-165.32000078384914
C       2.7253567804      0.1620984674      1.6873756519      0.0042996221      0.0007037681      0.0042125342     -0.1447539941
C       1.7999741992      1.2363089323      1.0966022755      0.0029684300      0.0061172590     -0.0031858121      0.0184652005
H       1.3094923235     -0.9161288013     -0.4172770227      0.0197885556      0.0190881202      0.0004534669      0.2043272667
H      -0.0389363139     -1.5365792688      0.6781260750      0.0062595514      0.0008019724     -0.0220201025      0.0869238317
H       2.5724460206     -1.9994651530      1.2999329356     -0.0043442230     -0.0028060706      0.0110323780      0.1038096127
H       1.5175367537     -1.4325596408      2.6142759929     -0.0097416306      0.0025694358      0.0028975590      0.0606923243
H       3.0540022430      0.4013481245      2.7089236320      0.0005704845      0.0020472381      0.0040750676      0.0637995765
H       3.6037880242      0.0948461696      1.0276599291      0.0003777014     -0.0002706449      0.0034724879      0.1281551493
H       1.6029230952      2.0977591706      1.7501458882      0.0031409540      0.0031944065     -0.0106561032      0.0758909638
H       2.1864846433      1.5364735574      0.1066285698     -0.0003096800     -0.0138957438     -0.0040748027      0.1701211643
H      -1.3388812579      0.0904928058      1.8464682545      0.0001591214      0.0035010698      0.0021521056      0.0865347131
C      -0.4265750199      0.6782410661      2.0056761016      0.0032501751     -0.0005725425     -0.0026870734      0.0833445168
H       0.1026645945      0.3147183868      2.8939065858      0.0027704592     -0.0117770373      0.0027615386      0.1022937020
H      -0.6836500260      1.7380200836      2.1328782343      0.0072379586     -0.0049229954      0.0128299471      0.0715739991
C      -0.1754192086      1.1610812445     -0.4157510151      0.0109563287      0.0048024912     -0.0021128467     -0.0137764141
H      -0.4027019132      2.2007975036     -0.1323729126     -0.0005422129     -0.0028330038      0.0010826644      0.0889041388
H       0.6404015071      1.1429976260     -1.1722969699     -0.0047978951      0.0007468451      0.0132823399      0.1820738636
H      -1.8329602664     -0.2501607123     -0.1566020816     -0.0092978432      0.0153770028     -0.0070871519      0.0915186511
H      -2.1439769929     -1.7052743354     -3.6108129687     -0.0002792537     -0.0064948621     -0.0051473322      0.0450061215
C      -1.1215035836     -0.4053153273     -2.1953550172      0.0228567100      0.0045175185     -0.0043548807     -0.2256682466
H      -0.7391943601      0.2749720428     -2.9762412012      0.0022336088     -0.0104184738      0.0074748011      0.1057787406
H      -0.2967715119     -1.1125095381     -2.0098798485     -0.0073491560      0.0050474513     -0.0004206008      0.1374073360
C      -2.3598316432     -1.1406259100     -2.6916448947     -0.0131456279     -0.0055091261      0.0013920612     -0.0632255737
H      -3.1789749150     -0.4364792127     -2.9126079307     -0.0044164331     -0.0036226191     -0.0024259444      0.0278964597
N       0.4631841509      0.5467495257      0.8175225705     -0.0043146221     -0.0019166718      0.0087146708     -0.5145639907
C       0.8558917015     -0.9053354227      0.5965673116      0.0000858336      0.0059868166     -0.0118444661     -0.0329940880
C       1.9373800142     -1.1647850904      1.6312108689     -0.0010651389     -0.0115793756      0.0081455036     -0.1335480703
H      -2.7284416200     -1.8548227778     -1.9362357005     -0.0080236942     -0.0025154540     -0.0045037629      0.0227804948
C      -1.4056319009      0.4114754415     -0.9320096943     -0.0206508806      0.0032151977      0.0141743262     -0.1919788551
H      -2.1997186807      1.1477486956     -1.1498608747      0.0020365310     -0.0039151786     -0.0051765218      0.0916795071
Cl      2.6626119636      0.2340406379     -1.8773822547     -0.0007137339      0.0053332064     -0.0124560508     -0.7284681012
