43
Properties=species:S:1:pos:R:3:forces:R:3:charge:R:1 energy=-230.69401076405384 homo_lumo=5.686749205177542 dipole="2.149167571688654 0.2175599415569251 -2.7358364003357893" free_energy=-230.69401076405384
N       1.2178206861      0.5065236729      0.3875013881      0.0060063803     -0.0029780012      0.0013393271     -0.5163223391
C       1.2308039796     -0.5526600922      1.4796405362      0.0120229273     -0.0139274369     -0.0033633536     -0.0535238744
C       2.5407917243      0.2759511427     -0.3101253896      0.0031225661     -0.0022069072      0.0200392410      0.0133817527
C       0.0700256373      0.3268982148     -0.5867096473     -0.0110353690      0.0047795164      0.0206872602     -0.0044702205
C       2.6756885618     -0.5716650058      1.9775168873      0.0058265819     -0.0044055240      0.0049049652     -0.1512301235
C       3.5366688116     -0.0110797202      0.8132010006     -0.0014357696     -0.0031409124      0.0041351410     -0.1567805928
C       1.1863863939      1.8741652899      1.0022319381      0.0036421394     -0.0032394286      0.0057143042      0.0380783207
C      -1.3033259256      0.5164574268      0.0245321897     -0.0035455700     -0.0086234085     -0.0179641923     -0.2394608782
C      -2.4026974099      0.0761760307     -0.9432334198     -0.0064853740      0.0001215897      0.0013182656     -0.1578605873
C      -3.7843708159      0.2161308432     -0.3047747703      0.0072445464      0.0000638351      0.0013012990     -0.1785640504
C      -4.9168145046     -0.2526017782     -1.2140923299      0.0072713643      0.0040057781      0.0057873506     -0.2025541061
C      -6.2838629479     -0.1389938182     -0.5440881858     -0.0113932037     -0.0073585870     -0.0196633007     -0.0662992458
H       0.9448694131     -1.4955531176      0.9899676142      0.0158812668      0.0071001957     -0.0043622592      0.1138687045
H       0.4928669940     -0.3113466841      2.2522136849     -0.0010912390     -0.0128875472     -0.0079664588      0.2695854890
H       2.7775060257      1.1455019743     -0.9386053091     -0.0058728849      0.0090659523      0.0047398397      0.1083649204
H       2.3956408108     -0.6060790506     -0.9523671344     -0.0007933745      0.0125802807      0.0006209518      0.1322688257
H       0.1821890100     -0.6953264699     -0.9820727983      0.0036394722     -0.0155355811      0.0007403594      0.1162144228
H       0.2577273801      1.0359544073     -1.4103946828     -0.0003355231      0.0013989412     -0.0094130487      0.1136842056
H       2.9623857434     -1.5962875231      2.2535130653     -0.0060796417      0.0159347129     -0.0000600441      0.1100538411
H       2.7757526384      0.0434951451      2.8836022944     -0.0076826632     -0.0073702009     -0.0050525042      0.1088355229
H       4.0665672611      0.9041775133      1.1157024144      0.0034167998     -0.0108794120     -0.0048130673      0.0903882512
H       4.2991476004     -0.7243193311      0.4678770811     -0.0101801797      0.0016712841      0.0030541782      0.1042436361
H       0.3140332247      1.9409930800      1.6641087276     -0.0094920144     -0.0097036900      0.0119220885      0.1750951630
H       2.1007269413      2.0148951307      1.5903501336     -0.0144198374      0.0003255855      0.0040518607      0.1138353433
H       1.1423296235      2.6145569657      0.1922433811     -0.0141846815      0.0003940650      0.0170616146      0.0643431151
H      -1.3930443957     -0.0676971110      0.9520015055      0.0018855480     -0.0089369972      0.0139793644      0.2233875803
H      -1.4655219746      1.5693265014      0.3035992578      0.0037229209      0.0085023558      0.0010229304      0.1089537638
H      -2.2412038442     -0.9808395560     -1.2272611316      0.0005291207     -0.0064472281     -0.0002102162      0.0769944098
H      -2.3596599413      0.6661050353     -1.8785161303      0.0042548346      0.0056967127     -0.0015702363      0.0675733265
H      -3.9507164109      1.2718976423     -0.0223121981     -0.0010887589      0.0057769258     -0.0037263296      0.0954557777
H      -3.8010901973     -0.3537946352      0.6413822828     -0.0023512121      0.0003652679      0.0018861653      0.1324721272
H      -4.9075762547      0.3392310277     -2.1480776511      0.0000878780     -0.0003957032     -0.0051001270      0.0739842550
H      -4.7350379428     -1.3026408119     -1.5089555671     -0.0000088232     -0.0044046578      0.0012735992      0.0791344193
H      -6.4951373595      0.9035402975     -0.2577120401     -0.0028970764      0.0089471753     -0.0022717361      0.0366027602
H      -7.0900523970     -0.4784983177     -1.2126270657     -0.0016366667      0.0044222653      0.0089242741      0.0320658282
H      -6.3206193093     -0.7478157764      0.3726333975     -0.0026782689      0.0000096549      0.0047538983      0.0453190127
P      -1.6245089924      0.1137389536      4.1510921450      0.0060908144      0.0057907657     -0.0114499538      2.1815583030
F      -1.1925269457      1.3090855965      3.0300827238      0.0010399147      0.0086000373     -0.0065748856     -0.5445930652
F      -3.2027564127      0.3600801807      3.7732259802      0.0071543910      0.0020204264     -0.0006173457     -0.5021347647
F      -1.5217425051     -1.0184447103      2.9059897862     -0.0009697914      0.0048518529     -0.0044116944     -0.5364205757
F      -2.0032899577     -1.0770152155      5.2036262716      0.0118577901      0.0068802337     -0.0085363761     -0.4937088489
F       0.0075557447     -0.1251545767      4.4308286299     -0.0003814156      0.0037823014     -0.0166902721     -0.5269731837
F      -1.6771885130      1.2490281555      5.3268628699      0.0113420819     -0.0006464886     -0.0054408769     -0.4948466217
