43
Properties=species:S:1:pos:R:3:forces:R:3:charge:R:1 energy=-228.8248374137048 homo_lumo=3.8641732948884977 dipole="-6.495089008786688 0.2085661122316115 0.8079743118334803" free_energy=-228.8248374137048
N       1.9973251804      0.4426291805      0.0919102338     -0.3094591510      0.5706199202     -0.0264276911     -0.5504532351
C       2.2435600968     -0.8664544692      0.7564406377     -0.0991578589     -2.1482268555      1.1498205760     -0.0159523759
C       3.1102153140      0.6107812159     -0.8915194450      1.8084057027      0.7166996767     -1.7391288863     -0.0044275051
C       0.6901019439      0.4515627353     -0.6342934139     -1.6393359060     -0.0076668176     -0.3345203610     -0.0310430457
C       3.6795769923     -1.2626849060      0.4789865119      0.5368528727      0.0366642966      0.6606316756     -0.1488868440
C       3.9670471669     -0.6443981471     -0.8624440696      0.2442998288     -0.3820031086     -0.6917702585     -0.1684300330
C       2.0510984048      1.5436459772      1.0884160810      0.0349877981      0.9915720808      1.0676859444      0.0075374157
C      -0.5541953386      0.2735961030      0.2676492976      0.3885657395      0.0853894492     -0.1303750818     -0.2050417762
C      -1.8174795217      0.1011383219     -0.5859103060      0.1590401635      0.0068556961      0.1894084581     -0.1676996885
C      -3.0624744633     -0.0907876436      0.2888694042      0.0285912399      0.0362155190     -0.4546920292     -0.1696971808
C      -4.3224203237     -0.2167107999     -0.5768681523     -0.0557108647     -0.0149938851      0.2511755390     -0.2097445012
C      -5.5696558399     -0.4067209202      0.2810484470     -0.2328909160     -0.0301675571     -0.1175115903     -0.0860300213
H       1.5939005943     -1.6693273807      0.3375538983     -0.0622802840      0.6930625132     -0.0712743789      0.1461151087
H       2.0576660619     -0.8402558545      1.8547996140     -0.2108993008      0.3261169770     -0.5451172788      0.1385779910
H       3.7647363424      1.4813295328     -0.6514164080     -0.6127723360     -0.2135504710      0.2829565910      0.1620594851
H       2.7545564613      0.7847503520     -1.9335556566     -0.3045928931      0.0476242600      0.6481977261      0.1415075480
H       0.6879095853     -0.3586202738     -1.4005881217      0.3645340613      0.2132844308      0.3805677004      0.1492256264
H       0.5741094916      1.4108412731     -1.1899021508      0.3810778770     -0.2575926616      0.2807309342      0.1482810019
H       3.8086751089     -2.3668467351      0.4558831442     -0.0007518152      0.4441651582      0.2480229830      0.1129380675
H       4.3501972248     -0.8217649241      1.2492446314     -0.0719811512     -0.2893268073     -0.1956315304      0.1277939578
H       5.0469428144     -0.4117342203     -0.9802006326     -0.2512737113     -0.1258397731     -0.1913765013      0.1932382046
H       3.6452803320     -1.3385740002     -1.6706938032      0.2265625179      0.2215485913      0.1633079061      0.0937793249
H       1.3194613570      1.3905252957      1.9100908732      0.1401654129     -0.1317881377     -0.5001325171      0.1169120091
H       3.0552722455      1.5995027506      1.5664301199     -0.3045905630     -0.2246077863     -0.4288564150      0.1402998578
H       1.8400178145      2.5242496983      0.6067157317      0.1183166764     -0.5046455780     -0.0099317106      0.1157730006
H      -0.4374395624     -0.6134309814      0.9252223345     -0.0022683537      0.2150537614     -0.0910200005      0.1201301705
H      -0.6878043266      1.1724715803      0.9057071090      0.0656024095     -0.2630215224     -0.0475258323      0.1174360128
H      -1.6988765404     -0.7845127514     -1.2482541094     -0.0438815064      0.2479127325      0.0490150368      0.0976871088
H      -1.9513559011      1.0026340471     -1.2239085240      0.0090653441     -0.2625397196      0.0383869192      0.0989500960
H      -3.1713316245      0.7790271400      0.9733101058      0.0201523084     -0.2381142971     -0.0591831318      0.0930958663
H      -2.9423346108     -1.0110515581      0.9018513503     -0.0446952853      0.2482772739     -0.0313181639      0.0926734042
H      -4.4474996196      0.7011048547     -1.1916515814      0.1294543288     -0.2416796255      0.0263681605      0.0926372534
H      -4.2216434576     -1.0870249645     -1.2612616794      0.0563588175      0.2632507524      0.0467176306      0.0929538807
H      -5.7077844023      0.4613944986      0.9602215505     -0.0321849067     -0.2987219894     -0.1212051078      0.0427268938
H      -6.4615543423     -0.4884114018     -0.3756780882      0.1440281887      0.0030000883      0.3272975310      0.0532697621
H      -5.4863518130     -1.3361622768      0.8836636966     -0.1104551109      0.2959668531     -0.0941563355      0.0432182245
P       8.8074181046      0.0391432984     -0.8077672689      1.0089989957     -0.0218871342     -0.1046977926      2.0987844169
F       7.6149744976     -0.9300278055     -1.5761800111      0.1830459416      0.9639776248      0.8206587037     -0.5243323233
F       9.5753084511     -1.4247658024     -0.3381822730     -0.6655363162      1.2468006017     -0.6451113342     -0.5052506603
F       9.5626019419      0.1565215326     -2.3469933831     -0.6143177178     -0.3122432063      1.4035726376     -0.5043675962
F      10.1740401581      0.8601798860     -0.1660114287     -1.6563746732     -0.4000774970     -0.2860946440     -0.5032236516
F       7.9584695007      1.5015845808     -1.1147149987      0.6479387655     -1.1047174324     -0.1645708962     -0.5200952588
F       7.9572785914      0.0633598314      0.6857281476      0.6293656309     -0.4006463941     -0.9528931842     -0.5229259920
