43
Properties=species:S:1:pos:R:3:forces:R:3:charge:R:1 energy=-230.59826926900837 homo_lumo=6.0997576514490905 dipole="0.4760906171883783 -0.8097393713622143 -2.9865487940872693" free_energy=-230.59826926900837
N       1.9981464790      0.4644065409      0.1195438457     -0.1652859272      0.0698416100     -0.3619931782     -0.5293363765
C       2.2413224806     -0.6209157857      1.1250863218      0.3210657725     -0.3031721759      0.3853881415     -0.0182776642
C       3.1212279162      0.2918620814     -0.8556203126      0.4962746132     -0.0923828835     -0.0351524540      0.0273833392
C       0.6809074743      0.3034578937     -0.5770609056     -0.5514436729      0.0446854471      0.4257555832      0.0048002298
C       3.7566185902     -0.6785943443      1.2866345059     -0.0853435287      0.0177530110     -0.0385468288     -0.1342490909
C       4.3346165254     -0.0785894657     -0.0047648003     -0.0731200637      0.0416896357     -0.1401091327     -0.1421365655
C       2.0915783257      1.8116987926      0.7459246354     -0.0402044165      0.1831913421     -0.0197867283      0.0373947298
C      -0.5242041026      0.3580741364      0.3597585141      0.0828069012     -0.1089604021     -0.7658717046     -0.2073233526
C      -1.8093087760      0.1048175651     -0.4349419946      0.1599230364      0.1523448110      0.7060256684     -0.1476678756
C      -3.0310496007      0.1612920500      0.4876315415     -0.0528689404     -0.1666246805     -0.8901736000     -0.1597972461
C      -4.3263966338     -0.0891165491     -0.2901974353      0.0258502987      0.1313484330      0.6984090972     -0.1972392981
C      -5.5446007953     -0.0317659286      0.6298271240      0.2357048702     -0.0553421649     -0.4186187232     -0.0451612363
H       1.8477966382     -1.5499816020      0.7062831741     -0.1302780538     -0.1674306590     -0.2489173541      0.0976353237
H       1.7268162093     -0.3814299720      2.0530878602     -0.1800360528      0.0557870719      0.1399839376      0.2309226484
H       3.2491407183      1.2099720929     -1.4298416099     -0.0604790486      0.2151331230     -0.1794595387      0.1060989773
H       2.8548374977     -0.5232099336     -1.5327777041     -0.1630046412     -0.1870788255     -0.1091881046      0.1162606366
H       0.7085920238     -0.6612828908     -1.0922131184      0.0933138499     -0.2184466980     -0.1164771978      0.1087606867
H       0.6209920250      1.0969593589     -1.3277202832      0.0316529850      0.1859159277     -0.2037823748      0.1179339462
H       4.0804728674     -1.7102144216      1.4312871496      0.0569440529     -0.2370526697      0.1051071565      0.0848246046
H       4.0644076200     -0.0970533653      2.1570977949      0.0146388418      0.0297917191      0.2092203792      0.1313155295
H       4.9383735787      0.8042923253      0.2132326962      0.1975781909      0.1807058162      0.0145811074      0.0860195574
H       4.9610910621     -0.7945276439     -0.5394743211      0.1998611692     -0.0880036729     -0.1767402967      0.0911331693
H       1.3175759652      1.9158176039      1.4993837745     -0.0631622947      0.0111283210      0.1797445733      0.2035159440
H       3.0619620258      1.9162165970      1.2226102843      0.1857253693      0.0277695549      0.1685403819      0.1218984658
H       1.9682758939      2.5662854747     -0.0291937958     -0.0265412061      0.1404986864     -0.3288933780      0.0436099630
H      -0.4248043811     -0.3962366207      1.1426723700      0.0070935461     -0.1123896468      0.2062770305      0.1432697277
H      -0.5868127695      1.3336651643      0.8450829170     -0.0253925004      0.1691348734      0.1816773483      0.1386109700
H      -1.7557406542     -0.8779399965     -0.9166196652     -0.0317489657     -0.2593637581     -0.1809073546      0.0732671653
H      -1.9073249316      0.8591265222     -1.2235268585     -0.0745426252      0.1687213268     -0.2554220206      0.0754544379
H      -3.0759855237      1.1435573150      0.9687030426     -0.0043175366      0.2354441665      0.1949386043      0.0980929363
H      -2.9246262521     -0.5913882430      1.2753917516      0.0311736854     -0.1487032402      0.2588578552      0.0960327743
H      -4.4292572191      0.6640942478     -1.0789927835      0.0046505317      0.1521049948     -0.2524572404      0.0771809660
H      -4.2785077364     -1.0721875485     -0.7713193174      0.0385403627     -0.2314582323     -0.1900561883      0.0762627914
H      -5.6197545359      0.9479761700      1.1030014042     -0.0619864026      0.2823676331      0.1819233126      0.0328916484
H      -6.4544066874     -0.2121722873      0.0570325165     -0.3680748445     -0.0447423350     -0.0765295911      0.0289870598
H      -5.4691269477     -0.7892234096      1.4108933180     -0.0182588835     -0.2096070773      0.2673040406      0.0318219043
P       1.2571686393      1.4784391229      4.3048622054      0.1301711295     -0.1159916431     -0.1516625741      2.1915292049
F      -0.1208845358      1.8195872867      5.0931798482     -0.2256747165      0.0608288542      0.1286116918     -0.4932297083
F       0.3586087502      0.7288413320      3.0751285555     -0.0457189194      0.0090122898      0.1730447239     -0.5413347210
F       1.1457604391      2.8877667695      3.4422561779     -0.0459142481      0.2313761318     -0.0602254724     -0.5201211936
F       2.6511656491      1.1118468006      3.4172659342      0.0244080973      0.0416136099      0.2665923636     -0.5421130117
F       2.1678733280      2.2048205831      5.4346311382      0.1439700267      0.1283657222      0.1920221470     -0.4923579216
F       1.3869867271      0.0297145657      5.0489827612      0.0120501582     -0.2198033482      0.1169658919     -0.5025640757
