26
Properties=species:S:1:pos:R:3:forces:R:3:charge:R:1 energy=-142.06414414262872 homo_lumo=5.999785312957199 dipole="-0.326087122674378 -2.451850843677991 1.018102331098007" free_energy=-142.06414414262872
N       0.1348209280      0.6337399445     -0.0723494602      0.4430949910      0.0464306480      0.0622497498     -0.5657018737
C      -1.2294508897      1.2557782009     -0.2849871378     -0.8615369342     -0.1313013161      0.1143908538      0.0098295867
C      -0.0988227273     -0.7277662908      0.5179221649     -0.4805345256     -0.4291383372     -0.0080852463      0.0409713989
C      -2.2472131145      0.2395856768      0.2159717630      0.2877091218     -0.1426492103     -0.0387689788     -0.1285231466
C      -1.5161664367     -1.0965225807      0.1069910045      0.1355863743      0.1872474691      0.1351016609     -0.1496651883
C       0.9617665269      1.4612947049      0.8474348824      0.1567431343      0.1290847706      0.1080687024      0.0501175334
C       0.8451952475      0.5107401186     -1.3754640549      0.1228903654     -0.0669007503     -0.2038187584      0.0502189479
H      -1.3440274264      1.4566771555     -1.3503515774      0.0883757786      0.1388729660     -0.0927337932      0.1678755718
H      -1.2700631141      2.2061285799      0.2460957595      0.0887336038      0.2113430690     -0.1045763568      0.1691626072
H      -0.0246592125     -0.6442972852      1.6046046857      0.0178042985      0.0802789623      0.2304225169      0.1231460221
H       0.6642350827     -1.4167531233      0.1560645365      0.2581411427     -0.1180178469     -0.0490045772      0.1097919980
H      -3.1558549220      0.2642754302     -0.3859295543     -0.2731337083      0.0486921565     -0.0844835571      0.0839176116
H      -2.5119836138      0.4388445132      1.2577456849     -0.1087070817      0.0269020421      0.2808325392      0.0813861632
H      -1.9332697736     -1.8585531301      0.7658504626     -0.0985629959     -0.2934583177      0.0996587646      0.0847752226
H      -1.5359159229     -1.4669380907     -0.9208998623     -0.0152759131     -0.1390950904     -0.2737022238      0.0936758408
H       1.1482198913      2.4233148189      0.3711967930      0.0670645880      0.1526172323     -0.0524918778      0.2027723254
H       0.4182321323      1.6027995503      1.7791552381     -0.2063894855     -0.0137122949      0.2538462177      0.0491486340
H       1.9013660107      0.9441228244      1.0334368605      0.2664641840     -0.2356988647      0.0537618351      0.0574904449
H       0.2672046597     -0.1359972791     -2.0319545123     -0.2054625984     -0.2200678632     -0.1526558476      0.0581125499
H       0.9398825115      1.5044924961     -1.8110165175      0.0154860392      0.1592910165     -0.0949438277      0.2003716081
H       1.8318413139      0.0856319301     -1.1999118236      0.2716614015     -0.1491341928      0.1147717324      0.0550144210
B       0.3667664285      3.9637242506     -1.4850919530     -0.1230486232     -0.3832032102      0.1765250659      1.3941771036
F       0.4274439727      5.2162678978     -2.0107051988      0.0430973490      1.0127124933     -0.4197385145     -0.5139635937
F      -0.2377212730      3.9540244943     -0.2003720583     -0.3130694810      0.3748049226      0.6652288101     -0.5749766230
F       1.6556413418      3.3853943298     -1.3328225401      0.8205538275     -0.0615261801     -0.0331156072     -0.5738837938
F      -0.3812369212      3.0775225357     -2.3047946759     -0.3976848530     -0.1843742732     -0.6867392823     -0.5752413721
