42
Properties=species:S:1:pos:R:3:forces:R:3:charge:R:1 energy=-222.31460652247787 homo_lumo=3.5749557099462095 dipole="-1.0313335632790852 0.48608577167773553 2.1697658290784" free_energy=-222.31460652247787
N      -0.0082849657     -0.1277793750      0.1129165440      0.0011285269      0.0029148338     -0.0026930633     -0.4863238752
C      -0.8544226299      0.6174460769      1.1202964225     -0.0062025811     -0.0079586426     -0.0101282879     -0.0276996133
C      -0.8495930828     -0.6766907132     -1.0381260702     -0.0004482861      0.0006054028      0.0049245858     -0.0683580579
C       0.6724309021     -1.3009147516      0.8055754512     -0.0010282941      0.0019419788      0.0004305095     -0.0257485026
C       1.0238822949      0.8321960963     -0.4737122470     -0.0002876317     -0.0077230980      0.0120637847     -0.0781270321
C      -2.0169890444     -0.1545975935      1.7258104606      0.0056063235      0.0107819336     -0.0032710666     -0.2458599859
C      -1.7822867541      0.3245375011     -1.7013100326      0.0121746340     -0.0079375907     -0.0065960266     -0.2448824885
C       1.5926366115     -2.1478597757     -0.0799334489     -0.0039036956      0.0087845620     -0.0047017801     -0.2566950198
C       2.0000958858      1.4537024555      0.5107564848     -0.0053462680     -0.0022080404     -0.0103801763     -0.2586397367
C      -2.8256194484      0.7713820120      2.6346945104     -0.0099782813     -0.0090426933      0.0024830301     -0.0646351167
C      -2.2741486076     -0.2752485120     -3.0218309320     -0.0052638039      0.0097633814      0.0007678372     -0.0664947959
C       3.0195338819     -2.2224230699      0.4605364174      0.0034723453     -0.0032384798     -0.0099657716     -0.0869442325
C       3.0297106736      2.2693701228     -0.2777778935      0.0047699447     -0.0042512487      0.0125858778     -0.0662745995
H      -1.2244025534      1.5135192817      0.5987738045     -0.0018972233     -0.0044217861      0.0054415420      0.1459502974
H      -0.1711392242      0.9507734133      1.9151500604     -0.0072451316     -0.0008155274     -0.0007398693      0.1503974480
H      -1.4070282101     -1.5358057845     -0.6330139389      0.0063117660      0.0086701105     -0.0118263270      0.0997967515
H      -0.1144406369     -1.0204357110     -1.8007761508      0.0087562182      0.0046543661      0.0022952066      0.2346886304
H      -0.1484643734     -1.9043288049      1.2146628229      0.0060849635      0.0027759637     -0.0081456794      0.1399675066
H       1.2181179799     -0.8673161872      1.6574576813     -0.0037899358      0.0011793577     -0.0025801340      0.1190193473
H       0.4391003194      1.6248417629     -0.9609196043      0.0022604509      0.0053778588      0.0088580276      0.1497167030
H       1.5266918500      0.2790523135     -1.2985361609     -0.0098338326      0.0138916016      0.0050097716      0.2181765907
H      -2.6676571524     -0.5548354158      0.9323636346     -0.0029348938      0.0019510865      0.0110834197      0.1225470786
H      -1.6505007956     -1.0109115560      2.3138794629     -0.0088645757      0.0080447626     -0.0023520823      0.1028388700
H      -2.6342897109      0.5943206894     -1.0517926147      0.0147832711     -0.0021590793     -0.0122685044      0.0795692786
H      -1.2343019786      1.2503006773     -1.9393338555     -0.0054571758     -0.0090675276     -0.0042604970      0.1175930350
H       1.1686043073     -3.1633333586     -0.1540638136      0.0087587031      0.0150954369     -0.0020072710      0.0810184816
H       1.6286494214     -1.7663978248     -1.1231710165      0.0042979444      0.0022862976      0.0051409640      0.1890557386
H       1.4873965084      2.1147146277      1.2314022609      0.0180770922     -0.0104784009      0.0069195308      0.0750847913
H       2.5281122498      0.6812484169      1.0920018105      0.0011325047     -0.0042966392     -0.0174561108      0.1226376065
H      -3.6641958490      0.2299047321      3.0959027351      0.0009190906      0.0033268958     -0.0014473421      0.0518900400
H      -2.2007073329      1.1788746556      3.4448824109     -0.0030649261      0.0022417524      0.0003433239      0.0400283648
H      -3.2406287566      1.6187890404      2.0670388878     -0.0027299031      0.0020545628      0.0018490492      0.0451877704
H      -2.9579961639      0.4184726529     -3.5329244476      0.0039221687     -0.0112705953      0.0072440115      0.0309484416
H      -1.4056003510     -0.4703178410     -3.6719092477     -0.0127144979     -0.0154338134     -0.0036916622      0.0883432641
H      -2.8088191738     -1.2249488232     -2.8586985305     -0.0005143177      0.0064008961      0.0133130012      0.0251150266
H       3.6255212721     -2.8958227989     -0.1642780721     -0.0086129902      0.0098718109      0.0023962768      0.0561347365
H       3.5025493999     -1.2329269724      0.4324493627      0.0037950530     -0.0084567904      0.0026154706      0.0656823684
H       3.0533190347     -2.5959816197      1.4978566942     -0.0005750605      0.0005544356     -0.0077339340      0.0098966074
H       3.7592099052      2.7362889485      0.4000820464     -0.0036810850     -0.0084215833     -0.0076723784      0.0365545970
H       3.5677929293      1.6265952543     -0.9904493666     -0.0015900922      0.0011033557     -0.0057498622      0.0704578831
H       2.5409847495      3.0685577469     -0.8568264791      0.0007524168     -0.0060344317      0.0030304034      0.0417018833
Cl      1.5665599682     -0.8106223491     -3.3004040487     -0.0010389347     -0.0010566760      0.0268722024     -0.7333160819
