49
Properties=species:S:1:pos:R:3:forces:R:3:charge:R:1 energy=-275.57761895466706 homo_lumo=4.318575057193351 dipole="-1.47968981030671 0.143053978873749 2.4266209374388614" free_energy=-275.57761895466706
N       2.2187964476      2.0262740196      0.9979504428      0.4337871663      0.0695622536      0.1185341778     -0.5044666209
N       0.6083942406      2.3322658336     -0.3943031648     -0.2932636703      0.1775543458     -0.3104577448     -0.5052169073
C       3.4858734856      1.5401413871      1.5328320826     -0.0311167077     -0.4740556496      0.3126230309     -0.0108056208
C      -0.1585426108      2.2557466766     -1.6349481720     -0.0091151175     -0.5147091393     -0.3381359396     -0.0172355394
C       3.3436226029      0.0779911944      1.9701432197     -0.0382136608      0.1639308780     -0.6093961138     -0.1649013919
C      -0.5671432079      0.8056547229     -1.9030219093     -0.3176127120      0.3212819423      0.6125062593     -0.2117821694
C       2.9723137592     -0.8404176543      0.8021775338      0.2036878684     -0.1825028360      0.7978686961     -0.2322929217
C      -1.4511685813      0.2285296194     -0.7951980251      0.3172176382     -0.3341820287     -0.6537395434     -0.1836458444
C       1.8424179684      1.8588558445     -0.2661349960      0.1879375741      0.0033640772     -0.1845350495      0.5571965535
C       1.1975083486      2.6094957696      1.6984328592     -0.1652659551      0.1185851654      0.2903437750      0.1990477735
C       0.1796889870      2.8042019417      0.8162597114     -0.1855452748      0.1284856195      0.2182479078      0.2021704856
C       2.9231435508     -2.3106289479      1.2266819525     -0.1957953554      0.2509669332     -0.6031969716     -0.1925425794
C      -1.7584162095     -1.2492155247     -1.0589703431     -0.2177213068      0.3391025874      0.6084630875     -0.2202335068
C       2.4883279780     -3.1922711211      0.0574155474      0.1434594187      0.0867278779      0.4324553527     -0.0680271097
C      -2.6185022768     -1.8464680244      0.0527344767      0.2516548636      0.0291490362     -0.4100965645     -0.0487490201
H       3.7612393765      2.1723080176      2.3802831363      0.0561426616      0.2432522259      0.0996911636      0.0957886758
H       4.2356908665      1.6419188112      0.7434432203      0.0937070055      0.0758962324     -0.0830656222      0.1594111523
H       0.4848264979      2.6174134503     -2.4420888235      0.1035937531      0.1780419222     -0.0634201616      0.1771769636
H      -1.0292400646      2.9078287660     -1.5351492204     -0.1402310212      0.1706279081      0.0930110402      0.0824551407
H       2.5858562138      0.0089739185      2.7572989333     -0.1663683782     -0.0392344671      0.2778059980      0.0851011211
H       4.3027851167     -0.2315532144      2.3948850729      0.2614541654     -0.0879268039      0.1646624944      0.0942703117
H      -1.0982312990      0.7812187540     -2.8580624972     -0.0668722887     -0.0402776507     -0.3055568424      0.0902642066
H       0.3354995154      0.1985885595     -2.0059586694      0.1950461952     -0.1277536792     -0.1052843985      0.1789917820
H       3.6999558933     -0.7177483220     -0.0056070007      0.1078858466      0.0433454893     -0.2659754158      0.1269490621
H       1.9909742061     -0.5522294642      0.4109045279     -0.2023062164     -0.0195336318     -0.1610593980      0.1598312495
H      -2.3861048955      0.7965764972     -0.7326588958     -0.2771586686      0.1528791563      0.0830188128      0.0694383673
H      -0.9383436810      0.3233056504      0.1688864467      0.0794510537     -0.0151759381      0.2924523742      0.1183396063
H       2.4393482710      1.4285801817     -1.0502723443     -0.0045968607     -0.2527561524     -0.0600028450      0.2270000911
H       1.2778624232      2.8428491879      2.7456578681      0.0366146054      0.0520549438      0.2443445526      0.0301299572
H      -0.7950366090      3.2397183938      0.9491022165     -0.2229819599      0.0944708840      0.0219566772      0.0325511176
H       2.2198482672     -2.4292922656      2.0585759591     -0.1244653702     -0.0337092500      0.2718356020      0.0693740583
H       3.9124171466     -2.6240552893      1.5763092555      0.2483841348     -0.0655266278      0.1555755879      0.0739688079
H      -2.2783679933     -1.3474560233     -2.0172601348     -0.0535638435     -0.0430967286     -0.2953300126      0.0789570609
H      -0.8175330730     -1.8050608231     -1.1298812687      0.2415048791     -0.1177433154     -0.1044414762      0.1303485245
H       3.1794334415     -3.0833941279     -0.7787040326      0.1542122364      0.0188259920     -0.3068455275      0.0437135819
H       1.4901588808     -2.9099392084     -0.2810636462     -0.2780320761      0.0562625120     -0.1543694367      0.0672932390
H       2.4696576902     -4.2383959238      0.3630904173     -0.0465860927     -0.3709523615     -0.0119674302      0.0227120319
H      -3.5716583654     -1.3206011752      0.1245439692     -0.3036777409      0.1287579869      0.0668135708      0.0255044510
H      -2.1073615500     -1.7715152631      1.0138770937      0.1231630655     -0.0021612564      0.3186046780      0.0252107972
H      -2.8166603141     -2.8982279766     -0.1537057630     -0.1336711566     -0.3479528115      0.0446266413      0.0347444629
N       4.0609820324      1.3544928156     -3.8914531334     -0.0449506584     -0.0411647003      0.0532523484     -0.8412740254
S       4.0435484244      2.5976410670     -2.9148513243      0.3285736003      0.1188937416     -0.3617130942      1.9362738724
S       2.9419322800      0.2534360619     -3.6650593316      0.0731563318      0.0613243625     -0.4542678687      1.9646545519
F       4.5164690179      1.9666944296     -1.4539137070      0.3402287051     -0.3384811747      0.5032758201     -0.4972994077
F       1.5396750943      1.0189243263     -4.0207465538     -0.4535176038      0.3405258179     -0.2969733821     -0.4758293059
O       5.1007903942      3.4780222002     -3.2642958974      1.3108418341      0.9420143655     -0.3904669580     -0.7084703381
O       2.7545911657      3.1500072910     -2.5942701681     -1.2634808370      0.3365712004      0.3067003229     -0.7718316472
O       2.7261184016     -0.1636553130     -2.3016583847     -0.1892060114     -0.1436512869      1.3472178697     -0.7947001981
O       3.0733049159     -0.7455194634     -4.6650754898      0.1336119418     -1.1099079675     -1.2055900445     -0.7095649031
