49
Properties=species:S:1:pos:R:3:forces:R:3:charge:R:1 energy=-275.99418095006575 homo_lumo=3.68579186463533 dipole="-1.7247552843214071 -0.746052484867586 1.764233328949471" free_energy=-275.99418095006575
N       0.3433349090     -1.0151429583     -1.5110433470      0.0057129346     -0.0059915481      0.0012446010     -0.5028667486
N       1.9096783866     -1.2078787978     -0.0179386641     -0.0096083520     -0.0052480324     -0.0082611232     -0.5081863481
C      -0.8404436197     -0.5577531487     -2.2572935379     -0.0028946924     -0.0014302972     -0.0059341731      0.0064659750
C       2.7424901440     -1.0100802146      1.1809605005      0.0021569010     -0.0052403066      0.0026518809      0.0015559349
C      -0.6177760894      0.7602007202     -2.9948330585      0.0045028327      0.0081405270      0.0026910291     -0.2101068428
C       3.7054459935      0.1679748709      1.0691361091     -0.0043662073      0.0071097143     -0.0011855918     -0.2133950002
C       0.8233928955     -0.5013126068     -0.3682402917     -0.0015310366      0.0007959529      0.0032456330      0.5771746739
C       1.1575559985     -2.0497157147     -1.9115804463     -0.0096324123      0.0033989824     -0.0017355950      0.2496544054
C       2.1364046367     -2.1747279976     -0.9730429285     -0.0034296868      0.0035008988      0.0081596910      0.2287587061
C      -0.8730959714      1.9991795066     -2.1381466623      0.0090652266      0.0036013144     -0.0062450425     -0.2500229021
C       3.0649285690      1.5271586375      1.3446341771      0.0053303660      0.0012689734     -0.0066817961     -0.2581645886
C      -0.6629501491      3.2894991543     -2.9257923811     -0.0057796802     -0.0113204712     -0.0082845802     -0.0771240733
C       4.0879561963      2.6573889708      1.2540099410      0.0036402558     -0.0148592551      0.0050158747     -0.0704847229
H      -1.0675892104     -1.3743935241     -2.9564043852     -0.0036893694      0.0120630788     -0.0122883714      0.1128471980
H      -1.6771813754     -0.4892686801     -1.5427316495     -0.0024208391      0.0063032677     -0.0122266263      0.1005250947
H       2.0617927283     -0.8938577598      2.0400536062      0.0062482978      0.0029319897     -0.0003116409      0.1027126003
H       3.2838187586     -1.9577212514      1.3130660776      0.0122365960      0.0070278656      0.0032274593      0.1117785856
H      -1.3053204174      0.7716981548     -3.8589847122     -0.0051793483      0.0040064472     -0.0020380518      0.0907613708
H       0.4093373216      0.7668782942     -3.3969698165     -0.0014122515      0.0048728791     -0.0056741129      0.1958015890
H       4.1789163076      0.1610132871      0.0729070495      0.0015744816      0.0016440311      0.0030061544      0.1821777554
H       4.5130267094     -0.0078109073      1.8021710178     -0.0003114252     -0.0014272832      0.0043321989      0.0918986897
H       0.4039792391      0.3290839770      0.1817277510     -0.0034601385     -0.0090877641     -0.0014198360      0.1110103112
H       1.0187047616     -2.5623790331     -2.8546330435      0.0122613515      0.0025935172     -0.0083066247      0.0608327700
H       2.9906680890     -2.8364471831     -0.9262437118      0.0080690172      0.0039546668     -0.0155863191      0.0569606361
H      -1.9077146026      1.9561748160     -1.7466057814      0.0060915304      0.0016573537      0.0070122325      0.0660294007
H      -0.1882071010      2.0044091574     -1.2739952971      0.0088469702      0.0031721792     -0.0067628468      0.1371885420
H       2.2727508641      1.7215870935      0.6041313384      0.0034842310      0.0002248333     -0.0066665225      0.1584892504
H       2.5992920874      1.5096523677      2.3488363501     -0.0075372806      0.0039017828     -0.0019122187      0.0612725971
H      -1.2900334106      3.3044723781     -3.8318780738     -0.0039226919      0.0037220233      0.0110625237      0.0219681846
H       0.3877244162      3.3829237994     -3.2324657368     -0.0032201798     -0.0007248236     -0.0023590262      0.1023389870
H      -0.9181168947      4.1716445090     -2.3205012136     -0.0049923071      0.0036383022      0.0124891482      0.0262762957
H       4.5168298372      2.7002275202      0.2416517243     -0.0024579051     -0.0011507999      0.0026910987      0.0946179881
H       4.9110465259      2.5022131393      1.9705968922     -0.0124736246      0.0047384310      0.0012679921      0.0215088086
H       3.6244581929      3.6305289008      1.4715747239     -0.0152644400      0.0061078751      0.0007074239      0.0271207755
N       2.9776639229      0.0698224871     -3.0722940135     -0.0019115369     -0.0040076827      0.0073365418     -0.8873855047
S       3.8880022618     -0.8455803820     -4.0474918860      0.0092343134     -0.0218507130     -0.0035608967      1.6322363580
S       3.3971334369      1.5418221411     -2.5829904790      0.0020226667      0.0102449975      0.0095610085      1.6379943150
C       5.3968491959     -1.4166422827     -3.0284927941      0.0221075404      0.0147467151      0.0142900434      1.1668232534
C       3.3057876447      2.7095311005     -4.0876251672     -0.0019200813     -0.0116347138     -0.0213049956      1.1811236128
O       3.1361665981     -2.0849740249     -4.2384125491      0.0223443320     -0.0060902123      0.0143578129     -0.7591559480
O       4.4759725222     -0.1512061004     -5.1831616697      0.0073693460     -0.0085672201      0.0097886192     -0.7155812525
O       4.7665734385      1.6747472024     -2.0929438422     -0.0094366992      0.0034283239      0.0031274103     -0.7447296458
O       2.2889059794      2.0101024351     -1.7462391741     -0.0033758259      0.0000311359     -0.0118358493     -0.7824520342
F       5.8246491333     -2.6052475272     -3.5200471560      0.0037469035      0.0047016182      0.0124412619     -0.4358122082
F       5.0703414737     -1.6075430299     -1.7133804829      0.0067180375     -0.0077870661      0.0143143933     -0.4677503639
F       6.4100490096     -0.5370295582     -3.0879177753     -0.0181750958     -0.0080963202      0.0108660387     -0.4226179194
F       3.0093612845      3.9587059833     -3.6435977624     -0.0102281748     -0.0019120409     -0.0107532985     -0.4432453429
F       2.3215535877      2.3173230624     -4.9340047442     -0.0013618504      0.0007567052     -0.0091908724     -0.4443157070
F       4.4696590796      2.7618944926     -4.7553324734     -0.0127709989     -0.0078598324      0.0056379400     -0.4225075116
