37
Properties=species:S:1:pos:R:3:forces:R:3:charge:R:1 energy=-207.73747047176317 homo_lumo=2.919656552808352 dipole="1.4854188745663857 -1.2046940722432986 2.39845155459707" free_energy=-207.73747047176317
N       1.8112239915     -0.2647480569     -0.8655129391     -0.0092847331     -0.0098668922     -0.0120121000     -0.5106123148
C      -1.9891049459     -0.6911319844     -0.5230121122     -0.0151994938     -0.0130205924     -0.0022763847     -0.1845776800
C      -0.5734294622     -0.3003820247     -0.0968798976     -0.0035781226      0.0051974279      0.0097348721     -0.1974117533
C      -3.0479030352     -0.1860381428      0.4561623525     -0.0054901840      0.0104717116      0.0146039795     -0.1671005416
C       0.4473027685     -0.8171024453     -1.1025193402     -0.0045993767      0.0013348111     -0.0132699340     -0.0417412035
C      -4.4731162495     -0.5482715683      0.0388933907      0.0146133056     -0.0128072933     -0.0191461068     -0.2064147459
C      -5.5224284149     -0.0423013601      1.0260144585     -0.0141702871     -0.0108394385     -0.0146269217     -0.0653098289
C       2.8450897340     -1.0924666700     -0.5962961137     -0.0097466189     -0.0061172121      0.0038651976      0.2896681250
C       2.0021571662      1.0665964333     -0.9956858855     -0.0076548271      0.0075852876     -0.0018152629      0.2943709056
C       4.1241621175     -0.5983620341     -0.4375903223      0.0051726006      0.0074308028      0.0097410758     -0.0355944649
C       3.2667434787      1.6074423238     -0.8324166866     -0.0093516069      0.0146299066     -0.0123620504     -0.0103363821
C       4.3421633936      0.7739459953     -0.5553039062     -0.0072504335     -0.0021420262      0.0049969367      0.0359969156
H      -2.0661362219     -1.7913129866     -0.6128553233      0.0041360290      0.0114532386      0.0028933531      0.0776213872
H      -2.1781483085     -0.2703526389     -1.5264862617      0.0057263881     -0.0093135157      0.0090757897      0.1445654418
H      -0.5185615578      0.7996965411     -0.0504693098     -0.0001267065     -0.0011951724     -0.0132371643      0.1324062807
H      -0.3443565961     -0.6910763316      0.9115612631      0.0115328935      0.0067393823     -0.0079527062      0.0814583738
H      -2.8492512423     -0.5955661797      1.4655120787      0.0063758492      0.0061629196     -0.0114185187      0.0775110009
H      -2.9660715698      0.9144415419      0.5408365991      0.0075632374     -0.0210837952     -0.0010820078      0.0942157580
H       0.1757589886     -0.5274759433     -2.1301374601      0.0012069382      0.0093935701     -0.0034377947      0.2344110210
H       0.5401204516     -1.9111833888     -1.0528081744      0.0032788661     -0.0046889487     -0.0082721235      0.0945682444
H      -4.6715965450     -0.1298160611     -0.9643954272      0.0079617603     -0.0046745852      0.0122788239      0.0979552509
H      -4.5553490865     -1.6465846127     -0.0605024616      0.0080594845      0.0111093988      0.0038612031      0.0825316084
H      -5.4827809886      1.0550802569      1.1149077245      0.0071563971      0.0085517199     -0.0009987263      0.0363983469
H      -6.5403925259     -0.3165724872      0.7071390074      0.0189548525      0.0033577373      0.0042826349      0.0391703874
H      -5.3582948642     -0.4655048480      2.0299193311      0.0074904364     -0.0069982179      0.0099436589      0.0291874989
H       2.6070561120     -2.1513304056     -0.5284677326     -0.0122346323     -0.0149518311      0.0028617106      0.0940779989
H       1.1244511214      1.6505850753     -1.2722468072     -0.0109659206      0.0102354251     -0.0179460311      0.1825709247
H       4.9415293392     -1.2901917462     -0.2345662429     -0.0138378584      0.0012775516      0.0109131675      0.0597209677
H       3.3916047069      2.6828584395     -0.9591593411     -0.0021572156     -0.0110490872     -0.0066134294      0.0669400879
H       5.3469668690      1.1838965312     -0.4436449232      0.0051346257      0.0024608947      0.0096040321      0.0621805608
P       0.0503273644      1.6378835304     -4.1088229121      0.0004337467      0.0032939799      0.0018922019      2.1875397690
F      -0.6174664975      0.1140526115     -4.1095110911     -0.0035141574     -0.0058685907      0.0184535824     -0.5181514932
F      -0.4341419033      1.7838886545     -2.4823374264      0.0094257878      0.0097888175      0.0147392948     -0.5425852144
F       1.4919730179      0.9432808207     -3.5652641514     -0.0025394359      0.0029703003      0.0109284722     -0.5292115435
F       0.7503384509      3.1201717862     -3.9899890258      0.0139795866      0.0085608375     -0.0102600755     -0.5037353472
F       0.5491896074      1.4623918880     -5.6508751527     -0.0029069551     -0.0133412767     -0.0042296877     -0.4904033197
F      -1.3721590414      2.2875453679     -4.5740747335     -0.0035942199      0.0059527546      0.0062870388     -0.4918810221
