58
Properties=species:S:1:pos:R:3:forces:R:3:charge:R:1 energy=-312.0227481206748 homo_lumo=4.764838604756249 dipole="-3.8260260223306313 -1.1560340751910299 3.0383990864536177" free_energy=-312.0227481206748
N      -0.0184130516      1.9864196135     -0.0024206148     -0.0858268417     -0.1962163615      0.0547082294     -0.5220518042
C      -0.6945309549      2.8918087324     -0.9818666574     -1.3855387827      1.0007419478     -1.7274487232     -0.0130274572
C       0.6461010946      2.9017532932      0.9756962845      1.4395394038      1.0205510836      1.6885336452     -0.0149768557
C      -1.0337340606      1.1462302903      0.7129944770     -1.0712125081     -1.1002364995      0.3471183591     -0.0387022338
C       1.0082598053      1.1605888558     -0.7171854769      1.3319176359     -1.1487435350     -0.4820187492     -0.0883242381
C      -0.2172579753      4.3092505574     -0.7291947809      0.4706458304      0.4707342608     -0.6818325523     -0.1502900824
C       0.1423977044      4.3104010408      0.7285132464     -0.4161136951      0.4292578937      0.6278118216     -0.1383044948
C      -1.7764026885      0.1266694589     -0.1848102652      0.2892791103      0.2824070149      0.1595665441     -0.2149150161
C       1.7756368085      0.1629712402      0.1836980653     -0.3538006816      0.2883102428     -0.1312478253     -0.2129549969
C      -2.8775837303     -0.5911790125      0.6065933975      0.1558923442      0.1181029014     -0.1788284054     -0.1670682991
C       2.8902820985     -0.5319432709     -0.6086056835     -0.0030289261      0.1820241394      0.1048230206     -0.1900000629
C      -3.6283790504     -1.5994461065     -0.2722034721     -0.0433226888      0.0921460029      0.4357802328     -0.1707513164
C       3.6584880950     -1.5287100946      0.2677329094     -0.0280663462      0.1033709406     -0.4184746301     -0.1672624548
C      -4.6921234228     -2.3488027936      0.5390904268      0.0095726456     -0.0629330771     -0.2318375506     -0.2082831971
C       4.7309675758     -2.2607445505     -0.5474495722      0.0411152343     -0.0321002196      0.2109454264     -0.2101558155
C      -5.4454716990     -3.3511625581     -0.3296345240     -0.1990158827     -0.1596856764      0.1260211768     -0.0852980525
C       5.4981050894     -3.2564506662      0.3166816918      0.1771981911     -0.1562853991     -0.1234021323     -0.0816335645
H      -0.5002532727      2.6156421013     -2.0438195183      0.0866487853     -0.3014523708      0.6090525623      0.1605840563
H      -1.8020032183      2.8970640807     -0.8571148083      0.4704982275     -0.4954237091      0.2849463229      0.1364464846
H       0.4635154662      2.6189947860      2.0379355875     -0.0234475900     -0.3273473829     -0.6147715386      0.1297411997
H       1.7525377144      2.9289649609      0.8437698831     -0.4901687982     -0.4932285104     -0.3177240868      0.1767843682
H      -0.5589603582      0.5911075246      1.5517821335      0.1980373705      0.3053789521     -0.4178335999      0.1550331229
H      -1.7917013850      1.8092970684      1.1913568376      0.4440679896      0.0926390264     -0.3251963344      0.1440373703
H       0.5409047956      0.5921451278     -1.5509895412     -0.1819389874      0.3409342031      0.3878800331      0.1563086124
H       1.7493349408      1.8342640720     -1.2039358728     -0.3519704731      0.1384564517      0.2222470277      0.2401611126
H       0.6872434529      4.5179709637     -1.3424363289     -0.2928010881      0.0272400007      0.0836948606      0.1526526560
H      -1.0054379759      5.0607187978     -0.9532800367      0.3537755216     -0.3114541490     -0.1601458097      0.0944093827
H      -0.7654346604      4.4998250216      1.3428131562      0.2828680462      0.0797234250     -0.0716822991      0.0888404564
H       0.9164427059      5.0755797615      0.9556073162     -0.3333678657     -0.3197877345      0.1319655878      0.1101125473
H      -2.2325125789      0.6357221646     -1.0598750981      0.1588485507     -0.1136780513      0.1371350459      0.1190099980
H      -1.0681211404     -0.6414428347     -0.5591263050     -0.1135398016      0.2549256268     -0.0033192247      0.1357111212
H       2.2242060234      0.6854410581      1.0547134064     -0.1237850224     -0.0969900070     -0.1391370624      0.1072856812
H       1.0849909832     -0.6177664544      0.5649703822      0.0877225889      0.1791178581      0.0419608802      0.1044546877
H      -2.4176938456     -1.1253885683      1.4673101947     -0.1797865988      0.1567794860     -0.1078887229      0.0953898800
H      -3.5993425212      0.1579866133      1.0008532513      0.1575858092     -0.2038335664      0.0299652035      0.0897783647
H       3.5983722760      0.2319156742     -0.9995258480     -0.2309020726     -0.2127043674     -0.0959445085      0.1651150882
H       2.4411696785     -1.0716025501     -1.4715184871      0.1894943241      0.1881006252      0.1075764729      0.0952783967
H      -4.1176210264     -1.0601761547     -1.1134339429      0.1609440010     -0.1833262705      0.1058642586      0.0933693792
H      -2.9053359062     -2.3318206887     -0.6942648904     -0.1839050316      0.1856798062     -0.0109380025      0.0957913083
H       4.1415392592     -0.9826871807      1.1082251419     -0.1369145042     -0.1724182488     -0.1079184669      0.0849895661
H       2.9478792716     -2.2724858273      0.6910131164      0.1681655040      0.1339606372      0.0398481828      0.0722402097
H      -5.4200357549     -1.6238757826      0.9649240224      0.2473651580     -0.1279598686      0.0251911033      0.0894601717
H      -4.2076433462     -2.8948170578      1.3781177387     -0.0999737789      0.2427010497     -0.0972969090      0.0903244882
H       4.2525482293     -2.8100771079     -1.3877953515      0.1039958723      0.2607901314      0.0986862608      0.0897493910
H       5.4484593477     -1.5244909601     -0.9715861710     -0.2955438752     -0.1428268908     -0.0338997062      0.1145736170
H      -5.9659845017     -2.8278070813     -1.1593178746      0.1241704460     -0.2418722722      0.1594396475      0.0428833853
H      -6.2021543147     -3.8800077120      0.2874712036      0.1529492063      0.0480539117     -0.3172016005      0.0497877446
H      -4.7431763386     -4.1014725291     -0.7506962600     -0.2711200500      0.1745293311      0.0306590225      0.0437746496
H       4.8058386199     -4.0169187570      0.7362149660      0.2592400950      0.1568466465     -0.0181578543      0.0299280994
H       6.2602298704     -3.7737357281     -0.3034732155     -0.1463789804      0.0496338421      0.3121408065      0.0482883127
H       6.0132015787     -2.7294207359      1.1473952228     -0.1109680615     -0.2356702857     -0.1586453218      0.0381943171
P       4.3018447612      3.1445210553     -3.5207665667      1.0146196581      0.4263490744     -0.9487690566      2.1168944949
F       5.9059292089      3.5767704539     -3.0813819079     -1.5748242259     -0.3693338175     -0.2859944487     -0.5025229859
F       3.9031850178      3.1979549967     -1.8505302766     -0.2319235723     -0.3290017048     -0.9378407879     -0.5333390214
F       3.8196343536      4.7872687337     -3.6685592962      0.4425814296     -1.4441513342      0.3455309582     -0.5092707916
F       2.7065565080      2.6708946083     -3.9497717865      1.0295233371      0.3885582942      0.5354019431     -0.5237623652
F       4.8066760025      3.1788674959     -5.1631490439     -0.7932944177     -0.2642407387      1.5370202343     -0.5008202486
F       4.6903836023      1.4740309594     -3.4130085803     -0.2957811682      1.4248572414      0.1638810393     -0.5136683674
