58
Properties=species:S:1:pos:R:3:forces:R:3:charge:R:1 energy=-310.33659315195183 homo_lumo=4.17509426856013 dipole="3.386183737768917 0.8712028327512285 4.708089118853984" free_energy=-310.33659315195183
N      -0.5652739447      0.3074506158      0.1432240265      0.3282151258      0.3432698950     -0.0277499680     -0.5476781185
C      -1.5606171860      1.2406192863     -0.4756538676     -1.6288351399      1.1014966456     -0.7138275994     -0.0448674644
C      -0.9013543816     -1.1090102050     -0.1985064546     -0.6302559628     -1.8309502389     -0.2143419057     -0.0413249625
C       0.7728319281      0.6672576208     -0.4344717003      1.7346985653      0.0054487659     -0.3765069783     -0.0343783628
C      -3.0302728813      0.8934195457     -0.1744252019      0.0288246725     -0.1150680533      0.0606038236     -0.1871297864
C      -2.3529707672     -1.4948366472      0.1344428826     -0.1099776701      0.2062310791      0.0014602751     -0.1693905767
C      -3.3346940729     -0.5519732783     -0.5509484471     -0.2479103928     -0.0934923979     -0.0907215008     -0.2064099157
C      -0.5364539664      0.5043114080      1.6186191633      0.0021370951      0.0639458206      1.3621614617      0.0223171692
C       1.9758069086     -0.1544450924      0.0910981024     -0.3562330694      0.1303634754     -0.0486197219     -0.2162807292
C       3.2805439836      0.3173205074     -0.5643084009     -0.0488195144      0.0841338538     -0.0774484371     -0.2109644179
C       4.4770890620     -0.4801023100     -0.0523012932      0.1565321441     -0.0076838042     -0.0113444039     -0.0900438896
H      -1.4519093271      1.2409215601     -1.5857361237      0.2932897887     -0.3091261948      0.4351147745      0.1815819063
H      -1.3755802640      2.2868164526     -0.1405660386      0.3654148332     -0.5050768205      0.0501288877      0.1374300847
H      -0.2450701143     -1.8172094306      0.3517939194      0.1081855174      0.6189564450     -0.1226364368      0.1503267670
H      -0.7397107768     -1.2921836116     -1.2859196099      0.0411982225      0.4810317037      0.3333022534      0.1689676225
H       0.9887604711      1.7437063669     -0.2401852079     -0.4406575497     -0.3376436759      0.0846986436      0.1468289816
H       0.7502413570      0.5517530433     -1.5431420741     -0.4170807286     -0.0398146177      0.4422759868      0.1622323641
H      -3.6865546788      1.5646737961     -0.7691034801      0.3478019339     -0.0323816309      0.1089588553      0.1628559199
H      -3.2772452982      1.0732398468      0.8920083070      0.0901348913      0.0298852607     -0.1277447910      0.0843215895
H      -2.5184435972     -1.4868045792      1.2326492672      0.0930425701     -0.0728783149     -0.1641499434      0.0919665417
H      -2.5430920595     -2.5315854538     -0.2190944364      0.2960264500      0.2462960934      0.1299529497      0.1351226305
H      -4.3722830441     -0.8064210070     -0.2451512666      0.2655596422      0.0585578829     -0.2659613512      0.1072642658
H      -3.2580578941     -0.6742148599     -1.6530443792     -0.1901709954      0.0132251155      0.1764596284      0.1988376515
H      -1.5417090033      0.4261788958      2.0754492987      0.1644332260      0.0184240604     -0.5124829240      0.1395161973
H       0.0818045995     -0.2687253015      2.1220876144     -0.0989703670      0.2426435483     -0.4802596446      0.1115421297
H      -0.1317857301      1.5069997475      1.8816033160     -0.1175425124     -0.3689685435     -0.3944862204      0.1067108824
H       1.8421502075     -1.2304974523     -0.1432631207     -0.0075464904      0.2127531536      0.1500633480      0.1262497359
H       2.0819232311     -0.0313872736      1.1883949550     -0.0613822138     -0.1299817360     -0.1960195760      0.1153109789
H       3.4458090420      1.3937954763     -0.3398388101     -0.1076843281     -0.1892534127     -0.1645653324      0.0991913748
H       3.2131109093      0.1944951501     -1.6673467756     -0.0387280061      0.1586218188      0.2318307883      0.1092821114
H       4.3532710789     -1.5579853387     -0.2908276398      0.1231051394      0.2823016234      0.1347060545      0.0519326034
H       4.5817053143     -0.3572007927      1.0469422619      0.0445547652     -0.1190924216     -0.3053954204      0.0456645983
H       5.4051580601     -0.1130202155     -0.5397911743     -0.2218682005     -0.2048699905      0.2173887926      0.0657684936
P      -4.3201677226     -0.8552727882     -5.3263454831     -1.0485966860      0.6488914924      1.7187738306      1.6661115868
F      -4.9022863109     -0.9489584780     -3.7093098889     -1.5450056993      0.0188021999      0.7648468513     -0.5432971312
F      -5.5631520174     -1.2101115837     -6.4663716114      0.6812407547     -0.5782485395      0.3489090313     -0.5125887643
F      -3.0137597086     -0.1980587140     -4.4197429274      0.6195835583     -0.2288891669      0.0279043089     -0.5411902100
C      -5.4282907613      0.7334332256     -5.2350791818      0.3857606030      0.2761080692     -0.3943159027      0.5466038481
C      -4.3402670743     -2.7353188553     -4.8693175419      0.4986435746     -0.3951375591     -0.6988020986      0.5377252518
C      -2.9281956928     -0.7477313059     -6.6633795580     -0.5953174010     -0.5360951828     -0.7462057990      0.5353065522
C      -5.0883557123      1.7863317583     -4.1450355012     -0.1999340879      0.3506586223      0.3204620705      1.3336381866
C      -4.0124489978     -3.7366612767     -5.9969574787     -0.1932202296     -0.8085869949     -0.4659629701      1.3328768129
C      -2.5852935942      0.6532881709     -7.2065989128      0.2657589742      0.7284419641     -0.5343375674      1.3622517974
F      -6.7450412542      0.3525148045     -5.0057902122      0.5634935766      0.4128677018      0.1161882516     -0.4347962224
F      -5.4097175118      1.3794880436     -6.4546188229     -0.2451433358      0.4200477340      0.3814430897     -0.4494869845
F      -5.6050033782     -3.0904983380     -4.4089189874      0.7491992561     -0.0168918666     -0.4737162727     -0.4332355172
F      -3.4279469205     -2.9573926383     -3.8470801555     -0.0759926789     -0.3432252068     -0.1572700324     -0.4566993740
F      -3.3106878324     -1.4959580710     -7.7626908952      0.4692587242      0.3319935382     -0.1260495903     -0.4421644908
F      -1.7580162258     -1.3093064114     -6.1706252001     -0.2724697910      0.3727269022     -0.3071995970     -0.4450608132
F      -5.8624241914      2.9127758207     -4.3612896322      0.4976683119     -0.4421007683      0.3142096145     -0.4504438133
F      -3.7661489936      2.1747164777     -4.1770253145     -1.2079067979      0.1213525777      0.3937212567     -0.4531707092
F      -5.3864884888      1.3151122165     -2.8790403260      0.3282956357      0.8474165892     -0.7101167114     -0.4571616301
F      -4.2277760552     -5.0199857306     -5.5253399092      0.1873965803      0.4119069684     -0.3963095858     -0.4549938101
F      -4.8312027595     -3.5493853384     -7.0947767661      0.9823005575     -0.5850819087      0.9833153321     -0.4327923099
F      -2.6889616722     -3.6573364720     -6.3803840031     -1.1154910163     -0.3529738900      0.2020563153     -0.4471558209
F      -3.5659028614      1.0948443039     -8.0749379145      1.1348100924     -0.2741383199      0.7044047802     -0.4361653794
F      -1.4022902239      0.5806914217     -7.9213369505     -0.5944461137      0.1943239396      0.3310412257     -0.4513633107
F      -2.4098822617      1.5727692414     -6.1965781831     -0.0293778032     -0.5154732837     -1.2218341988     -0.4455021208
