58
Properties=species:S:1:pos:R:3:forces:R:3:charge:R:1 energy=-312.74216325826615 homo_lumo=5.345845237032288 dipole="-0.5833535222580364 -3.801426881249848 -0.17663197669662617" free_energy=-312.74216325826615
N      -0.5613308154      1.3056885680     -0.2323328799     -0.0002068125     -0.0005401819     -0.0010711878     -0.5116649458
C      -1.4981623299      2.2639513960     -0.9643814264      0.0087702933      0.0072344840      0.0041227219     -0.0629266529
C      -1.2521912218     -0.0315034980     -0.0687694054      0.0081453547      0.0003188052      0.0028852816     -0.0125116081
C       0.6790134488      1.1551848669     -1.1019140294      0.0039783337      0.0087859004     -0.0046578875     -0.0420961890
C      -2.8454718215      2.4079155390     -0.2852568003      0.0016243426      0.0063596675      0.0059477451     -0.1846777356
C      -2.5881653698      0.0877294881      0.6480290213      0.0009148571     -0.0042156590      0.0041036627     -0.1650210905
C      -3.5233463619      1.0552508684     -0.0777388668     -0.0095689068      0.0008954100     -0.0013490511     -0.1615798883
C      -0.1723988909      1.8720257229      1.0993042711     -0.0023654070      0.0034538486      0.0083167469     -0.0106931886
C       1.8318585508      0.3789781030     -0.4901716130      0.0030383907      0.0003579715      0.0008811082     -0.2164539475
C       2.9828228588      0.2824254213     -1.4986607707      0.0023385822      0.0006566961      0.0033361022     -0.2113461833
C       4.1994801552     -0.4260524264     -0.9102283509     -0.0053612203      0.0007399955     -0.0001733172     -0.0720417345
H      -1.6094049642      1.8408817225     -1.9760716968     -0.0023632185      0.0014084385     -0.0046869888      0.1090084123
H      -0.9788098529      3.2270898044     -1.0267193724      0.0003550732     -0.0016806833      0.0046238911      0.2631592120
H      -0.5580042201     -0.6934575932      0.4667033346      0.0043995362      0.0066614300     -0.0006479534      0.1394814016
H      -1.3967642368     -0.4223617663     -1.0890526330      0.0025034287      0.0001032382     -0.0039761584      0.1261942221
H       0.9954687971      2.1810405834     -1.3401496264      0.0015803598      0.0032495748      0.0053621827      0.2065595282
H       0.3329868862      0.6774711767     -2.0323539724      0.0012249237      0.0048604066     -0.0024963251      0.1137493473
H      -3.4525013872      3.0637316336     -0.9304053192     -0.0023197252      0.0063658240      0.0024778836      0.1322518881
H      -2.7345317966      2.9558515986      0.6646290285     -0.0045292918      0.0014440145      0.0014997635      0.1210280930
H      -2.4340903509      0.4043489920      1.6931730877      0.0013499182      0.0011617508      0.0000103079      0.1062091784
H      -3.0265773324     -0.9233053936      0.6934305158      0.0010273960     -0.0003702539      0.0003662843      0.1105304004
H      -4.4599354962      1.1753383339      0.4889589124     -0.0035377508     -0.0036520949     -0.0078765695      0.0941191553
H      -3.7928868963      0.6256299287     -1.0603321781     -0.0054948760      0.0006402053     -0.0004459039      0.0885578039
H      -1.0681931528      2.1702595120      1.6484523095     -0.0001367895     -0.0004949999      0.0022809660      0.1267132505
H       0.3766424809      1.1086614867      1.6615384179      0.0023990592      0.0015906042      0.0026137283      0.0742568201
H       0.4424366697      2.7589731385      0.9295798297      0.0053349257      0.0034955981      0.0014901885      0.2073214655
H       1.5250536681     -0.6398229303     -0.1957721914     -0.0034870208      0.0032951895     -0.0007790972      0.0987881723
H       2.2039348242      0.8941029975      0.4098584872      0.0012249871      0.0014169312     -0.0011168897      0.1262489357
H       3.2649550140      1.3009347405     -1.8163767130     -0.0020983760      0.0020147282      0.0019122067      0.1307980181
H       2.6380032442     -0.2512875189     -2.4022713454     -0.0033213695      0.0043863177     -0.0002794637      0.0844520564
H       3.9526562830     -1.4539367819     -0.5990304696     -0.0019962807      0.0025358048     -0.0020225409      0.0332580680
H       4.5792023462      0.1143275412     -0.0290031847     -0.0018948669     -0.0003322008     -0.0013322605      0.0468336134
H       5.0150849319     -0.4824596845     -1.6460677777      0.0020771920     -0.0035958377     -0.0002973752      0.0515043874
P       0.0856277183      6.3675319413      0.1949242636     -0.0024288520      0.0096146071      0.0004520278      1.7100380575
F      -1.2047258863      6.9488961626      1.0607522199      0.0069503588     -0.0169356100     -0.0058807915     -0.5071133565
F       0.6862448855      7.8623714267     -0.1673279700     -0.0042492408     -0.0161091487      0.0043141595     -0.5015028196
F      -0.4492024546      4.7867786762      0.5325140531      0.0047476453      0.0000034128     -0.0080156509     -0.5431245212
C       1.0280491731      6.4568117678      1.9274015789      0.0102772303      0.0174213971     -0.0021624986      0.5235167517
C      -1.1648124300      6.5253468594     -1.4137994420     -0.0048370819     -0.0096565100     -0.0007963624      0.5107182982
C       1.5442453090      5.4783708836     -0.9339578314     -0.0020747838      0.0069671570     -0.0145389766      0.5230339229
C       0.6385839693      5.4660329215      3.0690262600     -0.0149304811      0.0031693411      0.0118196628      1.3611074303
C      -0.7628569390      6.8743433931     -2.8903049422     -0.0109412258      0.0040265921     -0.0021094094      1.3632506056
C       2.8441211736      4.7417470166     -0.4691700858      0.0089394595      0.0103989656      0.0048979087      1.4002072856
F       0.8196492513      7.7041859936      2.4664609854      0.0018406769     -0.0211270282     -0.0132271680     -0.4331425214
F       2.3949436395      6.3240396784      1.7873236881      0.0007496425      0.0068846766      0.0142013116     -0.4565600186
F      -2.0366783877      7.5446687018     -1.1117864519      0.0118371204     -0.0084635976     -0.0125722742     -0.4297364821
F      -1.9343363024      5.3685680824     -1.5319136667     -0.0175268140      0.0018197173     -0.0018964278     -0.4685021133
F       1.9982118297      6.3697420921     -1.8722535447     -0.0046062157     -0.0052234934      0.0096062922     -0.4376174044
F       0.8763439413      4.4604269007     -1.6356183933     -0.0117795167     -0.0097711251      0.0071326648     -0.4745174587
F       1.2907854435      5.8123899949      4.2120532637      0.0059023199     -0.0024280819      0.0024240362     -0.4468088142
F       1.0095866272      4.1824204461      2.7823118153     -0.0011798768      0.0073230838     -0.0060350189     -0.4742048979
F      -0.6861381134      5.4674161798      3.3320348662      0.0152678049     -0.0060395017     -0.0089981716     -0.4434437212
F      -1.9080985273      7.1305095580     -3.5928828887      0.0170685065     -0.0099931583     -0.0095909036     -0.4515812062
F       0.0125463354      7.9756922477     -2.9536003628     -0.0053474368     -0.0128593100      0.0097562907     -0.4377018184
F      -0.1390322868      5.8595005339     -3.5364216459      0.0085581675     -0.0047467565      0.0001418385     -0.4532616356
F       3.8326506042      5.5819389512     -0.1266475642     -0.0170112488     -0.0019936052     -0.0030755229     -0.4333869040
F       3.3188659196      3.9778250088     -1.5072710231      0.0089499898      0.0018528641      0.0093471541     -0.4671989291
F       2.6019247807      3.8791272759      0.5578447157     -0.0077811898     -0.0026858114     -0.0042159718     -0.4724779954
