60
Properties=species:S:1:pos:R:3:forces:R:3:charge:R:1 energy=-328.4307550066801 homo_lumo=5.256384615738519 dipole="-1.4927263382401839 2.12711795640265 -2.09816201480751" free_energy=-328.4307550066801
N       0.1063574880      1.5269667796      0.3594415407     -0.0041576888     -0.0044364295     -0.0025139903     -0.4843197700
C      -0.7018492517      2.7081082424     -0.1262281067     -0.0006083766      0.0013775489     -0.0087265229      0.0102276341
C       0.6167681662      2.0079580560      1.7095140529      0.0126484640      0.0000253155      0.0073415144     -0.0461758684
C      -0.7787250198      0.3137235383      0.6016003408      0.0065787418     -0.0042115078     -0.0123880388     -0.0823208547
C       1.2439991127      1.2542010299     -0.6086303424      0.0087552789      0.0037010989      0.0136404526     -0.0046260999
C      -1.4583157627      3.1939286505      1.1028158199     -0.0093468979      0.0008790634      0.0123763681     -0.1573076974
C      -0.5270765499      2.8468282189      2.2948494074      0.0064856091      0.0073777676     -0.0024072453     -0.1514861092
C      -1.4775091136     -0.2380576935     -0.6274644336     -0.0052935045     -0.0027884953      0.0071603603     -0.2353501692
C       2.2195351570      0.1593437513     -0.1972680884     -0.0027173440     -0.0053344865      0.0032984472     -0.2184818135
C      -2.2501954183     -1.5089797807     -0.2602712120     -0.0017627631     -0.0003330482      0.0068847898     -0.1832077543
C       1.8817794404     -1.2650195434     -0.6399003973     -0.0236944044     -0.0132523772      0.0067125265     -0.2364187086
C      -2.9575410819     -2.1360961012     -1.4581767754      0.0094755992     -0.0035067571      0.0065155895     -0.1666052942
C       2.9782761847     -2.2458957350     -0.2296951446     -0.0038109989      0.0042569476      0.0144732776     -0.1802330247
C      -3.6762075112     -3.4347950492     -1.0959542676     -0.0022715736      0.0031457987     -0.0222268293     -0.2064681042
C       2.6106022486     -3.7022687413     -0.5002436040      0.0060640512      0.0005779920      0.0144606635     -0.2141866572
C      -4.3789766373     -4.0761009661     -2.2894850684     -0.0045558866     -0.0054156285      0.0128802890     -0.0655382887
C       3.6624301253     -4.6672913034      0.0409006009     -0.0145914758     -0.0138029337     -0.0039264393     -0.0674228830
H       0.0308368383      3.4569007791     -0.4646475399     -0.0105709472      0.0001614666      0.0039429224      0.1272791710
H      -1.3234156138      2.4047828222     -0.9771686940     -0.0023095115      0.0105347570      0.0063580252      0.1264077969
H       0.9030676010      1.1374530477      2.3126472310      0.0001173873      0.0048190981      0.0018780723      0.2417534930
H       1.5145357556      2.6108733908      1.5098725744     -0.0103449926     -0.0045960844      0.0042037319      0.1231116518
H      -0.1376243062     -0.4396590211      1.0761629802      0.0020628843      0.0002842404     -0.0019362592      0.2673872419
H      -1.5145479235      0.6210521141      1.3591597149     -0.0016435906      0.0011146624      0.0051735374      0.1545497322
H       0.7812061741      1.0458949213     -1.5851135404     -0.0062376496     -0.0010240695     -0.0082987778      0.1269301379
H       1.7639471803      2.2218920320     -0.6824050611      0.0036954021     -0.0060059647      0.0008781834      0.1149801333
H      -1.6674233533      4.2706261941      1.0247535729      0.0071022975     -0.0084895580      0.0055203126      0.0982186369
H      -2.4286771833      2.6827993125      1.1915711958      0.0043261161     -0.0007573214      0.0089254959      0.0939383825
H      -1.0660995801      2.2907618031      3.0744125835     -0.0089972007     -0.0090933111      0.0026860626      0.0931909659
H      -0.1172409404      3.7502649587      2.7684776768     -0.0007883518     -0.0130739975     -0.0006919237      0.1104770372
H      -2.1794896059      0.4994417680     -1.0553207383      0.0004188897     -0.0002941349     -0.0082056197      0.0866506964
H      -0.7437357663     -0.4903440400     -1.4097777352      0.0070413176     -0.0011023596     -0.0071753188      0.1264493460
H       3.1938934808      0.4379803153     -0.6369980840      0.0028274549      0.0051047261     -0.0081640364      0.0951136196
H       2.3722582990      0.1785060060      0.8931722928      0.0079762258      0.0029212578     -0.0057560692      0.1932581975
H      -1.5534630505     -2.2379656445      0.1835285140     -0.0065190365      0.0015902461      0.0051913313      0.1682422977
H      -2.9907139426     -1.2763437759      0.5274631421      0.0016052035     -0.0002413770     -0.0022871997      0.0789953162
H       1.7376343056     -1.2928474954     -1.7376467842      0.0007792252     -0.0003409457      0.0032118983      0.0542551044
H       0.9414689511     -1.6081791056     -0.1820532130      0.0156358786      0.0070725836     -0.0053108477      0.1769694445
H      -3.6846251897     -1.4198960514     -1.8867226842      0.0000335017      0.0048490660     -0.0018916852      0.0724421876
H      -2.2159178380     -2.3431973933     -2.2530766640     -0.0004259803      0.0010251205      0.0037247765      0.0858465706
H       3.9218146634     -1.9917315639     -0.7491044288      0.0055800241     -0.0020853972     -0.0094183996      0.0634641090
H       3.1790006393     -2.1250238603      0.8478725714      0.0066600134     -0.0047617895     -0.0114868568      0.1623857268
H      -4.4094519623     -3.2310041286     -0.2951952635     -0.0109673450     -0.0004313241      0.0076965972      0.0858632972
H      -2.9419150728     -4.1412436790     -0.6696263070     -0.0019453069     -0.0071953784      0.0062856032      0.0981674492
H       1.6401120310     -3.9151158702     -0.0170065050     -0.0005296582     -0.0056353122      0.0026291758      0.1110212408
H       2.4700656590     -3.8553828645     -1.5865129926     -0.0052039605     -0.0062669122     -0.0087293321      0.0617351553
H      -5.1400183895     -3.3995934566     -2.7111241558     -0.0007164973      0.0021234695     -0.0031114966      0.0298823401
H      -4.8816274483     -5.0129760148     -2.0042415669      0.0024369891      0.0089667551     -0.0007613123      0.0408950702
H      -3.6589882562     -4.3110137307     -3.0898602066      0.0010532059     -0.0006249043     -0.0026878062      0.0338188937
H       3.7495660057     -4.5538758417      1.1325249631      0.0043102561     -0.0041578861      0.0019288327      0.0685072437
H       3.3972555333     -5.7145787192     -0.1718833234      0.0004331337      0.0060597764     -0.0019491379      0.0242370952
H       4.6505536708     -4.4686548167     -0.4048388886      0.0047458835     -0.0016082252     -0.0065761812      0.0194673153
N       1.5587746248     -0.9590653430      2.9344364595     -0.0003235391      0.0027750644     -0.0011594817     -0.9604139788
S       2.8429778215     -0.5218682793      3.8156435428      0.0087271783      0.0138972192     -0.0062492244      1.9325188981
S       1.0254963706     -2.4787956901      2.9759380117     -0.0035859009      0.0044599883     -0.0011841294      1.9798696013
F       4.1043818823     -1.1245358782      2.9260442358      0.0006994232      0.0034180363      0.0004294918     -0.4650936466
F       0.2390131918     -2.5564737963      4.4202350782     -0.0021798925     -0.0001230401     -0.0078780888     -0.4591740474
O       2.9658962628      0.9186330083      3.6486586682      0.0097481330     -0.0007315613     -0.0118647513     -0.7550655614
O       2.9809244511     -1.1487486095      5.1106807883      0.0010318247      0.0204246811      0.0019160655     -0.6982779405
O       2.0343248945     -3.5143749258      3.0484577320     -0.0034395898      0.0064527799     -0.0062923608     -0.7170620709
O      -0.0470602243     -2.5652631315      1.9927410100      0.0004842717      0.0023259908      0.0029309680     -0.7832718885
