60
Properties=species:S:1:pos:R:3:forces:R:3:charge:R:1 energy=-327.843707467254 homo_lumo=5.131023540508931 dipole="-4.084219774613135 0.48057929206270766 0.8015449309643767" free_energy=-327.843707467254
N       1.0217541514      1.1660276142     -0.4443154829     -0.2796786743     -0.0128661479      0.1537057750     -0.4994345052
C       0.5853716892      2.1803607578     -1.4637478670      0.2033929638      0.3879471573     -0.3360135977      0.0026877035
C       2.0946652912      1.8666767400      0.3570766120      0.3655729565      0.3110521326      0.1935265087      0.0046428300
C      -0.1072298416      0.7901790030      0.4645628881     -0.4713003154     -0.4011615859     -0.3307276108     -0.0073711772
C       1.5753211502     -0.0285409899     -1.1788709540      0.2443011527     -0.5137717720      0.2926557196     -0.0662399356
C       1.8539360899      2.9409275668     -1.8175820172     -0.1835238269     -0.1209515109      0.0985634801     -0.1433503960
C       2.6003198861      3.0378530057     -0.4875203637     -0.0228417478     -0.0869566093      0.0080761986     -0.1573378870
C      -1.2647128934      0.0790233405     -0.2335514744      0.1800334109      0.2308330489      0.6482664082     -0.2023601512
C       2.0626907185     -1.1760138649     -0.3007202954     -0.1020259576      0.2145014752     -0.4923468948     -0.2314308341
C      -2.4114686086     -0.1320287935      0.7624892609      0.0619715898     -0.2009565572     -0.7742833519     -0.1523616805
C       2.5865090659     -2.2929319212     -1.2156963418     -0.0754826027     -0.0662074306      0.5421546463     -0.1482703556
C      -3.5835796964     -0.8639939447      0.1018078680      0.0256890279      0.2698679742      0.8526696011     -0.1582579445
C       3.3472400577     -3.3667325988     -0.4282642349      0.2895987938      0.5289471677     -0.3190851232     -0.1408879051
C      -4.7311302713     -1.0795938658      1.0936425404     -0.0304601800     -0.2270857569     -0.7002712218     -0.1996764242
C       4.7638993549     -2.9094921831     -0.0641613886     -0.3815279885     -0.5968953363      0.2173421321     -0.2431423723
C      -5.9008843642     -1.8113109568      0.4383340726      0.2439362292      0.2229264338      0.3520457527     -0.0464437924
C       5.5185712355     -3.9845610037      0.7134781128     -0.1033482541      0.4002681530     -0.2084520746     -0.0349498787
H       0.1249908441      1.6752249481     -2.3122911307     -0.1524945173     -0.1531820326     -0.1487643065      0.1133479391
H      -0.1462317847      2.8395208807     -0.9892769207     -0.1707493271      0.1133068927      0.1939967963      0.1167290103
H       1.6502352058      2.2136378661      1.2912976201     -0.2145061915      0.0053148522      0.1806949141      0.0939858099
H       2.8863764600      1.1554057873      0.5844485744      0.1183945035     -0.1590087977     -0.0291624055      0.1948485880
H       0.3076530108      0.1568915691      1.2518564829      0.1302118477     -0.1009969773      0.1810514469      0.1469814989
H      -0.4661221760      1.7166500410      0.9214922334      0.0016475330      0.2392121361      0.0919076535      0.1214590833
H       0.7880551449     -0.3799928006     -1.8501150574     -0.2184557061     -0.0037878163     -0.1388971319      0.1149095154
H       2.4031129429      0.3370134215     -1.7868581444      0.2061046375      0.1051310420     -0.1550793352      0.2605299509
H       2.4451038754      2.3922369544     -2.5535845598      0.1446632635     -0.1106537452     -0.1872724349      0.1390853426
H       1.6138136226      3.9232140827     -2.2256581707     -0.0562984861      0.2301109742     -0.1801555231      0.0810559513
H       2.3750324426      3.9821397205      0.0134085153     -0.0583102134      0.2247342562      0.1340742849      0.0734394937
H       3.6782244872      2.9713124387     -0.6340180941      0.1877788637      0.0708470342      0.0235921895      0.1558294302
H      -1.6211089895      0.6758462216     -1.0774918082     -0.1186413919      0.1326039234     -0.2383330530      0.1081701237
H      -0.9414152662     -0.8921763159     -0.6155965518      0.0815963273     -0.2502657623     -0.1249884932      0.1224650457
H       2.8680464806     -0.8361167091      0.3520756576      0.2110161721      0.0614874617      0.1093116325      0.1628711666
H       1.2557799677     -1.5682494583      0.3251014734     -0.2252912112     -0.1645715231      0.1633594216      0.0777426828
H      -2.0477653078     -0.7151957289      1.6149930202      0.0623635714     -0.1315705105      0.2664617191      0.0910513423
H      -2.7496672090      0.8387485354      1.1402387094     -0.1056242227      0.2414253257      0.1525427795      0.0839295138
H       3.2509487417     -1.8609873215     -1.9704986004      0.1568862216      0.0998903220     -0.2188998387      0.1207475988
H       1.7386177562     -2.7488171088     -1.7381087420     -0.2407449268     -0.0751505438     -0.2038916325      0.0596101174
H      -3.9417271845     -0.2793847122     -0.7524175946     -0.1016613786      0.1199745254     -0.2622315639      0.0846845023
H      -3.2394500897     -1.8323401296     -0.2768104269      0.0707867311     -0.2635275218     -0.1461671771      0.0878204635
H       2.7881798178     -3.6255794783      0.4781264335     -0.1638668037     -0.1409263119      0.2487545326      0.0580949029
H       3.4099506788     -4.2681733380     -1.0468166944      0.0242209180     -0.2901449934     -0.0931673082      0.0747257880
H      -5.0722777471     -0.1096368666      1.4708584591     -0.0447899220      0.2517920086      0.1548880955      0.0825777001
H      -4.3684708322     -1.6618845455      1.9472950789      0.1095202275     -0.0905402893      0.2561781820      0.0844188393
H       5.3115457476     -2.6748842348     -0.9817698015      0.0926826269      0.1503746161     -0.1956535175      0.1192376081
H       4.7202380574     -1.9952337143      0.5346458430      0.0538816967      0.2385943729      0.0303388532      0.1241367849
H      -6.2885128295     -1.2361079868     -0.4034919668     -0.1549048036      0.1346625891     -0.2692561800      0.0300488152
H      -6.7037254751     -1.9528577541      1.1617583035     -0.3289084109     -0.1094233914      0.1288796742      0.0364137210
H      -5.5841996896     -2.7894889964      0.0742606932      0.0447243607     -0.3117332288     -0.1333141847      0.0313374931
H       5.5969373600     -4.9006827925      0.1256975614      0.0438536189     -0.3021452164     -0.1366153625      0.0154560658
H       6.5235438201     -3.6314367893      0.9433752282      0.3423064263      0.0095864696      0.1184743441      0.0469968952
H       5.0066203169     -4.2147703500      1.6495191596     -0.1266392401     -0.1190646120      0.3016871987      0.0080107639
N       6.4552654988      0.1114279893     -2.2937081564      0.0234282491     -0.0159918437      0.0417046786     -0.8640406041
S       7.6443356740      0.0320704866     -1.2080551780      0.1303473703     -0.3747179703     -0.3962362696      1.9297967324
S       5.1468157266      0.8117907037     -1.8119633150     -0.0491646747     -0.0124342553     -0.2935976188      1.9973865393
F       7.0739301481     -1.0490774623     -0.1414813463     -0.2160982317     -0.4599807148      0.4875409913     -0.4685000937
F       5.4800659534      2.4160933467     -1.7340415384      0.3199724450      0.5294741047     -0.0334387322     -0.4756115316
O       8.7426853232     -0.6222709442     -1.8287659109      1.2009033636     -0.8677519556     -0.8109826611     -0.7185046439
O       7.8599720042      1.2105841107     -0.4386112965     -0.0144306909      1.4554474029      0.9267631425     -0.7185932103
O       4.6678207504      0.5265497889     -0.4794978986     -0.0635337233     -0.2036148307      1.1273439058     -0.7877864284
O       4.1669327699      0.7449913993     -2.8648197188     -0.8964834786     -0.0422763010     -1.1212680539     -0.7927116018
