24
Properties=species:S:1:pos:R:3:forces:R:3:charge:R:1 energy=-130.38416900821989 homo_lumo=3.3197104108034003 dipole="-0.3962111991001984 0.479001593218034 -1.9261524667397127" free_energy=-130.38416900821989
N      -0.0163493824      0.1434001154      0.2343804484      0.0022022076     -0.0020303519      0.0086343002     -0.5972747391
C      -0.9506377539     -0.9111817947      0.7650637314      0.0047357072      0.0073598870      0.0028284647      0.0246360729
C      -0.0806059929      1.3396631633      1.1460992396      0.0037420013     -0.0024356191     -0.0000016930      0.0512113759
C      -0.4027362332      0.5250721875     -1.1533502991     -0.0031225583     -0.0012165091     -0.0079837086      0.0958726952
C       1.3906534086     -0.3916386686      0.2554251971     -0.0027517475      0.0031134203      0.0022591554      0.0458303235
H      -0.7218208921     -1.0473517760      1.8572827907      0.0070087167     -0.0039840780      0.0068422473      0.2059617035
H      -1.9781527626     -0.5461991266      0.6314796668     -0.0048414551      0.0050213084      0.0062250037      0.0499513314
H      -0.7959605610     -1.8275113833      0.1798844363     -0.0039221440      0.0002509553     -0.0065794440      0.0469717158
H       0.5238032525      2.1417545049      0.7025363736      0.0087736990      0.0012582077     -0.0067608749      0.0529281834
H      -1.1293449883      1.6486197796      1.2367640068     -0.0046943717      0.0008653017     -0.0020199566      0.0573890893
H       0.3423998643      1.0159215701      2.1151933797      0.0065401488     -0.0027321081      0.0059012943      0.1938794023
H       0.2988278522      1.2829803913     -1.5261591787      0.0049917321     -0.0003951840      0.0014860561      0.0773637413
H      -0.3638412697     -0.3687798219     -1.7890044795      0.0000756696     -0.0063008061      0.0001381399      0.0810238051
H      -1.4226228086      0.9313199010     -1.1399887220     -0.0018556249      0.0015883897      0.0054551411      0.0798210328
H       2.0490428887      0.3680666154     -0.1869690475      0.0050990232      0.0038686336     -0.0002351830      0.0547028443
H       1.6479168373     -0.5532109035      1.3270944370     -0.0021121062     -0.0046429084      0.0070007300      0.1878722521
H       1.4154770425     -1.3130174311     -0.3399004234     -0.0019218538     -0.0022318116     -0.0068617192      0.0470420612
C       1.2484752426     -1.0948418852      5.3632627090     -0.0038253092      0.0019847098     -0.0113261337     -0.0971077626
C       0.8142151827     -0.7346215134      3.9382344825      0.0002601018     -0.0045888727      0.0082335876      0.9022836412
O       1.6866680484     -0.1917361010      3.1828873115     -0.0181564008      0.0124543383      0.0011970028     -0.8463770038
O      -0.3895359053     -0.9893668942      3.6338204503      0.0067931178     -0.0195819669     -0.0045839687     -0.8225685352
H       2.3354048554     -1.0045350226      5.4890141727      0.0007420710      0.0066136237     -0.0073861636      0.0285675309
H       0.7474924845     -0.4189966906      6.0737577173     -0.0034414287      0.0010467431     -0.0050974217      0.0416744152
H       0.9207435113     -2.1165122562      5.6055051719     -0.0003191959      0.0047146971      0.0026351439      0.0383448234
