24
Properties=species:S:1:pos:R:3:forces:R:3:charge:R:1 energy=-130.38342045274732 homo_lumo=3.3592417857378405 dipole="-1.9549390715976873 0.388429404615516 -0.08349439029380026" free_energy=-130.38342045274732
N       0.1266479777      0.3786656439      0.0309385905      0.0024073457     -0.0003991538      0.0005317285     -0.5973774336
C       0.2387711118     -1.1083732285      0.2364199285     -0.0005863090      0.0072365304      0.0001192416      0.0503180557
C       0.8200545722      1.0687676511      1.1762444865     -0.0078901821     -0.0019738367     -0.0027732356      0.0467150844
C      -1.3063291864      0.7831864743     -0.0253656782     -0.0049367027     -0.0008340727     -0.0010300492      0.0967261163
C       0.8249886848      0.7494390662     -1.2501148311     -0.0041590261     -0.0005028769      0.0088484599      0.0258929542
H       1.3197361243     -1.3265422413      0.3715496870     -0.0009905861      0.0047653905      0.0108698025      0.1855724219
H      -0.3111690580     -1.3688550512      1.1509252254     -0.0121820844      0.0032765279     -0.0037005379      0.0569353696
H      -0.2044831169     -1.6096585315     -0.6337811505      0.0068031010     -0.0009966633     -0.0031298533      0.0471285813
H       0.8417105974      2.1454917795      0.9661176783      0.0029470270      0.0023224908      0.0004234010      0.0521002595
H       0.2513810489      0.8613325808      2.0928377088     -0.0161989061      0.0099307820     -0.0002609279      0.0516089585
H       1.8333132001      0.6221709064      1.2400811019     -0.0084099037     -0.0052101688      0.0117381439      0.1985921063
H      -1.3614246367      1.8720967779     -0.1526534486     -0.0044778580     -0.0021237538     -0.0019581433      0.0799275639
H      -1.7841356588      0.2799655735     -0.8762936363      0.0010475931     -0.0022323440     -0.0018658129      0.0794140752
H      -1.7966828473      0.4883983409      0.9116587240     -0.0070363593      0.0002442489     -0.0034974269      0.0775685107
H       0.6537049618      1.8198109983     -1.4295972097     -0.0054136193     -0.0006653573      0.0072241427      0.0498537118
H       1.9215734319      0.5474216795     -1.1077631476      0.0000013233     -0.0002101631      0.0089950523      0.2046375213
H       0.3834118313      0.1546848365     -2.0610809602      0.0001278187      0.0005017496      0.0041509817      0.0460252654
C       5.3470073295     -0.9481568625      0.4052691460      0.0056279025      0.0032158306     -0.0014973074     -0.0961137064
C       3.8994798700     -0.4674141205      0.2685427683      0.0231060845     -0.0068327937     -0.0109584106      0.9029039913
O       3.6599994713      0.3731716378     -0.6489382217     -0.0022803178     -0.0271430448     -0.0133052511     -0.8186606883
O       3.0572839182     -0.9370634933      1.1042157613      0.0081342660      0.0134976234     -0.0170567361     -0.8481079803
H       5.8177462102     -1.0237686739     -0.5849627796      0.0196210842     -0.0016197611      0.0080180131      0.0354165061
H       5.9151212985     -0.2055264918      0.9880331035     -0.0006387437     -0.0017946103     -0.0016649289      0.0426042301
H       5.3954065006     -1.9103887364      0.9329532196      0.0053770524      0.0075474262      0.0017796543      0.0303185251
