39
Properties=species:S:1:pos:R:3:forces:R:3:charge:R:1 energy=-213.03188018192364 homo_lumo=5.50020089671058 dipole="-1.8836046267657665 -2.52857386371714 -0.6529893038565392" free_energy=-213.03188018192364
N       0.5266096091      0.4548827662      0.5427194619     -0.0118267906     -0.0018473399      0.0078063283     -0.5215145250
C      -0.3005669596      1.5807093452     -0.0646548515      0.0023763039     -0.0033902104     -0.0073458784     -0.0553224772
C      -0.0947867484     -0.8786359914      0.1844551307     -0.0036270026      0.0031030572     -0.0042888772     -0.0085895194
C       1.9191063435      0.5473924197     -0.0760231483      0.0049987392     -0.0068384882      0.0000991398     -0.0511428046
C      -1.7736057761      1.5022226565      0.2923794592     -0.0082982283      0.0025016730     -0.0093531457     -0.1717200737
C      -1.5681020149     -0.9762184513      0.5496643092      0.0046341504      0.0081483752      0.0051508146     -0.1623142606
C      -2.3752618511      0.1522890963     -0.0899795161      0.0144395002      0.0009499507      0.0096808818     -0.1656629485
C       0.6157066497      0.6283796869      2.0306633798     -0.0022285020      0.0060259363     -0.0010541378      0.0253545986
C       2.9561311438     -0.4169636569      0.4736511748     -0.0036138604      0.0040548681     -0.0066255094     -0.2705044671
C       4.2478006339     -0.2718601762     -0.3359471200      0.0006316416     -0.0101037759      0.0104172535     -0.0708276377
H      -0.1604801976      1.4931166357     -1.1543728827      0.0026662285      0.0031120849      0.0053761312      0.1173682873
H       0.1425160433      2.5277360267      0.2717487967      0.0056493199      0.0038970552     -0.0022584598      0.2453576675
H       0.4992594252     -1.6538183449      0.6854016033      0.0024462457     -0.0071784769     -0.0023414392      0.1421847032
H       0.0355338001     -0.9848454964     -0.9049899964      0.0023314423     -0.0015838376      0.0025807117      0.1279161173
H       2.2405071407      1.5871143515      0.0722048327     -0.0022040320      0.0039962029     -0.0032636715      0.2291941383
H       1.7656897402      0.3859924556     -1.1553758111     -0.0015815819      0.0034879134     -0.0032452671      0.1108369022
H      -2.2709222858      2.3277686092     -0.2430648164     -0.0027603767     -0.0044009912      0.0018329522      0.1219518040
H      -1.9211134533      1.7073781592      1.3658656568     -0.0044954074     -0.0008694100     -0.0009953546      0.1045064829
H      -1.6942401128     -0.9676300376      1.6456046073     -0.0021757266     -0.0010019482     -0.0021207014      0.1025636754
H      -1.9231291964     -1.9615949265      0.2049452170     -0.0019431529     -0.0098060755      0.0011343065      0.1094455189
H      -3.4309901128      0.0925427654      0.2172989088     -0.0060991755     -0.0002068500      0.0053042551      0.0896456051
H      -2.3528410937      0.0393090303     -1.1896820572      0.0017574385     -0.0040029087     -0.0075452851      0.0896832789
H       1.2086706517     -0.1941209343      2.4446518705     -0.0047890601      0.0012854856      0.0016664544      0.0864491075
H       1.1068744342      1.5924505865      2.2290483248      0.0028999623     -0.0027315151     -0.0045770800      0.1933849107
H      -0.3925349183      0.6121909027      2.4554207174      0.0052066343      0.0101887478     -0.0078939117      0.0913759758
H       3.1740274846     -0.1767409235      1.5258446855      0.0009276764      0.0014865729     -0.0054718069      0.1493630023
H       2.6025325658     -1.4605253834      0.4154301329      0.0052020340      0.0052184802     -0.0040296495      0.0888528176
H       4.0828255192     -0.5130526853     -1.3978674647      0.0036993297      0.0048543472     -0.0084389219      0.0244270314
H       4.6373190416      0.7541022506     -0.2621017248     -0.0002850286      0.0129944123      0.0035656294      0.0992254880
H       5.0171454670     -0.9542248596      0.0533939037     -0.0069942819      0.0085937274      0.0015926392      0.0460720134
N       2.3117565686      3.3875828727      1.7760710704     -0.0065867997     -0.0039298477     -0.0033167014     -0.9389903759
S       3.8294732599      2.9744587876      2.1466306362     -0.0082623680      0.0000126646      0.0008566264      1.9483985345
S       1.9851903697      4.5889081430      0.7557173463      0.0174414657     -0.0088532574      0.0038125184      1.9276140392
F       4.3250773028      4.1740007599      3.1438695025     -0.0183072770     -0.0043976536      0.0067230675     -0.4509058853
F       2.3703182418      3.8993399609     -0.7253665943      0.0157695663     -0.0012365719      0.0080285911     -0.4796475974
O       3.7264412949      1.7990339081      2.9965148201     -0.0010720537     -0.0220791107      0.0038988357     -0.7540643844
O       4.7694262644      2.9957519951      1.0414141223      0.0084898847     -0.0055932471      0.0021986937     -0.7237194036
O       2.8206852574      5.7647264862      0.8314263597      0.0068825593      0.0060451440      0.0114830002     -0.6957449266
O       0.5343030770      4.6840712280      0.6880094515     -0.0112994169      0.0100948171     -0.0090430318     -0.7505004132
