23
Properties=species:S:1:pos:R:3:forces:R:3:charge:R:1 energy=-127.25836886448977 homo_lumo=3.0855458732367333 dipole="-0.564963082603685 -1.673874090902624 -3.3417236559759385" free_energy=-127.25836886448977
N       1.1099499670     -0.0157431522     -0.1479551475     -0.8733796101     -0.7196756280      0.0206571372     -0.5480277263
N      -1.1122790609     -0.0373601681     -0.1220255350      0.8218312481     -0.7211413481      0.0274244935     -0.5556374621
C       0.0069661084     -0.7858298582     -0.0682624037      0.1058250462     -1.3865281905      0.2627658376      0.5927596037
C       0.6753047879      1.2548370649     -0.2571281661     -0.8542799539      1.5108114199     -0.1384681215      0.2729483259
C      -0.7049522457      1.2415117207     -0.2412491971      0.8731110894      1.5724005642     -0.1679274392      0.2650616448
C       2.4980610768     -0.4543964840     -0.0823635935      0.6274787872     -0.2427663944      0.0803952820      0.0665591322
C      -2.4902092373     -0.5034251373     -0.0364224240     -0.5710794276     -0.2458792671      0.0590181366      0.0660349056
H       0.0187229997     -1.8631093744      0.0421553151      0.0044421602      0.0243885399      0.0491143941      0.0987326301
H       1.3126508683      2.1270976785     -0.3246801375      0.1930347808     -0.0870389858      0.1497907120      0.0690841878
H      -1.3606007613      2.1008318694     -0.2969190364     -0.1721944782     -0.0876752057      0.1125816946      0.0644080146
H       2.5541320276     -1.5610222243     -0.0035243605     -0.1868860242      0.4955108855     -0.0238262949      0.0752065908
H       3.0363453812     -0.1315144289     -0.9980987126     -0.2949027048     -0.0905769681      0.2805500964      0.0800755235
H       2.9884759936     -0.0061669369      0.8073581385     -0.3567680848     -0.0861791998     -0.1949800586      0.1261803239
H      -2.9768605301     -0.0659962367      0.8606804760      0.3075755875     -0.1183435534     -0.2489416120      0.1123165349
H      -3.0477444368     -0.1899849806     -0.9438966797      0.2851585436     -0.0923904302      0.2858826049      0.0826425157
H      -2.5234655477     -1.6110801325      0.0411678048      0.1670243800      0.4964074535     -0.0259772626      0.0805960936
P       0.6456815829      1.8093682055      3.6744454840     -0.1025039536      0.4941360100      1.7116419419      2.1224133648
F       1.8186351383      1.3340467823      4.8355818330     -0.9020494357     -0.5643373244     -1.4378845524     -0.5003559040
F      -0.7152101896      1.1383772318      4.4790876259      1.2747638757      0.8346648785     -0.2473275366     -0.5055572146
F       0.6248180414      3.2031882013      4.6779211674     -0.4230121862     -0.6538022836     -1.6033504222     -0.4976762197
F      -0.4488862883      2.5836187881      2.6012106738      0.5430457476     -1.0720927334      0.4260856199     -0.5187007754
F       1.8508961247      2.3454971021      2.5741386109     -0.5026623400     -0.3662776119      1.0383185877     -0.5213323114
F       0.7380625145      0.2555674059      2.9493073276      0.0364269528      1.1063853730     -0.4155432385     -0.5277317784
