44
Properties=species:S:1:pos:R:3:forces:R:3:charge:R:1 energy=-237.61106310284887 homo_lumo=1.0408649384949902 dipole="-1.0167193349267145 3.059605397687336 5.282624153415627" free_energy=-237.61106310284887
N      -0.2261089395      0.3072444351     -0.1605579402      0.0621752492      0.3758970670     -0.1209566116     -0.5183713897
C      -0.9202106646      1.2864902198      0.7392939206     -1.0026162570      0.8716988344      1.2327409971     -0.0327363875
C      -1.1246051241      0.0039595541     -1.3211863868     -1.2975800364     -0.6004326670     -1.3286281675     -0.0671416362
C       0.1224311343     -0.9336933491      0.6172033275      0.6151694945     -1.4660674716      0.4387284468     -0.0615689088
C       1.0007363070      0.9656500082     -0.7298078856      1.6519727635      0.6347965305     -0.2200127346     -0.0549910273
C      -2.3277403775      0.8425705337      1.1873807112     -0.0350326196     -0.1119741042     -0.0991567126     -0.1684440152
C      -2.5171543036     -0.5091111301     -0.9204865842      0.0522763739      0.0650948424      0.0847726462     -0.1833385789
C      -3.2118866344      0.4959190574     -0.0074238830     -0.2838526712     -0.1237403572      0.1180981596     -0.1687921210
C       0.9171482196     -2.0114754394     -0.1608724746     -0.1105066637      0.2766293344     -0.1893162121     -0.2737073565
C       2.1244869595      1.2879593803      0.2859686566     -0.2658471804     -0.1936646239      0.0809752201     -0.2605917897
C       1.2348319928     -3.2048671431      0.7367920008     -0.0485714224     -0.0268255958      0.2551211872     -0.0909100556
C       3.2793638052      2.0174816058     -0.3963031613      0.0569956510      0.0767932462     -0.2158804996     -0.0928193681
H      -0.3308789696      1.4661359760      1.6638366245      0.1832617741     -0.2362819711     -0.5296349446      0.1524813006
H      -1.0290287679      2.2729683155      0.2318032356      0.2814759436     -0.5312894832     -0.1874123033      0.1441215229
H      -1.2829040905      0.9231611445     -1.9331425945      0.3909472131     -0.0997922748      0.4988569221      0.1570314007
H      -0.6602682687     -0.7272504680     -2.0122828819      0.2707673135      0.2132231204      0.4029940986      0.2185418213
H       0.6970136247     -0.6638353011      1.5302941450     -0.1423578163      0.3501842197     -0.4315125559      0.1496105944
H      -0.7893745029     -1.4260746726      1.0073130091     -0.0442504555      0.4559727127     -0.3392854252      0.1838689409
H       1.4364311778      0.3407624100     -1.5412913633     -0.4407494867     -0.0967590144      0.3378658061      0.1869526919
H       0.7186528161      1.9212490446     -1.2304640874     -0.3419418991     -0.4279407527      0.2985134370      0.1574136499
H      -2.2690848251     -0.0201792693      1.8829781744      0.0406927838      0.1746281398     -0.1242381615      0.1069141859
H      -2.8025390229      1.6742718222      1.7519192830      0.3650498377     -0.1573501440     -0.0465744702      0.1219990237
H      -3.1294795147     -0.6408911933     -1.8388472157      0.4121089891     -0.0630453507      0.1177976284      0.1407630897
H      -2.4562049908     -1.5036191846     -0.4325751555      0.0174217995      0.1643717901     -0.1290432410      0.1137023702
H      -4.1723291739      0.0684686526      0.3526257909      0.1810953154      0.2301374597     -0.1357235946      0.1035321473
H      -3.4407092154      1.4216178676     -0.5802807131      0.0070117448     -0.2017766954      0.1113862077      0.0976865176
H       0.3298889879     -2.3924210307     -1.0201509760      0.1910027463      0.2448613580      0.0247264007      0.1618395203
H       1.8795741917     -1.6092655649     -0.5355329436     -0.3032967819      0.0084261716     -0.0801849688      0.1406990620
H       1.7506911274      1.9389757892      1.1011153138     -0.0344224182     -0.2465599312     -0.0710769034      0.1152987657
H       2.5341476261      0.3584236324      0.7309371125     -0.2414568772      0.1442470224     -0.0150130904      0.1284229874
H       1.7994112194     -3.9661450583      0.1579105187     -0.2136622522      0.2381222871      0.2178619138      0.0922178837
H       0.2965485219     -3.6686402806      1.1093523896      0.3317518169      0.0346219712     -0.0232240181      0.0474510532
H       1.8548808914     -2.8846887516      1.6009932051     -0.1753007148     -0.2138278384     -0.1601912227      0.0419766289
H       4.0817733390      2.2194486607      0.3444019092     -0.2388433790     -0.0421995768     -0.2985263875      0.0700235385
H       2.9314024809      2.9863931341     -0.8137029447      0.2187646397     -0.2641060281      0.0457003289      0.0523662892
H       3.7006210680      1.3953385702     -1.2145343177     -0.0514288832      0.2828893809      0.1930320623      0.0726613954
S       0.4975802378     -2.7277163181     -5.8593981661      7.3461754148     -8.0521122854     -0.6000030781      1.5378086141
O       1.8836869534     -2.3486389166     -5.3179576616     -2.5037420900      2.2482921791      0.0670377115     -0.7734205581
O       0.1275228361     -3.9695265990     -5.0353245281     -1.9899419042      2.7313671609     -0.0407005148     -0.7685378674
O       0.8109532131     -3.3090596864     -7.2457528947     -2.2329785754      2.5791862229      0.7608781669     -0.7468248223
C      -0.7314702084     -1.3933742490     -5.8433251594     -0.1901341954      0.0247000331     -0.7425113567      1.1040418427
F      -0.2813443270     -0.3427157591     -6.6191694283     -0.7405043656     -0.4141681384      0.7146659168     -0.4333717244
F      -0.9218027254     -0.9583191972     -4.5474726901     -0.3530639058      0.3211221667     -0.3892768524     -0.4717878412
F      -1.9277479133     -1.8623743058     -6.3506505087      0.6059659867      0.8226510531      0.5163307691     -0.4320713902
