44
Properties=species:S:1:pos:R:3:forces:R:3:charge:R:1 energy=-237.59420686313248 homo_lumo=1.009586555266169 dipole="-0.8006203715407543 1.3166895356790194 6.076105226147784" free_energy=-237.59420686313248
N      -0.2291333855      0.3085518306     -0.1636377239      0.0671556762      0.3463726198     -0.1195024738     -0.5215285411
C      -0.9136429283      1.2867691276      0.7447631014     -1.0054958270      0.8750866333      1.2464114108     -0.0342084089
C      -1.1377290430      0.0138375780     -1.3193756240     -1.3361752120     -0.5636244476     -1.3211446779     -0.0606604903
C       0.1200060663     -0.9361398763      0.6078124726      0.5899552399     -1.4179679968      0.4189019819     -0.0581008160
C       0.9969519685      0.9651583042     -0.7368873248      1.6771681812      0.6440661934     -0.2396926353     -0.0705445340
C      -2.3192627786      0.8458102663      1.2015381155     -0.0367181231     -0.1092752473     -0.1057779943     -0.1684509757
C      -2.5286719029     -0.4967093560     -0.9100284667      0.0533954692      0.0736291189      0.0843989367     -0.1828317133
C      -3.2134312554      0.5065246630      0.0121866046     -0.2941122103     -0.1198871063      0.1205779678     -0.1687823314
C       0.9094124269     -2.0123518182     -0.1771997428     -0.0866466117      0.2694495556     -0.1704407439     -0.2733860636
C       2.1268302140      1.2803766198      0.2747676333     -0.2821019864     -0.1891098535      0.0833468228     -0.2622181661
C       1.2310005269     -3.2079988492      0.7163620109     -0.0588012031     -0.0213744770      0.2455830146     -0.0899653030
C       3.2821343867      2.0065404148     -0.4101781398      0.0609222298      0.0799676642     -0.2177014619     -0.0924125633
H      -0.3175268420      1.4610724789      1.6659476295      0.1808207762     -0.2318843907     -0.5368593436      0.1523681192
H      -1.0226514279      2.2754711429      0.2416684858      0.2796716559     -0.5349809786     -0.1955360554      0.1472729425
H      -1.2972775528      0.9369130395     -1.9249871380      0.4026290896     -0.1126353640      0.4731630089      0.1656746274
H      -0.6849629037     -0.7154423594     -2.0199706457      0.3040975038      0.2584220151      0.3932477921      0.2116783851
H       0.6988908493     -0.6710209701      1.5196362588     -0.1410731767      0.3463339467     -0.4382972944      0.1505071182
H      -0.7909620765     -1.4282278384      1.0001110964     -0.0470365483      0.4575258299     -0.3375546863      0.1828743573
H       1.4270000386      0.3420497953     -1.5519995626     -0.4526902124     -0.0823640585      0.3084367023      0.2069317924
H       0.7155584513      1.9231117401     -1.2332060981     -0.3408422391     -0.4354085558      0.2796871630      0.1603863160
H      -2.2582473765     -0.0197051811      1.8935014549      0.0374572246      0.1756414667     -0.1212358729      0.1048222525
H      -2.7870946124      1.6770092481      1.7725510300      0.3627141576     -0.1572566850     -0.0528295507      0.1228509079
H      -3.1484685841     -0.6231032057     -1.8240634595      0.4060681609     -0.0465707036      0.1088413838      0.1407135041
H      -2.4670719352     -1.4934935666     -0.4267977551      0.0117290855      0.1637009969     -0.1116240762      0.1081483592
H      -4.1722924416      0.0802757934      0.3777660870      0.1768713521      0.2352030554     -0.1371663012      0.1029958462
H      -3.4437983158      1.4350649056     -0.5553812173      0.0077462256     -0.2078291078      0.1061436945      0.1021889009
H       0.3163210313     -2.3894278324     -1.0340980056      0.1829460277      0.2737136978      0.0466015733      0.1522384309
H       1.8704164143     -1.6106593816     -0.5561204719     -0.3197146945      0.0223977515     -0.0850916703      0.1413736965
H       1.7596403645      1.9311939257      1.0930563831     -0.0353651732     -0.2438522843     -0.0697668622      0.1146076883
H       2.5346130827      0.3482846439      0.7161086064     -0.2382112163      0.1434629754     -0.0078778795      0.1231782494
H       1.7925288977     -3.9683650266      0.1333905955     -0.2006979642      0.2316690808      0.2334997162      0.0835599464
H       0.2944533690     -3.6720391889      1.0929272704      0.3308227559      0.0363983571     -0.0201994300      0.0470122838
H       1.8554569305     -2.8899854483      1.5782857577     -0.1798719536     -0.2170894025     -0.1712657357      0.0458262091
H       4.0878428048      2.2037307979      0.3283382548     -0.2435676685     -0.0391354682     -0.2984859649      0.0682372213
H       2.9366467131      2.9778185044     -0.8240325212      0.2190279389     -0.2724024911      0.0343054889      0.0559640592
H       3.6980293137      1.3843406835     -1.2311062376     -0.0581579993      0.2940900142      0.1798380646      0.0723625934
S       0.9622439501     -1.2800125955     -6.2653638450     -5.9768457893      0.4985874682     -9.2827136032      1.5398719261
O       1.7344654831     -1.2783293136     -7.5926693341      1.3910050864     -0.1454209468      3.2235022083     -0.7454959899
O      -0.0455792200     -2.4239875864     -6.4490164290      2.0786315563      0.2602801167      2.7546166762     -0.7582529017
O       0.0865563213     -0.0227580499     -6.3684992315      1.9699162405     -0.5114409783      2.7593629916     -0.7677220354
C       1.9896375518     -1.3875253739     -4.7740143775      0.5778698889     -0.1764013861     -0.5183895921      1.0999791912
F       2.8221726708     -0.2870226338     -4.7066326505     -0.3121846908     -0.8016606545      0.5739830486     -0.4417382408
F       2.7502201956     -2.5397546741     -4.8201769747     -0.3392280248      0.9364205276      0.6052952499     -0.4311528007
F       1.1775417564     -1.4191200130     -3.6587443765      0.6169170018      0.0151534990      0.2794090087     -0.4761730495
