23
Properties=species:S:1:pos:R:3:forces:R:3:charge:R:1 energy=-135.44641379599972 homo_lumo=3.266916320269123 dipole="-0.14157811920931884 0.08396515013109548 2.029758171992128" free_energy=-135.44641379599972
N       0.1710457628     -0.0900683599     -0.5635099201      0.0542804548     -0.0118283925      0.0426577010     -0.4968745560
C       1.6224989175     -0.1143557313     -0.7749069318      0.4548118960      0.0547208820      0.7190154828     -0.0857500428
C      -0.4738586889      1.0883763059     -0.5909526161     -0.3157599144      0.0837986910      0.4604344657      0.3043241485
C      -0.5100141403     -1.2461626938     -0.5122136517     -0.2748259745     -0.0483275762      0.4603478337      0.3053063015
C       2.3397173248     -0.0146997659      0.5652193263     -0.2160794280     -0.0376947890     -0.2930112293     -0.0285191233
C      -1.8388930843      1.1437332342     -0.3864130216      0.0135747278     -0.0220654356      0.0813583732     -0.0076534414
C      -1.8757912517     -1.2446712324     -0.3013112337     -0.0222450505      0.0412291502      0.0904625338     -0.0077567011
C      -2.5527140239     -0.0360745518     -0.2303331383      0.2781845797     -0.0239847744     -0.0196347206      0.0393041851
H       1.8709049899     -1.0431185914     -1.2914207805     -0.0282901981     -0.0414853737     -0.1989946445      0.1389213079
H       1.8793865375      0.7215052427     -1.4283751276     -0.0336662849      0.0108065012     -0.1977338722      0.1429141069
H       0.1275251557      1.9763459984     -0.7295439991      0.1627024882      0.0954878032      0.0008130584      0.0964864687
H       0.0624104242     -2.1602011867     -0.5918224874      0.1578878043     -0.0931617378      0.0072059726      0.0955762945
H       2.0744607255      0.9124708799      1.0732739679     -0.0312923258      0.2730939795      0.2115194079      0.0451490034
H       3.4151307933     -0.0281153023      0.3953367579      0.3467824879      0.0000673194     -0.0115248449      0.0522709598
H       2.0729705178     -0.8555652160      1.2055213210     -0.0384241617     -0.2383420205      0.2483945545      0.0446516218
H      -2.3361574890      2.1046572513     -0.3921663682     -0.0781116475      0.2311017957      0.0012588983      0.0450069502
H      -2.4022550297     -2.1878777690     -0.2398955880     -0.0867262006     -0.2276260360      0.0155407858      0.0453695758
H      -3.6249362326     -0.0143669126     -0.0773153526     -0.2600408236      0.0063811091      0.0209192426      0.0464217732
B       0.0189123780     -0.2091273977     -3.5470833056      0.0469739256      0.0325700438      0.2809668766      1.4126408326
F      -0.5108868087     -1.3103230300     -2.8051281070     -0.3330840887     -0.6632191946     -0.2805579149     -0.5571245807
F      -0.3919969608      0.9898175747     -2.8812818550     -0.2425944823      0.6756835120     -0.3216195420     -0.5591111903
F      -0.4447023428     -0.2232428249     -4.8280858774     -0.3672297107     -0.0256021085     -1.0124297933     -0.5134753476
F       1.4137010591     -0.2784327039     -3.4672900641      0.8131719271     -0.0716033484     -0.3053886252     -0.5580785467
