43
Properties=species:S:1:pos:R:3:forces:R:3:charge:R:1 energy=-237.0552381618692 homo_lumo=0.03257140394411139 dipole="-7.683999712962531 2.12237948109084 0.4391525607011278" free_energy=-237.0552381618692
N      -0.5581250108      0.0945110326     -0.0964260869      0.0476536204     -0.1162560762     -0.3380650307     -0.5236609883
C      -1.5579177874      0.5413351029     -1.1206296062     -1.4244215895      0.5030058974     -0.9432935547     -0.0254940727
C      -0.8978008777     -1.3014371029      0.3340357691     -0.7006232748     -1.5497193026      0.7696292848     -0.0343316392
C       0.7777712233      0.0733932079     -0.7871883560      1.8371685172     -0.0999934811     -0.2814915357     -0.0481240316
C      -0.5456441335      1.0004835527      1.1045912399      0.1507758272      1.2455820761      1.1765515692     -0.0888010025
C      -3.0200462129      0.4462994823     -0.6556028353      0.0608427828     -0.0564067464      0.0406383431     -0.1731285499
C      -2.3536651398     -1.4779033932      0.8132042886     -0.0437223862      0.1701267121     -0.0753317872     -0.1668845482
C      -3.3521699234     -0.9794132738     -0.2278042955     -0.2826649806     -0.0472122301      0.1330774966     -0.1646121120
C       1.9941985293     -0.2958609678      0.0986722595     -0.4331188408      0.1445933295     -0.1689626586     -0.2227124800
C      -0.1294603689      2.4584992606      0.8374992020      0.0261986217     -0.1723373547     -0.2118311300     -0.1237264921
C       3.2798916754     -0.3244371035     -0.7388805455      0.0097096993      0.0265732556     -0.0264916154     -0.2102815623
C       4.4924142426     -0.6922604751      0.1117890251      0.0772531384      0.0349428896     -0.0798029581     -0.0940517428
H      -1.4713405962     -0.0869453779     -2.0382245461      0.3686074214     -0.0435782218      0.5276314285      0.1469324224
H      -1.3576580652      1.5791312903     -1.4597462778      0.3598180573     -0.2761483074      0.3813051124      0.1494555531
H      -0.2438582801     -1.6294955713      1.1708221819      0.1067940680      0.4547897037     -0.4127178954      0.1607345947
H      -0.7329099958     -2.0186393908     -0.5029564481      0.1274321093      0.6232277613      0.0484329936      0.1485567760
H       0.9827338048      1.0573608292     -1.2650124416     -0.4151148519     -0.1763188324      0.3356646799      0.1555078253
H       0.7519629898     -0.6524014447     -1.6331802966     -0.4328105635      0.1341265529      0.4035194211      0.1513614679
H      -1.5407348487      1.0406059366      1.5882907708      0.0489771751     -0.3751694415     -0.4841967063      0.1705798456
H       0.1245698081      0.5933892322      1.8919527147     -0.0626479452     -0.2740146898     -0.5838757269      0.1605974927
H      -3.6840042008      0.7300549862     -1.5008417167      0.3154765644      0.0973558561      0.1291120108      0.1153336174
H      -3.2284459440      1.1599553653      0.1677112054      0.0586473190     -0.1042007348     -0.1511330298      0.1040231827
H      -2.5187589689     -0.9577882360      1.7797168702      0.0789569343     -0.1105190359     -0.1720362539      0.1052207629
H      -2.5406207489     -2.5582969391      0.9968698452      0.2956818767      0.2479380090      0.0402001257      0.1246998474
H      -4.3784433811     -1.0088593417      0.1979373465      0.2170097646     -0.0918405519     -0.1877258575      0.1001908665
H      -3.3300092120     -1.6496774691     -1.1153924772     -0.0347553946      0.1515961081      0.1830761248      0.0967245776
H       1.8558025530     -1.2976291288      0.5535041291      0.0137008185      0.2289518649      0.0026323809      0.1228609741
H       2.1292845999      0.4514494290      0.9072096947     -0.0651797824     -0.2197855583     -0.0824453917      0.1200876030
H      -0.1318301672      3.0113515868      1.8005597636     -0.0452556368     -0.2774415135     -0.2096829275      0.0888154761
H       0.8961344741      2.5306227943      0.4256970003     -0.2897741821      0.0358169955      0.0549973380      0.0837924714
H      -0.8463018625      2.9734440970      0.1679683633      0.2453444627     -0.0901576272      0.1149569027      0.0644082713
H       3.4523078150      0.6750139874     -1.1944504162     -0.1324587508     -0.2116256946     -0.0310786580      0.0896855393
H       3.1788297332     -1.0701829582     -1.5573956750     -0.0196153411      0.2391723240      0.0853500916      0.0999454923
H       4.3716014218     -1.7109969291      0.5380928903      0.2492312542      0.3244146636     -0.1193160248      0.0569616312
H       4.6243944170      0.0385919539      0.9375792285      0.0098218852     -0.2365749939     -0.1661127597      0.0204782659
H       5.4039437563     -0.6772341070     -0.5210617785     -0.0842329812     -0.2792089709      0.3795742358      0.1262797685
C       8.4932818076     -2.3773967011     -0.6812875565      0.1465569415     -0.6832748619      1.2871544506      0.8318498055
O       7.4086316031     -2.4746532674     -0.1295214643     -4.4091681084      0.7141448828      0.1509224177     -0.7877354964
O       9.4905754646     -2.8142484575     -0.1297353925      3.9140058631     -0.5417319119     -0.1913476576     -0.7525183313
C       8.6085117343     -1.7280392430     -2.0290227913      0.1087633698     -0.2001323040      0.2820880635      1.2268692134
F       9.4445321618     -0.6303513816     -1.9428196604     -0.3687632393     -0.1225527279     -0.7237769346     -0.4651607276
F       7.3674290437     -1.3139611015     -2.4804258093      0.6305152259      0.2249361270     -0.6097203967     -0.4768412174
F       9.1369610607     -2.6308392547     -2.9330053198     -0.2606154690      0.7549061617     -0.2760779804     -0.4638883499
