59
Properties=species:S:1:pos:R:3:forces:R:3:charge:R:1 energy=-322.5390460372694 homo_lumo=3.238119798518103 dipole="-4.969970979898437 -1.288213163216961 -2.9400991835006653" free_energy=-322.5390460372694
N      -0.5228089568      1.7845663692     -0.1962174589      0.1627889412      0.2008981745     -0.2566800469     -0.5198213189
C      -1.3818180586      2.3248296255     -1.3009226282     -1.2425396082      0.6715680501     -1.0938509481     -0.0286295421
C      -0.2115593324      2.9027529697      0.7543453363      0.0802071901      1.3552194016      1.4030969576     -0.0538916223
C      -1.2017900421      0.6672082510      0.5505746275     -0.6357138160     -1.3375168327      0.3836804707     -0.0591584288
C       0.7588577738      1.3254140365     -0.8371527989      1.6640882890     -0.8426038548     -0.2944874145     -0.0508496689
C      -2.6718097353      3.0087601130     -0.8181233708      0.0335470766     -0.0019132059      0.0339810400     -0.1783431001
C      -1.4595661975      3.6338831063      1.2930495971     -0.0970727832     -0.0752566558     -0.1211073821     -0.1737692716
C      -2.3480864337      4.1351941837      0.1580291284     -0.2576673037      0.1492807139      0.1617895097     -0.1675837309
C      -1.5107227627     -0.6053393723     -0.2743170013      0.1957128944      0.3963391629      0.0985809178     -0.2201347432
C       1.7766605614      0.6288504893      0.1006791290     -0.3646952808      0.2536696320     -0.0531843091     -0.2394947931
C      -2.2037192325     -1.6563396705      0.6029636170      0.1094300209      0.1646604011     -0.1181137260     -0.1667349400
C       3.0509182139      0.2580883378     -0.6711569147     -0.1599624487      0.0484354567      0.0454482547     -0.1660558300
C      -2.4878178260     -2.9382789716     -0.1865180164     -0.0752768443      0.1118322075      0.3998439586     -0.1690129805
C       4.0547934594     -0.4727298346      0.2269686006      0.0811609653      0.2166007235     -0.2189009798     -0.1954351158
C      -3.1921855430     -3.9760798612      0.6936524255      0.0355627414     -0.0897426005     -0.2074292023     -0.2086246863
C       5.3308770182     -0.8182876725     -0.5478857551     -0.0436768839     -0.0612703604      0.1517090997     -0.2067036126
C      -3.4592612688     -5.2612979585     -0.0815395588     -0.1256442420     -0.2242627218      0.1188938651     -0.0848907732
C       6.3353758712     -1.5420244425      0.3420918256      0.2767458596     -0.0432517567     -0.0293617469     -0.0863908524
H      -0.8150907275      3.0857982872     -1.8874757070      0.2171757066     -0.3602049622      0.5214398958      0.1534210572
H      -1.6480683379      1.5372894583     -2.0359655290      0.3646891599     -0.0985403579      0.4819917992      0.1494888367
H       0.3515747456      2.5311978390      1.6373598443     -0.0163076430     -0.2103832678     -0.5630870483      0.1914815685
H       0.4343646980      3.6661159544      0.2619721590     -0.1736069722     -0.5794789682     -0.1590966706      0.1648948739
H      -0.5934856018      0.3729299239      1.4343207561      0.1544388289      0.3781191421     -0.4692680362      0.1676817838
H      -2.1623073603      1.0057130574      0.9841400422      0.3153078078      0.3628846978     -0.3151262552      0.1818282430
H       0.5425538640      0.6351053019     -1.6834227912     -0.3606861786      0.2407866196      0.3836164753      0.1437970437
H       1.2794369680      2.1931947838     -1.3055357657     -0.5189209894     -0.0227913908      0.3528892409      0.1575574639
H      -3.1985263167      3.4410700645     -1.6966997971      0.2028874485     -0.3137455246      0.0961905444      0.1185197003
H      -3.3686470674      2.2788775794     -0.3569699250      0.1544163098      0.0932292879     -0.0951216819      0.1070726636
H      -2.0429414608      2.9793326197      1.9735313373      0.1639254541      0.0970647965     -0.1103957125      0.1054146258
H      -1.1314855152      4.5062720010      1.8988481772      0.1501946432     -0.4050785479     -0.0876682174      0.1417960210
H      -3.2926957118      4.5433621076      0.5782689128      0.2865124595      0.0287323988     -0.1605039558      0.1020124471
H      -1.8293368415      4.9572740787     -0.3827777389     -0.1342471827     -0.1519988766      0.1046467954      0.1007070918
H      -2.1892690291     -0.3673477170     -1.1178567482      0.2107138938     -0.0194852760      0.0580917831      0.1146428760
H      -0.5782506066     -1.0493866351     -0.6780480408     -0.1895319706      0.1568092086     -0.0003189496      0.1319020103
H       1.3469963363     -0.3044472798      0.5183518182      0.0338779178      0.2147152363     -0.0017390191      0.1137285937
H       2.0602593058      1.2983715060      0.9379500404     -0.0445082642     -0.1761292512     -0.0968322170      0.1766790015
H      -3.1634758041     -1.2416970704      0.9838840168      0.2355935305     -0.1192313228      0.0386062586      0.0901399144
H      -1.5547839935     -1.8994529762      1.4732547518     -0.2207646351      0.0794590504     -0.1246043069      0.1037746037
H       3.5222318338      1.1840223341     -1.0685596735     -0.0877050529     -0.2287636341      0.0411310695      0.1053715723
H       2.7858682674     -0.3992952668     -1.5285281150      0.0631712710      0.1839074429      0.0474049652      0.0709009537
H      -3.1327577080     -2.6987425511     -1.0607817334      0.2078171292     -0.0958776083      0.1101725891      0.0877109322
H      -1.5286376747     -3.3609216421     -0.5591279528     -0.2401037338      0.0920434361     -0.0186257260      0.0952480723
H       4.3154079070      0.1757767403      1.0899394665     -0.0670648548     -0.1279118722     -0.0523521395      0.1884763444
H       3.5930645177     -1.4078007678      0.6143489251      0.0954137152      0.1862240569     -0.0102148642      0.0652141299
H      -2.5582005632     -4.2131348345      1.5757978717     -0.1860091915      0.1730781512     -0.1201715845      0.0952353450
H      -4.1601216851     -3.5657688496      1.0558517394      0.2755613457     -0.0175196496      0.0383143334      0.0894754422
H       5.0798325283     -1.4707466961     -1.4124759609      0.0258682988      0.2164683494      0.0470336960      0.0651980139
H       5.7992006999      0.1134498802     -0.9338959307     -0.1986574768     -0.1883177875      0.0148829864      0.0974709518
H      -3.9681540512     -5.9944381580      0.5791068278      0.1361526119      0.0779134720     -0.3223926620      0.0513268450
H      -2.5030031892     -5.7030196339     -0.4340934169     -0.3242697802      0.0477299554      0.0219574493      0.0439911968
H      -4.1129818196     -5.0543776861     -0.9553738317      0.2025462877     -0.1698706841      0.1865453094      0.0401705967
H       6.6230017299     -0.8978900384      1.2001768076     -0.0758918707     -0.2579225215     -0.1937935959      0.0742278187
H       5.8989720984     -2.4896088462      0.7234289059      0.1936762821      0.2345799109     -0.0171094124      0.0272152243
H       7.2469787209     -1.7809240021     -0.2452908880     -0.1687577907     -0.0190510730      0.2826543057      0.0357297152
B       4.8759163073      3.0529777845      3.2350679145      0.4245329580      0.3259477073      0.2792424934      1.2859387023
F       5.1895919994      3.5854389894      1.9561603792     -0.0697312338      0.0194277286     -0.3868886578     -0.5669507803
F       3.6270125031      3.5704091305      3.6703623078     -0.4891530624      0.0454247575     -0.0166577746     -0.5682025934
F       5.8888859831      3.4170188716      4.1615854488     -0.0036739957     -0.0076253066      0.0184709396     -0.5533337022
F       4.7987788256      1.6381407581      3.1543959739     -0.1818759486     -0.5773034585     -0.2072227606     -0.5714301899
