50
Properties=species:S:1:pos:R:3:forces:R:3:charge:R:1 energy=-270.46053873883193 homo_lumo=0.6458022652235202 dipole="-5.880760698123989 0.5179951687598027 -3.8706339244258783" free_energy=-270.46053873883193
N      -1.5434131444      0.0899009000     -0.0766737608      0.0531599965     -0.1199365584     -0.3588782404     -0.5231539732
C      -2.5548063203      0.4818790942     -1.1120221255     -1.4408312826      0.4370851334     -0.9942288440     -0.0286687215
C      -1.7899930567     -1.3353814649      0.3170254469     -0.5641858312     -1.6226781658      0.7673776396     -0.0391431261
C      -0.1991900707      0.1843430101     -0.7432055335      1.8953106477      0.0288993113     -0.2840714382     -0.0480926639
C      -1.6202308072      0.9675519058      1.1432631220      0.0132340708      1.2353158309      1.2593531089     -0.1011787127
C      -4.0142046462      0.2786613274     -0.6738606356      0.0431461833     -0.0228661953      0.0342687754     -0.1787339916
C      -3.2342453838     -1.6118450887      0.7854732793     -0.0506066918      0.1605005165     -0.0682974688     -0.1712701406
C      -4.2508673181     -1.1718780534     -0.2646572491     -0.3001826657     -0.0640785744      0.1388496455     -0.1678857071
C       1.0279490456     -0.1244567860      0.1489613344     -0.4354266462      0.0977109664     -0.1105412377     -0.2261234835
C      -1.2889225197      2.4534319836      0.9197734515      0.0869601773     -0.1682095424     -0.2417582480     -0.1276706333
C       2.3246407486      0.0406987802     -0.6578070342     -0.1107957948     -0.0462994765      0.0298024093     -0.1557284628
C       3.5550414774     -0.2896937483      0.1919144748     -0.0370748475      0.1894550091     -0.3097455312     -0.1775586051
C       4.8493916715     -0.0973901069     -0.6063522232      0.0158535667     -0.0977425814      0.1728159239     -0.2039772481
C       6.0741673564     -0.4560429759      0.2312787559      0.2799487590      0.0742695238     -0.0486371384     -0.0819176210
H      -2.4104274135     -0.1271903893     -2.0356537832      0.3632950263      0.0060886440      0.5545221820      0.1520761721
H      -2.4203385999      1.5347364056     -1.4363440634      0.3629659184     -0.2941353678      0.3924701919      0.1563914600
H      -1.1144135637     -1.6432152918      1.1440861643      0.0508585533      0.4860162735     -0.4050271661      0.1754586781
H      -1.5804781398     -2.0175537431     -0.5392898755      0.0862458426      0.6210350693      0.0704219300      0.1483654958
H      -0.0598215413      1.1957204036     -1.1864262488     -0.4074730441     -0.2166325115      0.3135010861      0.1547811194
H      -0.1577572889     -0.5162934338     -1.6096150397     -0.4686865391      0.1272838474      0.3923923509      0.1482172479
H      -2.6290307741      0.9402375104      1.5972191948      0.0971755618     -0.3868507834     -0.5085585264      0.1789759383
H      -0.9518059749      0.5827138414      1.9435557087     -0.0253001711     -0.2395058697     -0.6013228547      0.1789935117
H      -4.6821606137      0.5224397904     -1.5282025853      0.3195412736      0.1164422451      0.1647560839      0.1219274317
H      -4.2872077552      0.9685267863      0.1507020244      0.0725583410     -0.1040965952     -0.1518218476      0.1113534714
H      -3.4424274131     -1.1090811707      1.7527745903      0.1038784382     -0.1109118131     -0.1757992442      0.1136351706
H      -3.3538504521     -2.7021797946      0.9639564714      0.2888949417      0.2869988908      0.0289204814      0.1303589258
H      -5.2790178191     -1.2792295399      0.1430821591      0.2488238336     -0.0768762134     -0.2038989672      0.1055069684
H      -4.1648197663     -1.8278093388     -1.1589403112     -0.0653570695      0.1360855323      0.1721662333      0.0981807344
H       1.0724973176      0.5687621085      1.0134791373     -0.0107213095     -0.2510987717     -0.0893242884      0.1420277309
H       0.9791335401     -1.1666887619      0.5264478661      0.0190343407      0.2757231957      0.0379232859      0.1298505732
H      -0.2444354384      2.5985290343      0.5804592894     -0.3102258789      0.0302850475      0.0530610636      0.0893912200
H      -1.9918839835      2.9281221419      0.2077218399      0.2411409800     -0.0637405613      0.1298969962      0.0651820595
H      -1.3963161372      2.9901156139      1.8860956323      0.0211109720     -0.2787910740     -0.2364873028      0.0996879962
H       2.4012522504      1.0914629253     -1.0151949893     -0.0282591698     -0.2128309726     -0.0624153749      0.0799068003
H       2.2998494271     -0.6330744505     -1.5423190123     -0.0220723330      0.2082731425      0.0489321497      0.0730641799
H       3.4887071943     -1.3445639806      0.5399544585      0.0555981882      0.3970523192      0.1618105256      0.1108672959
H       3.5717112355      0.3842983178      1.0749813807      0.0421906417     -0.4536415633     -0.0058170184      0.1435418855
H       4.8325051433     -0.7418133029     -1.5120729215     -0.0810908654      0.2123787238      0.0390820436      0.0592240817
H       4.9337779614      0.9631220056     -0.9293653046     -0.0974224266     -0.1991002682     -0.0763867598      0.0646995085
H       6.0314134785     -1.5217524499      0.5421793375      0.0580916323      0.4006148790      0.0790892298      0.0535797216
H       6.9941986717     -0.2990047586     -0.3704510172     -0.1557918039     -0.0812686910      0.2091054537      0.0238056701
H       6.1276611400      0.1876303133      1.1351581277     -0.0012740269     -0.4063390809     -0.1540286005      0.0875409297
S       4.7017480091     -1.0150475406      4.6712847321      3.8122303270      9.0894452008     -4.1473652518      1.5699675786
O       6.2268609747     -0.8734660579      4.5630765604     -1.7060738978     -2.6424661437      1.2935049932     -0.7587047370
O       4.2326555161     -0.8030749853      3.2277235965     -1.0675729222     -2.5770472881      1.3132770235     -0.8039309000
O       4.2738011790      0.2847033689      5.3679352058     -0.9065759852     -3.0691002440      0.9936730629     -0.7659802663
C       4.1087116312     -2.5467880021      5.4383646282      0.0278186480     -0.4636733993      0.3412416717      1.1043478149
F       4.5807081484     -2.6267349294      6.7338015453     -0.5724547094     -0.3163103755     -0.8964522638     -0.4312931630
F       4.5649842431     -3.6305930947      4.7133498337     -0.5292152668      0.3968841780      0.7475309714     -0.4365560199
F       2.7272370118     -2.5504689796      5.4497113965      0.7356043177     -0.4276147980      0.1911171004     -0.4433391952
