41
Properties=species:S:1:pos:R:3:forces:R:3:charge:R:1 energy=-224.04540230358683 homo_lumo=4.165426842803128 dipole="-0.24164888002456703 1.4864830971656824 2.2164866645839805" free_energy=-224.04540230358683
N      -0.9079860957     -0.0387121227     -0.1927129216      0.1749477631      0.1692013757     -0.0490263580     -0.5037423685
C      -2.0351423148     -0.0564719745     -1.1837280901     -0.6520400801      0.1314665959      0.0237635386     -0.0227923677
C      -1.1112355665      1.2568415021      0.5302243545     -0.3256844642      0.2543648226      0.2500372330      0.0143535048
C       0.4108350363     -0.0539619800     -0.9080719916      0.5778211490     -0.0482900094      0.5112169292     -0.0765792904
C      -3.2253174802      0.5608504570     -0.4595477150      0.1371432226     -0.0482147619      0.0723568065     -0.1353434513
C      -2.6236077762      1.4249206118      0.6596630130      0.1038698540     -0.0084915537      0.0383457555     -0.1303604630
C      -1.0385549864     -1.1776536048      0.7835055226      0.0737939834     -0.5889133344      0.0211537602     -0.0681073733
C       1.6238615870      0.0937911055      0.0025359777     -0.1775255549     -0.0482862978     -0.5679800382     -0.1998193888
C      -0.8093342242     -2.5608091887      0.1930892765     -0.0783748056      0.5165398699      0.2574970731     -0.0969496200
C       2.8913784586     -0.0038580722     -0.8575443303      0.0051870644      0.0143402173      0.6219498858     -0.2008278571
C       4.1506927043      0.0950350341     -0.0006631078     -0.3108145555      0.0076630743     -0.3281619408     -0.0454122476
H      -2.2149225602     -1.0739557409     -1.5261810612      0.0924751579     -0.1750357550     -0.2589972521      0.2095203204
H      -1.7293436794      0.5467573196     -2.0404031757      0.1698620521     -0.0160188953     -0.1469196553      0.1468395451
H      -0.5952666022      1.2320866912      1.4900200215      0.2017953675     -0.0014478578      0.1599742087      0.1126030586
H      -0.6838574484      2.0474543851     -0.0905026483      0.1493810308      0.0937864919     -0.1879030126      0.1254360435
H       0.4720740531     -0.9935226737     -1.4548840935      0.0394928719     -0.1205017125     -0.1777349808      0.2820005360
H       0.3829243432      0.7585185481     -1.6376192345     -0.1094885596      0.1073322686     -0.1894624757      0.1245743130
H      -3.8162666246      1.1594541033     -1.1544433423     -0.1841816755      0.0453102438     -0.1854123993      0.0962882418
H      -3.8748441364     -0.2118407302     -0.0429993209     -0.2171295196     -0.1512189422      0.0570140956      0.0737600246
H      -2.9689417996      1.0897258252      1.6399747669     -0.0952609586      0.0027325205      0.2528311586      0.0773397788
H      -2.8933181438      2.4763802288      0.5473524217     -0.0540457703      0.2584964217      0.0788285369      0.0923203648
H      -0.3233469487     -0.9904481646      1.5885621115      0.1073777297      0.1673997037      0.1531399869      0.1205524220
H      -2.0457196588     -1.1152698728      1.2023187756     -0.2223469470      0.1271382812      0.1045672767      0.1507002677
H       1.6056722064      1.0549039426      0.5262591538      0.0616211108      0.2516097342      0.1971232258      0.0816379815
H       1.6417439520     -0.7012494123      0.7532155465      0.0552998469     -0.2255098954      0.2220773337      0.1029443484
H      -0.9649716919     -3.2849755618      0.9928828231     -0.0527003774     -0.2205806557      0.2761496087      0.0434864388
H       0.2025416664     -2.6805144142     -0.1875155224      0.2422828480     -0.0965511684     -0.1636698433      0.0806689101
H      -1.5071255262     -2.7813383401     -0.6116296014     -0.1164665169     -0.1463688619     -0.3016707131      0.1056338447
H       2.8854232151     -0.9568978970     -1.3951447984     -0.0668043311     -0.1813789854     -0.2164803502      0.1232244835
H       2.8878841171      0.8003507389     -1.5999764768     -0.0306886356      0.1566573903     -0.2493634343      0.0879441764
H       4.1809606495     -0.7138591254      0.7305565361      0.0597798147     -0.2380495505      0.2454870330      0.0273912853
H       4.1799215684      1.0468476272      0.5319890809      0.0692905088      0.2769711075      0.1994246840      0.0223313791
H       5.0346289255      0.0237323766     -0.6339459907      0.3475744679     -0.0109923358     -0.0964085218      0.0405882036
S      -0.5599774131     -2.1674378900     -3.4098807959     -0.0218907491      0.1634343819     -0.2992689824      1.7570171606
O       0.6070094654     -2.6580649730     -2.6903527927      1.1981505962     -0.6023619629      0.4676770001     -0.8112615530
O      -0.5424088167     -0.7280937250     -3.6429126290      0.0514438190      1.0716157012     -0.5939336520     -0.8150483460
O      -1.8273632742     -2.6600730380     -2.8877916169     -1.2573857804     -0.6432471354      0.2680673175     -0.8137972205
C      -0.4239493752     -2.9140011170     -5.0937606374     -0.0750509102      0.4137607581      0.9634203926      1.1530791135
F      -0.4354335011     -4.2386150815     -5.0204790363     -0.0094483183     -1.5243667039      0.0859617332     -0.4431930315
F       0.7065274762     -2.5357744224     -5.6782460480      1.2783502534      0.4318630435     -0.6507604985     -0.4444443028
F      -1.4394720157     -2.5269349358     -5.8562907076     -1.1396120023      0.4341423717     -0.8649104656     -0.4445568651
