43
Properties=species:S:1:pos:R:3:forces:R:3:charge:R:1 energy=-231.58613695159033 homo_lumo=3.654359259888692 dipole="0.061382317828955514 -1.8994507675202257 1.3372042734714062" free_energy=-231.58613695159033
N      -0.3744641952      0.4030877710     -0.3600967629     -0.0036649769      0.0008288020     -0.0002984074     -0.4824891687
C      -1.4332546217      0.2419236786     -1.4465222467      0.0047452582      0.0102747109     -0.0006896985     -0.0298986557
C      -0.6883734144      1.6595051729      0.4435163281     -0.0040579682      0.0012873240     -0.0081010200     -0.0547775538
C       0.9443950220      0.6061578252     -1.0934556140     -0.0118772041      0.0125761319     -0.0069415230     -0.0321872219
C      -0.3339475836     -0.7891434807      0.5597470191     -0.0060790293      0.0069078839      0.0107590558     -0.0194171024
C      -2.8498724765      0.2338768548     -0.9028992287     -0.0101938736      0.0075563029      0.0126870552     -0.1676646466
C      -2.0990790589      1.6600810251      1.0086205140     -0.0139882641     -0.0029096988     -0.0056078434     -0.1531080551
C      -3.1259209025      1.5147191972     -0.1146935802      0.0009733015      0.0056744200     -0.0043296091     -0.1604229601
C       2.1548316886      0.8572755709     -0.1924098443      0.0004771185     -0.0033311664      0.0054607275     -0.2097967968
C       0.1959813132     -2.0693990029     -0.0577411994      0.0020955901     -0.0072270412     -0.0070482250     -0.2110189571
C       2.6408861610      2.3076492438     -0.2496923383      0.0069395869      0.0158958422      0.0024634944     -0.2153262570
C       0.0168896569     -3.2374030334      0.9111781009     -0.0000840997     -0.0166253500      0.0103400637     -0.2007835111
C       3.8520260789      2.5442900621      0.6447636611      0.0077049483     -0.0050223326      0.0105352078     -0.0638666354
C       0.5589636394     -4.5432292725      0.3393862969      0.0073309406     -0.0100387827     -0.0084514317     -0.0673644709
H      -1.1832208256     -0.6775907135     -1.9936262562     -0.0021270934      0.0025794484     -0.0183456256      0.1066977766
H      -1.2800396549      1.1304989962     -2.0997329635     -0.0098448955      0.0158155516      0.0065421067      0.1912968113
H      -0.5692930747      2.4890989433     -0.2892170008     -0.0143054972      0.0003540800     -0.0163409996      0.2011512316
H       0.0732214050      1.7202985998      1.2338560690      0.0076622655      0.0176298047     -0.0040026482      0.1178210602
H       0.7438457654      1.4818180661     -1.7502952533      0.0021991014      0.0052914872      0.0032348863      0.1959868447
H       1.0670718870     -0.2853249889     -1.7234793418      0.0070336304     -0.0011524429     -0.0031351481      0.1058933571
H      -1.3572961875     -0.9401568090      0.9248554448     -0.0030827860     -0.0039423109      0.0010278842      0.1711818429
H       0.2811436179     -0.5011833044      1.4253158423     -0.0018161810     -0.0022765267      0.0031484030      0.1208542780
H      -3.0523188787     -0.6588324120     -0.2820316667      0.0036294953     -0.0033815377     -0.0018403818      0.0694657400
H      -3.5211233020      0.1624718262     -1.7754594862      0.0023040369      0.0124193256     -0.0031470128      0.1041969280
H      -2.2286946679      2.6249146799      1.5277994964      0.0034183380      0.0056014852     -0.0115732429      0.1046921828
H      -2.2411676364      0.8740245377      1.7726858474      0.0087946691     -0.0006674304      0.0005611967      0.0656416513
H      -3.0251845009      2.3773291035     -0.7981060906      0.0067382135     -0.0067771800      0.0034109527      0.1283897305
H      -4.1503286120      1.5087978327      0.2916530028      0.0075655413      0.0010155347     -0.0016102202      0.0668695999
H       2.9776552325      0.1894545354     -0.5052668546     -0.0052269432      0.0020663787     -0.0229329386      0.0899834019
H       1.9491478182      0.5803386512      0.8570569279      0.0028177114      0.0002939512     -0.0035482880      0.0933100004
H       1.2654971208     -1.9632691674     -0.3041148345      0.0004060903     -0.0060541061      0.0084260302      0.1176720545
H      -0.3341034701     -2.2989693564     -0.9975008130     -0.0063261753     -0.0083801201      0.0063708407      0.1138358671
H       1.8161183005      2.9881050435      0.0188935979      0.0041392299      0.0059304880      0.0118155797      0.1304882532
H       2.8798185762      2.5561705612     -1.2981795644      0.0122872666      0.0063075514      0.0022470457      0.1053133556
H      -1.0559887209     -3.3474062352      1.1503695106     -0.0020541531     -0.0228475471      0.0058566228      0.0885237964
H       0.5271690700     -3.0018944769      1.8626015793      0.0083366212     -0.0184097173      0.0082040158      0.0889030647
H       4.6921359698      1.8905336942      0.3568084537     -0.0014856993      0.0063165008     -0.0002849756      0.0278802283
H       3.6150172628      2.3336671119      1.7014031400     -0.0024041894      0.0047678457     -0.0029170211      0.0227388233
H       4.2008392430      3.5859556698      0.5811814467     -0.0124478915      0.0015342351     -0.0086436375      0.0444299311
H       1.6339113371     -4.4565591433      0.1153906093      0.0025000572     -0.0078138278      0.0025930145      0.0397784667
H       0.0413163867     -4.8049887989     -0.5972035963      0.0017095208     -0.0075058852      0.0024095538      0.0392985067
H       0.4259221431     -5.3771364038      1.0439524729     -0.0005526370     -0.0033578441      0.0065560841      0.0449552281
Cl     -0.5371825448      3.3107177148     -2.4257657397     -0.0001889752     -0.0112042380      0.0151400770     -0.7291280203
