26
Properties=species:S:1:pos:R:3:forces:R:3:charge:R:1 energy=-144.4051933372782 homo_lumo=0.1689864867955657 dipole="-2.6680010376333043 -2.1813901012629318 -0.8067355354277891" free_energy=-144.4051933372782
H       0.5049903556     -0.4515447793     -4.9201483592     -0.1976725348     -0.1049542686      0.3232262833      0.0930112239
H      -1.1833126492     -0.5597320726     -4.2835790431      0.4754097911     -0.0914822882      0.1864214506      0.0778206128
H      -0.1055402539     -2.0082102713     -4.2239536996     -0.0002228467      0.3907797810      0.0988236347      0.0808601633
C      -0.1368388134     -0.9018662021     -4.1341632060     -0.2154571232     -0.0819217134     -0.4578752968      0.0694864383
H       2.4369107280     -0.2906278057     -0.3299644812      0.0366739513      0.3741053262      0.1261426678      0.0563231028
H       2.3365847186     -1.3457875526     -2.7837324706     -0.0881589633      0.0147592221     -0.2009343036      0.0495863170
H      -1.3281971269      0.5773119707     -2.0056924046      0.0466240413      0.0291774919     -0.0296998487      0.0806663310
N       0.3476430475     -0.5037382371     -2.8190440212     -0.6136563445      0.3936414727      0.4036321793     -0.5606226987
C      -0.3188245637      0.2031577703     -1.8856819985     -1.5892811005      0.6900537563     -0.1862024404      0.5523892315
N       0.4294658005      0.3730865069     -0.7777756702     -0.6322675203      0.0678960759     -0.7757403205     -0.5020899531
C       1.6049887220     -0.2419778527     -1.0206823698      1.6063906187     -0.6313144153     -0.3416075442      0.2691379023
C       1.5539589306     -0.7849767444     -2.2889148944      1.4509809768     -0.3695209917      0.8813670350      0.2455203046
C       0.0422547444      1.0759992106      0.4431011540     -0.2161967948      0.1150975214      0.5739352857     -0.0109883970
H       0.8512201998      1.7815867056      0.7337484545      0.0964768666     -0.1344539641     -0.4532758207      0.1534854672
H      -0.8806065207      1.6685813128      0.2575355573      0.3573656373     -0.2211731511     -0.2079687226      0.1045089373
C      -0.2175127841      0.0731022784      1.5708616002     -0.0535664936      0.0945264027      0.0024323944     -0.1995372712
H       0.7075832724     -0.5136289793      1.7632718371     -0.2440236226      0.0839252340     -0.0604283750      0.1216557681
H      -1.0204479173     -0.6279884010      1.2511585747      0.2280644661      0.0522206672      0.0838079582      0.0975783700
C      -0.6449730089      0.7882591175      2.8569433827      0.0803547088     -0.0608616267     -0.0152586170     -0.2217050838
H       0.1667672469      1.4708330610      3.1921593888     -0.2452609230     -0.0544403532     -0.1813064400      0.1143138622
H      -1.5582470028      1.3932677694      2.6647740425      0.2687913505     -0.0135149561     -0.0002596867      0.0906572763
C      -0.9427746082     -0.2113170925      3.9706087445     -0.0749721280      0.0317720759      0.1914942168     -0.0850520012
H      -0.0396155381     -0.8168010413      4.1985336156     -0.3112258831      0.1026533602     -0.0087300112      0.0478085880
H      -1.7719998826     -0.8874121166      3.6706684373      0.2557458343      0.1086360343      0.1667375710      0.0384342042
H      -1.2454740267      0.3347738544      4.8886802837      0.0757362651     -0.2842504606     -0.1854722724      0.0545379154
Cl      3.7186511265      2.7584045107     -0.5723088330     -0.4966522293     -0.5013562327      0.0667390230     -0.8177866114
