38
Properties=species:S:1:pos:R:3:forces:R:3:charge:R:1 energy=-208.54457967582144 homo_lumo=5.817186043087457 dipole="-0.3889542807636541 1.39766863102725 -2.5513199178817496" free_energy=-208.54457967582144
N      -0.2981719044     -0.1636568527      0.0080843054     -0.0059908210     -0.0027939939      0.0072442300     -0.4938995317
C      -1.0253924773      0.5795877241     -1.0918582271      0.0116419870      0.0016658967     -0.0067333577     -0.0041526203
C      -0.9928869068     -1.5068685142      0.2200913492      0.0042080241     -0.0025998785      0.0028915669     -0.0619467537
C       1.1202138349     -0.4159020605     -0.4760948109     -0.0024614031      0.0047432517     -0.0184243699     -0.0163564589
C      -2.5039303830      0.7756487980     -0.7997917434     -0.0061627612      0.0055453969     -0.0029734642     -0.1708117447
C      -2.4766464122     -1.3652824612      0.5072315997     -0.0032587122     -0.0068228262      0.0048284688     -0.1755198567
C      -0.2909932243      0.6226168942      1.3123981220     -0.0040500288     -0.0090485348     -0.0085609410     -0.1456061232
C      -3.1997933489     -0.5672478807     -0.5741419468     -0.0047030885      0.0033918869     -0.0040207299     -0.1586285583
C       2.0470061232     -1.0824608163      0.5242669285      0.0010948683     -0.0024511769      0.0113533349     -0.2794377131
C       0.3514990000      1.9895316365      1.2178705277      0.0109356638      0.0219293013     -0.0062420046     -0.1069812511
C       3.3919702189     -1.3812474247     -0.1352868829      0.0097456819      0.0017375155     -0.0072959418     -0.0663318123
H      -0.8952534852     -0.0339935384     -1.9986615026     -0.0004355483     -0.0002516135     -0.0017507059      0.1267339007
H      -0.5002959896      1.5320020239     -1.2480601707      0.0020825102     -0.0015964423      0.0035194615      0.1327127401
H      -0.4833749245     -2.0235397500      1.0463643872     -0.0065784776     -0.0029066805      0.0015336629      0.2556440661
H      -0.8284412751     -2.0597843247     -0.7204064513      0.0037253392     -0.0095459063     -0.0012188779      0.0974229114
H       1.5169440296      0.5611888509     -0.7946730074     -0.0051058022     -0.0006417761     -0.0023730114      0.1277249265
H       1.0106121529     -1.0384810842     -1.3797214226      0.0014810575     -0.0016747948      0.0022444055      0.1226629678
H      -2.9414980116      1.3090776577     -1.6605485975      0.0018897559     -0.0016115153     -0.0024144335      0.1002704830
H      -2.6389904748      1.4334080105      0.0752530151      0.0062352965      0.0015880468     -0.0012186969      0.1082115287
H      -2.6199626446     -0.9300446088      1.5080540661      0.0044222033     -0.0027954822     -0.0010121130      0.1382018162
H      -2.8769316854     -2.3901433378      0.5786641910     -0.0030821059      0.0023052952      0.0006330425      0.1139144335
H      -1.3347401398      0.7026848346      1.6325018820     -0.0060070843     -0.0055034264      0.0043278292      0.1700123238
H       0.2130908248     -0.0085804452      2.0569827699      0.0030329467      0.0013233537      0.0012281371      0.2750878609
H      -4.2548438296     -0.4091488844     -0.2999625514     -0.0009604233      0.0001294562     -0.0038999755      0.0857740409
H      -3.1949052312     -1.1368716810     -1.5221303788      0.0032239689      0.0006934055     -0.0042379887      0.0804844862
H       2.2008324895     -0.4405139089      1.4041161057      0.0004434760      0.0019648304     -0.0036183934      0.1435969780
H       1.6067281246     -2.0121955517      0.9151434892      0.0069100580      0.0078821870     -0.0002297092      0.1777627079
H       0.3169903528      2.4301482880      2.2261872682      0.0050337946     -0.0052857730     -0.0039237395      0.0860971577
H       1.4104595555      1.9444489448      0.9253198311     -0.0011197282     -0.0086284746      0.0070474063      0.0522893095
H      -0.1788393359      2.6768960306      0.5421119594      0.0065555908      0.0064602635      0.0071576568      0.0347828379
H       4.0620164236     -1.8604124835      0.5927863939      0.0028138458      0.0063969452     -0.0121008792      0.0647671912
H       3.2800528539     -2.0666444257     -0.9906076135     -0.0014386067      0.0013174372     -0.0041676355      0.0285976965
H       3.8841035930     -0.4633146098     -0.4950233766      0.0014952003      0.0045935631     -0.0067290313      0.0268464776
B       0.1098355038     -2.0838764667      3.6367594015     -0.0070226832     -0.0091943549      0.0213336743      1.3880661704
F       0.1322817311     -2.7162756973      4.8763407104      0.0036939973      0.0000548238     -0.0125444444     -0.5264982030
F      -1.1695314417     -1.4880967993      3.3753109138     -0.0053314801     -0.0124828324      0.0223398964     -0.5797193350
F       0.3795903724     -3.0222109950      2.5721601079     -0.0076309742      0.0130578976      0.0085394412     -0.5767374799
F       1.1018003625     -1.0442752542      3.5656280966     -0.0193255372     -0.0009452715      0.0094682303     -0.5750375707
