43
Properties=species:S:1:pos:R:3:forces:R:3:charge:R:1 energy=-236.7881064250179 homo_lumo=0.010246459640437888 dipole="-6.476495790703991 3.9118555509257327 -2.7419901291679074" free_energy=-236.7881064250179
N       0.1477324428     -0.0061002716     -0.3729834292     -0.5586513369     -0.0364779425     -0.3099507389     -0.5328871861
C       1.5878064314     -0.0011081662     -0.6569992735      1.1984533825      0.0285421950     -0.1181993383     -0.0755571273
C      -0.5218506601      1.1797652014     -0.2389635732     -0.9922952041     -0.3157677349      0.2269253856      0.2595461092
C      -0.5142517766     -1.1957207320     -0.2325917839     -0.9701717358      0.3208297613      0.2240894214      0.2628796415
C       2.3850267071      0.0334352403      0.6416590984      0.0015332564     -0.0054249525      0.2676759145     -0.1184843233
C      -1.8915867385      1.1941027859      0.0348208797      0.7700460579     -0.5354383503     -0.1077057706     -0.0070838335
C      -1.8839256445     -1.2167998032      0.0416859865      0.7416548983      0.5560314713     -0.1068570142     -0.0057003828
C      -2.5744370607     -0.0131293897      0.1743997794      0.1638975152     -0.0104730043     -0.0394104041      0.0466413816
H       1.8743552924     -0.9045609101     -1.2398360194     -0.4485776830      0.2570498217      0.1455327997      0.1493450203
H       1.8576257741      0.8813709430     -1.2786150897     -0.4612236040     -0.2549080962      0.1361561411      0.1377568811
H       0.0023875727      2.1228289444     -0.3412506644      0.4928037171     -0.1059181214     -0.1216342213      0.1151906638
H       0.0158704080     -2.1359581316     -0.3288741026      0.5070718377      0.0902211479     -0.1153505090      0.1236293767
H       2.1153812677      0.9336744345      1.2334163888      0.1279192078     -0.2809584830     -0.1018016723      0.0705192772
H       3.4699354666      0.0698598440      0.4101641165     -0.3415606949     -0.0906431502      0.1230955336      0.1088054919
H       2.1745554680     -0.8765784003      1.2428454279      0.1956876325      0.3075876799     -0.1045284708      0.0979138032
H      -2.4180730488      2.1340668224      0.1387350675      0.0040062143      0.3012196601     -0.0064577141      0.0747983369
H      -2.4046091431     -2.1593684921      0.1514173443      0.0127702724     -0.3066922090     -0.0019061624      0.0787138648
H      -3.6356522341     -0.0157304426      0.3867918451     -0.3085578180     -0.0030137911      0.0533190979      0.0724920390
P       7.4696825332     -4.7680615772      3.0631886957      1.9984715174      0.8326436828      1.8188380941      1.6504967103
F       8.4203932887     -3.6454677711      3.9586090062      1.3027228214      0.7768620401     -0.6960684904     -0.5124894991
F       7.8035630274     -4.6770320132      1.3744742519     -0.8287057678      0.4882373024      0.2973245697     -0.5117388724
F       7.2146826424     -5.2535304761      4.6941974923     -0.6745654025     -0.1179458069     -0.2749281361     -0.5074555802
C       9.2189309806     -5.5936804762      2.9280454238      0.1289434534     -0.6480590271      0.0042855823      0.5438648088
C       6.6075391297     -3.0427126995      2.8833003533     -0.8499378660     -0.0331397886      0.0157474977      0.5567517041
C       5.9896801842     -5.9947523160      2.8727921510     -0.1825763421      0.1273194755     -0.7586343183      0.5370460970
C       9.9141050690     -6.0138217172      4.2502384058      0.3885574367      0.0970210067      0.8960291758      1.3383002459
C       5.3886007701     -2.9564219549      1.9402346462     -0.1678056004      0.1369242256     -0.3908009482      1.3245286381
C       6.2896231181     -7.4967686769      3.0309619752      0.1784504037     -1.0433925916      0.3161578312      1.3674737766
F      10.0857403462     -4.7108524952      2.2952387871     -0.2604097959     -0.4775551274      0.4238673928     -0.4319903046
F       9.1435779645     -6.7177062015      2.1294967546      0.5088142617      0.0132114541      0.2452851947     -0.4450920167
F       7.5234418791     -2.1142016341      2.3962379408     -0.7790973196     -0.4685921291     -0.0129335272     -0.4325197653
F       6.1812822485     -2.6181171524      4.1344064035     -0.1593499067      0.0688071558     -0.6229761615     -0.4344819970
F       5.4580529542     -5.8519727348      1.6040578909     -0.2874561072     -0.4527592875      0.0923038143     -0.4486664944
F       4.9927612846     -5.6679440064      3.7812299552      0.3447308541     -0.3492862854     -0.4238223712     -0.4371050274
F      11.0996108857     -6.6575729808      3.9418421485     -0.5229239968      0.2683353653      0.2621855735     -0.4527844999
F       9.1443739497     -6.8872566606      4.9875419754      1.0624630592      0.6611007279     -0.4985607668     -0.4412864625
F      10.2261321539     -4.9182406745      5.0347191628     -0.0482639176     -1.3216072985     -0.5352362980     -0.4352688456
F       5.0205333681     -1.6286619116      1.8170498479     -0.2468133287     -0.3111535711     -0.1967933482     -0.4760064805
F       5.6893024309     -3.4282084183      0.6762803206     -0.7283559820      0.7318159280      1.0363350920     -0.4358052315
F       4.3001094238     -3.6361388470      2.4491714876      0.6351519978      0.7924384143     -0.6819066039     -0.4494100308
F       7.0288772487     -7.9673369791      1.9634029983     -0.8163315185      0.2075163614      1.0092195151     -0.4388260848
F       5.0912186639     -8.1890432226      3.0407512383      0.6160916900      0.2201863847     -0.0217952149     -0.4521350526
F       6.9418191620     -7.7730515530      4.2120154478     -0.7466105590     -0.1146945134     -1.3461154265     -0.4339187696
