43
Properties=species:S:1:pos:R:3:forces:R:3:charge:R:1 energy=-240.0733230055371 homo_lumo=2.167652846693413 dipole="-2.5609303170430535 -1.7687829042364462 0.06615861800375368" free_energy=-240.0733230055371
N       1.8004135941      0.1197425658      0.0752023013      0.0100601606      0.0062406705     -0.0011613974     -0.5033217318
C       2.4194670834     -0.4773865280      1.2874241672      0.0023259806      0.0024158700     -0.0017578194     -0.0909009062
C       1.1145784468      1.2764713939      0.1711042996      0.0036268423      0.0068095533     -0.0018608607      0.2945053137
C       1.9590477811     -0.4977246877     -1.1148765274      0.0051417507      0.0030143708     -0.0033638083      0.2856088909
C       1.6013101518     -1.6463486906      1.8076839308     -0.0051447668      0.0046196510     -0.0079726580     -0.0708271198
C       0.5454227282      1.8495853508     -0.9489515844      0.0021057349      0.0008675502      0.0009877519     -0.0053325731
C       1.4172669521      0.0420360676     -2.2630384007      0.0032069336      0.0010920732      0.0013423449     -0.0035277385
C       0.7011589230      1.2320320029     -2.1841169272      0.0012946386      0.0002426760      0.0009098461      0.0545619297
H       3.4418493605     -0.7607237407      1.0024535496      0.0034592893      0.0013745373      0.0044286973      0.1696675506
H       2.5059560159      0.3320151011      2.0229816486      0.0013031775      0.0023988432     -0.0003894742      0.1464035690
H       1.0784469358      1.7376286962      1.1546642880      0.0022452245      0.0017605337      0.0027460743      0.1157526544
H       2.5614279710     -1.4021755298     -1.1125645499      0.0003652174     -0.0023935683      0.0031468987      0.1092358675
H       0.5828316112     -1.3317469826      2.0798963176     -0.0041909822      0.0042830001     -0.0099217127      0.0603770795
H       2.0900651671     -2.0503337412      2.7063146886     -0.0049357406      0.0065839665     -0.0068314316      0.0735518988
H       1.5328075147     -2.4567853372      1.0669048479     -0.0060743147      0.0032604685     -0.0055480582      0.0575640877
H       0.0271201894      2.8019126980     -0.8477690306     -0.0062705200     -0.0017948906     -0.0011144153      0.0733407058
H       1.5949289131     -0.4554529667     -3.2157943725     -0.0031013017     -0.0020222641      0.0002335877      0.0668191738
H       0.2923091625      1.6906529141     -3.0854655584     -0.0071126772     -0.0016141180     -0.0031020022      0.0675365476
P       4.7891834314      2.7474163700     -0.4901558850     -0.0031664583      0.0091304935      0.0010033384      1.7475762289
F       3.3460400227      2.8118836256     -1.3517934682      0.0013862014     -0.0045655698     -0.0060054829     -0.5312203671
F       5.6296537254      3.5756331403     -1.6448511243      0.0060003510      0.0076626112     -0.0014853316     -0.5031184768
F       3.9512126808      1.8909238652      0.7100524068     -0.0030844582     -0.0061779052      0.0047231594     -0.5397131178
C       4.2057300296      4.4999457603      0.2171745444     -0.0084956129     -0.0036941737      0.0002843424      0.5203032089
C       5.1562568672      1.0471726054     -1.5726549090      0.0123764258     -0.0070746617      0.0015579480      0.4949684046
C       6.4387534739      2.4415998856      0.6330844018     -0.0044850247      0.0044636660      0.0044933095      0.5304038940
C       2.9811508781      4.6066478743      1.1779594761     -0.0058555222      0.0017562645      0.0015013831      1.3634945451
C       6.5494590174      0.6567465999     -2.1843358618      0.0056935706     -0.0087326064      0.0005261416      1.3780986495
C       6.7744843724      3.1000971813      2.0158172177      0.0042790966      0.0041942015      0.0048966760      1.3900435935
F       3.8559217397      5.3020724813     -0.8490981800     -0.0082857237      0.0018634476      0.0054160889     -0.4372172419
F       5.2332630680      5.1477309894      0.8607176143     -0.0084640673      0.0036734308      0.0021778529     -0.4496077234
F       4.3582377987      1.1036274568     -2.7024716223     -0.0008481960     -0.0105550445      0.0120879424     -0.4480753687
F       4.7486573723     -0.1007660194     -0.8850039410      0.0128794709     -0.0032434952      0.0098592978     -0.4749816076
F       7.5615424564      2.6563438827     -0.1297595747     -0.0076520860      0.0041370031     -0.0045590459     -0.4410329873
F       6.3924966245      1.0881931662      0.9382458119      0.0029285085      0.0054906048     -0.0045098848     -0.4517693152
F       2.7849810234      5.9054391678      1.5241642551     -0.0039313753      0.0056843297     -0.0082914968     -0.4437201756
F       3.1271817386      3.8978078332      2.3215647007      0.0056173428      0.0058975977     -0.0008638636     -0.4523865946
F       1.8331696081      4.1768475517      0.5732903294     -0.0078739230     -0.0059326020     -0.0023783244     -0.4732858384
F       6.3527848519     -0.3945328838     -3.0444470816     -0.0079463271     -0.0074734790     -0.0130471914     -0.4574089306
F       7.0783201115      1.6722979085     -2.8946517761      0.0095418658     -0.0111166833      0.0061112196     -0.4358771423
F       7.4479149644      0.2383697455     -1.2713049480     -0.0005842051     -0.0191611743     -0.0019378467     -0.4424022463
F       7.3530532843      4.3115099671      1.8845276110      0.0095580347      0.0002514850      0.0067410948     -0.4404154484
F       7.6686262509      2.3097353698      2.6768991553     -0.0008901764     -0.0116712973      0.0041520399     -0.4494573871
F       5.6747290596      3.2073411191      2.7999747212      0.0029976411      0.0080546338      0.0067750706     -0.4542137551
