34
Properties=species:S:1:pos:R:3:forces:R:3:charge:R:1 energy=-181.1509035121022 homo_lumo=6.119269761897772 dipole="-2.9362338053407426 -1.1598431931676838 0.3807990370164752" free_energy=-181.1509035121022
N       0.6741811331     -0.1418069029      0.0007033705      0.1740520785     -0.1260707120     -0.1375254689     -0.5330137429
C       0.1590798710      0.8894214819     -0.9561848465     -0.4226574550      0.4733581129     -0.0596367375      0.0192653588
C      -0.5531259406     -0.8783247630      0.4286862665     -0.4304756725      0.0358043929      0.1559126754      0.0216132984
C      -1.1797342654      1.3387478920     -0.3796851601      0.0846318979     -0.0700434108     -0.0163131347     -0.1432410084
C      -1.6477636357      0.1838456560      0.5219384887      0.0488950755     -0.0739723352      0.0279342557     -0.1313431459
C       1.6503697795     -1.0371635914     -0.7099308085      0.4301181291     -0.5369057449      0.2863500294     -0.0385791099
C       1.2993685816      0.5415457008      1.1689907179      0.0411003858      0.1458782075      0.1540462305      0.0414599050
C       2.2458474261     -2.1339599075      0.1672986739     -0.0478403984      0.1669786481     -0.4054271390     -0.2417935731
C       3.2844939922     -2.9073228834     -0.6440604666     -0.2483016142      0.1573349959      0.2328780134     -0.0472504931
H       0.0264545693      0.4063942091     -1.9265552715      0.0459020306     -0.2071689408     -0.1761561576      0.1164053579
H       0.8948624219      1.6876650523     -1.0475813439      0.2154695238      0.0448951341     -0.0870502812      0.1731809264
H      -0.3640213766     -1.3885998856      1.3730308606      0.0985019233     -0.1748678024      0.1482200298      0.1214669220
H      -0.7866277263     -1.6166051342     -0.3418748984      0.0512097646     -0.1496222890     -0.2078696493      0.1223047613
H      -1.8905215766      1.5306784974     -1.1850333082     -0.1348494115      0.1375544826     -0.1791339098      0.0976401321
H      -1.0673974777      2.2581658780      0.1980134988     -0.0083952287      0.2452588159      0.0795261825      0.0889760055
H      -1.7718379920      0.5226848218      1.5523602516     -0.1004958751      0.0454188201      0.2317668810      0.0867691816
H      -2.6001434566     -0.2286863976      0.1845975218     -0.2396211325     -0.1235575569      0.0209370633      0.0952011303
H       2.4396840500     -0.3932127434     -1.0993191741      0.0838758706      0.1278970857     -0.0371846237      0.2464142827
H       1.1120102319     -1.4816579942     -1.5519524233     -0.2502992086     -0.0627554183     -0.1660119099      0.0932598397
H       2.1796354551      1.0816045750      0.8296710661      0.0991711759      0.0836454084     -0.0218687762      0.2080594518
H       0.5784421164      1.2330392418      1.5982018155     -0.2841988280      0.1617453318      0.0996779020      0.0826438360
H       1.5822086785     -0.1996071762      1.9120288450      0.0448698501     -0.2035636397      0.1488287929      0.0675494500
H       2.7445605961     -1.6953580177      1.0329722539      0.1068673787      0.1043295317      0.1794669352      0.1361660633
H       1.4599710321     -2.8095578243      0.5201407583     -0.2080349860     -0.2139534496      0.1069231152      0.0786865730
H       3.7102724638     -3.7007191596     -0.0304632422      0.1538865380     -0.2666038455      0.1036514104      0.0336826618
H       2.8332726787     -3.3524129332     -1.5317324209     -0.1005994683     -0.1926466991     -0.2834307022      0.0174618295
H       4.0869457186     -2.2380251127     -0.9539229222      0.2427340878      0.1959319569     -0.0918760333      0.0869414905
P       4.5780682120      1.4628168973     -0.5100829378     -0.0674358428     -0.1139030038      0.0426595447      2.1935236906
F       2.9802817896      1.6384732937     -1.0783183336      0.0946960874      0.0833287436     -0.1117698865     -0.5479655280
F       4.8744772580      0.4876342690     -1.7973921775      0.0497819854     -0.1096298798     -0.1823140293     -0.5103053829
F       5.0045112932      2.7843650459     -1.3504638885      0.0621037531      0.2037121917     -0.1353347349     -0.4916719214
F       6.0809982986      1.2590898248      0.0637422602      0.2480686110     -0.0284674434      0.0888095513     -0.4915835139
F       4.1479910779      2.3759539838      0.7913914180     -0.0420873936      0.1479948160      0.1784441432     -0.5137804554
F       4.0657036561      0.0997704821      0.3440842401      0.2093563680      0.0926654952      0.0128704184     -0.5381442733
