55
Properties=species:S:1:pos:R:3:forces:R:3:charge:R:1 energy=-296.184444097289 homo_lumo=5.203708433017612 dipole="-0.5742816480037513 -1.6231365930980428 2.816299094101404" free_energy=-296.184444097289
C       3.8861420525     -0.0802887977     -0.8267462546     -0.1884527183      0.0911349721      0.0806186690     -0.1524140304
C       2.9381250053      0.9905224539     -0.3133616297      0.6223670206     -0.0474221904     -0.0802885644     -0.0148181523
H       1.0959332584     -0.0212518218     -2.3235787226     -0.0200261917      0.0975952050     -0.0089361360      0.2669477360
H       1.0262517382     -1.4656364535     -1.2927156635     -0.1851581715     -0.1466986109      0.1324926064      0.0924187056
H       3.2628134620     -0.4506409560     -2.8691244278     -0.0072226666      0.0942502111     -0.1933017596      0.1737954932
H       3.2708455602     -1.9029570041     -1.8534049588      0.0814304026     -0.2675993932     -0.0449945872      0.0630715057
H       4.2072749283     -0.7432286175     -0.0191689132      0.1305374380     -0.1353775564      0.2203153404      0.0691961679
H       4.7698344880      0.3763543983     -1.2715084288      0.2371812005      0.0767525712     -0.0026399673      0.1166638609
H       3.1697450657      1.3537897433      0.6880316982     -0.0227788605      0.1146246608      0.2878441264      0.0858210813
H       2.8932564791      1.8292048795     -1.0098860448     -0.0961682669      0.0764240315     -0.1545784063      0.2274959401
H       0.5173422592     -1.0420809921      0.8978412913     -0.2159287253     -0.1303566579     -0.0245020515      0.0917389063
C       1.4537654945     -0.4901324464      0.9283481410     -0.0095644656     -0.0637485184      0.0223139181      0.0767640835
H       2.2833935337     -1.1913966055      0.9805763026      0.2345916276     -0.1935984513     -0.0174206014      0.1092939883
H       1.4680950868      0.1670031187      1.7963923402      0.0082899854      0.1891559661      0.2253233324      0.0759115544
C       0.5292701175      1.3992912701     -0.3407013532     -0.6447424368      0.0294403495      0.0891721295     -0.0761313444
H       0.7064742058      2.0177216146      0.5436319941      0.1560030635      0.1367239753      0.2231220487      0.1047865172
H       0.7255750788      2.0019937356     -1.2272947379      0.1215110744     -0.0131497396     -0.0717775453      0.2636778997
H      -1.1035963891      0.1609512937      0.4024643618     -0.1605286594     -0.1130643460      0.2833437079      0.0855234972
H      -3.3245405856      0.0950890157     -2.7057514190     -0.2188176535     -0.0978775736     -0.2701886570      0.0457866497
C      -1.4475238883      0.4707986415     -1.7178829894     -0.3253315145      0.0955751313      0.4328190708     -0.2813306779
H      -1.0938001567      1.1550476203     -2.4939288620      0.1340478808      0.0466815684     -0.1611007079      0.1672733729
H      -1.0713037743     -0.5302018631     -1.9465161107      0.1073008920     -0.1889702935     -0.1490745918      0.1022449121
C      -2.9749432305      0.4390978918     -1.7328704327      0.4638783855     -0.0798579042     -0.0815869073     -0.0428268312
H      -3.3796794933      1.4349594478     -1.5503852195     -0.1658744813      0.2916622390      0.0516431196      0.0311347530
N       1.5866497427      0.3293910733     -0.3033954642     -0.1905045910      0.1862981267      0.2821135495     -0.5276641226
C       1.5889060422     -0.5591522371     -1.5175136382      0.0436586168     -0.2860434315     -0.5023516953     -0.0514275848
C       3.0548142638     -0.8337062733     -1.8677767748     -0.0366036194     -0.0188830102      0.0209425518     -0.1477766608
H      -3.3534176909     -0.2382820744     -0.9659376790     -0.1975598102     -0.1992346194      0.2278225747      0.0204238035
C      -0.9273257680      0.9341183633     -0.3504708560      0.4717751416     -0.1164505906     -0.5322329970     -0.1826793822
H      -1.5061270250      1.8130614572     -0.0466382195     -0.1429086843      0.2065067683      0.1249386664      0.1170178019
P       2.4130596657      2.5589426182     -4.4990187184      0.2370293650     -0.5015356644     -0.0766890024      1.6872479737
F       3.2307053311      1.1260195426     -4.8488950593      0.0527803528      0.1074062025     -0.0171444912     -0.5413290365
F       2.9219060852      3.2376401247     -5.9235685241     -0.1601038105      0.0564988380      0.1479210071     -0.5143448445
F       1.8727807952      1.8680477659     -2.9954615077      0.1296025445      0.1056059213     -0.2512196257     -0.5654965052
C       0.8437630993      1.7460764510     -5.3564499839      0.9082897352     -0.1298237011      0.4881007432      0.5301071061
C       4.0636199704      3.0579187613     -3.5555148335     -0.4430900325      0.0502612252     -1.0085939265      0.5280803777
C       1.4387926370      4.2483629603     -4.0579091456      0.3737763795     -0.9708870919      0.4210922075      0.6041926427
C       0.8512278427      0.2161613242     -5.6203223753      0.3650389618      0.6491771634      0.3587502469      1.4052662991
C       5.2698687202      3.5597568579     -4.3907671604     -0.7785363622     -0.3307021634      0.1029565316      1.4025736957
C       0.7108155793      4.4355816026     -2.6960164067      0.4787165070     -0.5311439468     -0.4677579867      1.4047000255
F       0.5699607551      2.3267814107     -6.5316668677     -0.2258479582      0.3740032108     -1.2857650604     -0.4378073160
F      -0.2231179154      1.9518264142     -4.5474871954     -1.1921210700     -0.0075408835      0.6070673771     -0.4692402401
F       4.5052309290      1.9646339018     -2.8844054370      0.6317700392     -0.9249009243      0.5259729559     -0.4744267687
F       3.8249659501      3.9849896358     -2.6095562429      0.0903872747      0.9334692664      0.9518712062     -0.4607150697
F       0.4989672713      4.4562136182     -4.9979497235     -0.9735412730      0.3538944691     -0.8148811527     -0.4476055974
F       2.3233098514      5.2589886319     -4.1609281528      0.6458887154      1.0574691488     -0.0528105382     -0.4473914535
F      -0.3606165446     -0.1849531256     -6.0095818187     -1.2211820365     -0.2399601445     -0.4220071121     -0.4552540426
F       1.1394942012     -0.4616390527     -4.4949180583      0.0920246157     -0.6237046208      0.8222359054     -0.4816011920
F       1.7185079959     -0.1388723609     -6.5537937182      0.7112325536     -0.2441585044     -0.9308416705     -0.4394965385
F       5.5904040130      2.6862989801     -5.3383359777      0.3209373529     -0.8332870638     -0.7782337706     -0.4437436117
F       5.0130131693      4.7314254323     -4.9567154949     -0.2583874416      1.0868771870     -0.4358966778     -0.4431588412
F       6.3360836820      3.7115277273     -3.5973788869      0.9727230973      0.1462960476      0.8799967043     -0.4584814236
F      -0.3413028416      3.6164834407     -2.5880989082     -0.9973557890     -0.5164542644      0.0157562861     -0.4730580715
F       0.2672015428      5.6809408736     -2.5607497802     -0.3784311126      1.2487084046     -0.0561952598     -0.4458209940
F       1.5035855842      4.1748681121     -1.6485868468      0.6339981789      0.0499389995      0.8664648669     -0.4731160178
