29
Properties=species:S:1:pos:R:3:forces:R:3:charge:R:1 energy=-162.37232484406198 homo_lumo=2.628099624266947 dipole="-0.9911433307746083 -0.6869432927263458 -1.80943117181634" free_energy=-162.37232484406198
N       0.1441949695     -1.4728350917      0.0771626765     -0.0000755951     -0.0060474976     -0.0005182857     -0.5010229522
N      -1.8269557575     -0.6021722922      0.1971637327      0.0004397921     -0.0119069284     -0.0208533485     -0.5241575945
C       1.5602241546     -1.7115993993      0.3965563466      0.0099348288     -0.0012020259     -0.0143096415     -0.0029924903
C       2.4695802935     -0.8457862895     -0.4732074819      0.0040059281     -0.0008541968      0.0115985865     -0.1818344979
C       2.2246260769      0.6511092538     -0.2814829998     -0.0080739860     -0.0097163251     -0.0050244683     -0.2393842839
C      -0.6564688499     -0.7211964677      0.8473568432     -0.0007707304     -0.0054140555      0.0085014802      0.4961330825
C      -0.5161666715     -1.8335623560     -1.0803090134     -0.0020583387      0.0047497773     -0.0031648468      0.1923786876
C      -1.7647574420     -1.2844462921     -1.0049680769     -0.0031978405      0.0021018102     -0.0175869743      0.1954697564
C      -2.9444210792      0.2205924481      0.6839616663      0.0146823549     -0.0073034195      0.0067200726     -0.0414915369
C       3.2186462331      1.5043146578     -1.0652089097     -0.0026609784     -0.0140474727      0.0061592865     -0.0621270240
C      -2.5786206536      1.6971967067      0.6810212803      0.0038548805     -0.0158901291     -0.0023023689     -0.0999580917
H       1.6716079664     -1.4360031803      1.4605061494      0.0024922989      0.0017664469      0.0035103344      0.1542952277
H       1.7575672012     -2.7870264686      0.2656205854     -0.0014934695      0.0171883410      0.0015935880      0.0917409438
H       2.3584816221     -1.1226360549     -1.5394830386      0.0006638334     -0.0036978055      0.0174674068      0.0790401282
H       3.5094332863     -1.0926403153     -0.1909254597     -0.0069277868      0.0052732155     -0.0007415839      0.1011431279
H       1.1964965454      0.8968849541     -0.6055592204      0.0028329059      0.0008606513     -0.0080081556      0.1131790326
H       2.2634827708      0.8854972265      0.7980831376     -0.0116730516      0.0035702054     -0.0134291884      0.1440705567
H      -0.2828258333     -0.2358016363      1.8272746345     -0.0064528249      0.0149890146      0.0182109751      0.1778417847
H      -0.0561983687     -2.4498168299     -1.8428973159     -0.0018792865      0.0095582462     -0.0078748821      0.0375445714
H      -3.8029714621      0.0076481354      0.0302816195      0.0073271084      0.0008340643      0.0042169360      0.1011518931
H      -3.1908191767     -0.1278817360      1.6984120217      0.0023801523      0.0057774806     -0.0002746662      0.1248795257
H      -2.6055476240     -1.3372547078     -1.6861590042     -0.0009211119      0.0122243731      0.0017067267      0.0325404779
H       3.1498097214      1.3109077520     -2.1487463881      0.0034414726     -0.0060555027      0.0032996822      0.0200291359
H       4.2537494124      1.2917698770     -0.7514502000     -0.0110694514      0.0013664229      0.0027643736      0.0334741306
H       3.0347857555      2.5765122100     -0.9002831275     -0.0115676173     -0.0026692330      0.0010565169      0.0416689677
H      -1.7324555727      1.8846785689      1.3604815205      0.0075000765     -0.0051503079      0.0003308030      0.0966065581
H      -3.4383862361      2.2918750269      1.0229646824      0.0057653087     -0.0019427862      0.0067120381      0.0566200165
H      -2.3058458451      2.0253956432     -0.3337452629      0.0037023496     -0.0025553068      0.0187800151      0.0546222317
Cl      0.8068484418      0.4729263541      3.1848069149     -0.0002012218      0.0141929435     -0.0185404115     -0.6914613655
