34
Properties=species:S:1:pos:R:3:forces:R:3:charge:R:1 energy=-189.82644421395943 homo_lumo=3.73550161872291 dipole="-0.16555940230044985 1.6027206155527407 2.3836107265489397" free_energy=-189.82644421395943
N      -0.4510036402      0.0105370213     -0.1370644845      0.2626058417      0.1831529533     -0.0080777287     -0.5251923272
C      -1.4604458645      0.3648180628     -1.2051370226     -0.4699651356      0.0709141558     -0.4112813586      0.0146451181
C      -0.8995412250     -1.3155120580      0.4051395501     -0.3423003656     -0.4160939243      0.2703953210      0.0032881439
C      -2.6943699912     -0.5027563591     -0.9524223441     -0.0926620173      0.0649166472      0.0040935661     -0.1343375950
C      -2.4164851286     -1.2545290111      0.3503984738      0.1928287152      0.0948891411     -0.0893412708     -0.1294978413
C       0.9141725477     -0.0736656379     -0.7542468377      0.6389210764     -0.2341421323      0.3635833333     -0.0676094235
C      -0.4836991889      1.0396960589      0.9323959925     -0.0262953691     -0.0282784502      0.1114681499      0.0790865499
C       2.0226114776     -0.4650939323      0.2183000390     -0.1081392626      0.1977118042     -0.3950005532     -0.2371014453
C       3.3270718191     -0.6377097534     -0.5615179171     -0.3077145804     -0.0168026445      0.2831374788     -0.0507380840
H      -1.0179273037      0.1313592815     -2.1733732915      0.1124949649     -0.1419419617     -0.0916865971      0.2101774310
H      -1.6642247255      1.4352041700     -1.1473627903      0.0290939541      0.2775974888      0.1291670438      0.0811801293
H      -0.4968738187     -1.4605300899      1.4074840733      0.1422876957      0.0400705123      0.2362474788      0.0948784081
H      -0.5285066187     -2.0866777612     -0.2732037509      0.0515425649     -0.0710448031     -0.2938532014      0.1825445176
H      -2.7968274657     -1.2161754094     -1.7731459826      0.0744036855     -0.1287337354     -0.1720087251      0.1350662389
H      -3.6011350770      0.1000146966     -0.8867812895     -0.2599904322      0.1411755010      0.0157034241      0.0634198897
H      -2.8232784990     -0.7184127473      1.2126320878     -0.1091608836      0.0739982191      0.2516240330      0.0660694757
H      -2.8403713560     -2.2591184136      0.3347055389     -0.1120917038     -0.2580318736      0.0616055992      0.0963695457
H       1.1217178834      0.8996761275     -1.2059928068     -0.0068152232      0.2575758111     -0.1219682350      0.1064904573
H       0.8379247375     -0.8228453877     -1.5454625939     -0.2496478366     -0.1300015434     -0.0957660982      0.2724846594
H      -0.1199748746      1.9819777255      0.5261413665      0.0766018086      0.2483555278     -0.1343838367      0.0789218339
H      -1.5072825843      1.1593744819      1.2811306968     -0.2858579632      0.0277947879      0.0716910827      0.1021316694
H       0.1484497096      0.7259205614      1.7605004488      0.1645087945     -0.0891038533      0.1925335535      0.0902664639
H       2.1577286305      0.3016253058      0.9872992072      0.0602529483      0.1470373703      0.2441956062      0.0789351255
H       1.7707749665     -1.4063754438      0.7144240132     -0.0756776918     -0.2474950451      0.1342832329      0.1023036371
H       4.1232564523     -0.9445945240      0.1158483688      0.2927649432     -0.0667457961      0.1533669526      0.0359807375
H       3.2086803630     -1.3965896419     -1.3338228784      0.0213157927     -0.1779522429     -0.2098092837      0.0767646145
H       3.6129544888      0.3007384661     -1.0371302177      0.1383901939      0.2454739181     -0.1816348160      0.0337330578
C      -0.3051006913     -2.4560950840     -3.5285462296      1.4527204284      1.3958846345     -0.7014738875      0.9277727045
O      -0.6101905778     -3.3615821572     -4.2651587993     -0.5015279817     -1.4847678884     -1.1847381100     -0.7188789903
O      -0.6651336363     -2.1087120924     -2.3921020418     -0.4739165609      0.2633025604      1.6068661570     -0.8655004487
C       0.8293543644     -1.4148970834     -4.0941486322     -1.0926266020     -0.8729997284      0.5859960333      1.2241853011
F       0.4282040178     -0.1268623587     -3.8794254956     -0.2711696353      1.0715510143     -0.0703888267     -0.4896325480
F       1.1439720516     -1.5106264549     -5.3846466093      0.1298147468     -0.1937355092     -0.9571804047     -0.4523436128
F       1.9888067650     -1.5370287471     -3.3916755107      0.9450110901     -0.2435309155      0.4026348873     -0.4858633939
