34
Properties=species:S:1:pos:R:3:forces:R:3:charge:R:1 energy=-190.15410785122592 homo_lumo=4.255313701277314 dipole="-0.598033980600367 2.389090973448786 0.09474385454987233" free_energy=-190.15410785122592
N      -0.1721595529      0.1115521312      0.1489654561      0.2103576257      0.3249783607     -0.2445855429     -0.5283811305
C      -1.1189939142     -0.2923164013     -0.9460890318     -0.5708347528     -0.1536165095     -0.2520327176      0.0145991840
C      -0.5339804252     -0.7478233899      1.3368675378     -0.2222431941     -0.3778449451      0.3878839570     -0.0148535554
C      -2.3986098632     -0.6803061903     -0.2263637193      0.2423271393      0.0524676615      0.0133874798     -0.1460421229
C      -1.8838879570     -1.3961465781      1.0222286886      0.0005334574      0.0349794331     -0.0583980997     -0.1455127094
C       1.2377669429     -0.1245286245     -0.3126752367      0.5913638458      0.1204747085      0.3264003307     -0.0330413554
C      -0.3733819725      1.5458185084      0.4746528007     -0.0207119233      0.0373842945      0.0385899748      0.0840067790
C       2.2953159986      0.2113259378      0.7365647727     -0.0247495101     -0.1492588274     -0.4404330895     -0.2312709856
C       3.6003887553     -0.4992630541      0.3768050929     -0.2728992900      0.1936248054      0.1305946050     -0.0466732213
H      -0.6882540926     -1.1668726198     -1.4403475624      0.1949144408     -0.2587112838      0.0605563973      0.1943940836
H      -1.2272530197      0.5290446103     -1.6545072775      0.0378694830      0.2890271098     -0.1475620080      0.0809834929
H      -0.5730200337     -0.1152409258      2.2247632185      0.0274244852      0.2285991554      0.1312798874      0.0864949014
H       0.2479875992     -1.4998764547      1.4661432337      0.2453736986     -0.1648997527     -0.0691771450      0.2226068521
H      -3.0064388576     -1.3372580900     -0.8487964162     -0.2044065331     -0.1193513588     -0.1902101280      0.0904196202
H      -2.9908086001      0.2009737887      0.0363159437     -0.1991635143      0.2204350174      0.0294295859      0.0668916249
H      -2.5737024105     -1.2984142648      1.8614592223     -0.1877784345     -0.0299464008      0.2210677709      0.0610068732
H      -1.7399692641     -2.4576395701      0.8080521793      0.0456104970     -0.1565135072     -0.0296475805      0.1749543511
H       1.3803295054      0.4746124992     -1.2159642040     -0.0330048700      0.2106243937     -0.2537647704      0.0891200325
H       1.2984062497     -1.1839614801     -0.5751479021     -0.1370784099     -0.2716412987      0.0115925841      0.2282745088
H      -0.1148390928      2.1477202883     -0.3953139633      0.0847374009      0.1418097211     -0.2465484801      0.0736578112
H      -1.4155094973      1.7087001602      0.7414666432     -0.2969016254      0.0249648005      0.0819367372      0.0967179497
H       0.2646888954      1.8172701030      1.3125653770      0.1655603202      0.0515104793      0.2232919604      0.0959308267
H       2.4580572327      1.2928033018      0.7867165297      0.0475953918      0.2844774949      0.0859326727      0.0741761851
H       1.9709386162     -0.1314410374      1.7218929440     -0.0938818021     -0.1222696593      0.2619121703      0.1129211577
H       4.3697061561     -0.2485826890      1.1063287440      0.3043646610      0.0721338312      0.1606949464      0.0255016020
H       3.4418832423     -1.5777570516      0.3852622757     -0.0756723630     -0.3030860508      0.0057957706      0.0883276858
H       3.9424351378     -0.1981197323     -0.6138219462      0.1734371734      0.1024541154     -0.3070429978      0.0162349967
C       0.6910657260     -3.4857913280      0.0230741813     -0.4218973591     -1.5009133271      0.3941523119      0.8963106574
O       0.1508068790     -3.0122244453     -0.9801929425     -0.7617174562      0.4511269986     -1.3906368588     -0.8193530606
O       1.5036453977     -2.9845112318      0.8025855158      1.0907948144      0.4804618584      1.1625769120     -0.8242095339
C       0.1574648229     -4.9381371686      0.4322619402      0.4964317824      1.2114298250     -0.3462041739      1.3089902010
F       0.9506276961     -5.5819804715      1.2958464644      0.6852684096     -0.4546421775      0.6591078515     -0.4566182486
F      -0.0399553765     -5.7499275169     -0.6139113542     -0.1135949252     -0.5880382795     -0.9428441145     -0.4576498705
F      -1.0468782080     -4.7898226523      1.0439295477     -1.0074286635      0.1177693138      0.5329038008     -0.4789155827
