46
Properties=species:S:1:pos:R:3:forces:R:3:charge:R:1 energy=-247.81733487152115 homo_lumo=3.361986915447844 dipole="-0.32008022606674924 0.8506197323429011 -2.128565969283295" free_energy=-247.81733487152115
N       0.0737125702      1.4806057548     -0.0914182166     -0.0021338474     -0.0032606580     -0.0012906186     -0.4797712988
C       0.6681116532      2.3633677877      0.9982804872     -0.0005770716     -0.0021989580     -0.0073044544     -0.0272387717
C      -0.4280444445      2.4780543836     -1.1081425881      0.0050501522      0.0095675249      0.0080042059      0.0146915364
C       1.1238061842      0.5865498171     -0.7051912290      0.0005247610      0.0014139048      0.0008000066     -0.0071844170
C      -1.0791738880      0.6846864491      0.5046514694     -0.0060354601      0.0064489516     -0.0073041885     -0.0692145627
C      -0.2912690869      3.5450288555      1.0930225909     -0.0007091078      0.0024524229     -0.0045247126     -0.1430248043
C      -0.9924137735      3.6410836920     -0.2895574973     -0.0034861121      0.0045678645      0.0108827896     -0.1561761834
C       1.6949946165     -0.4482579410      0.2416672905     -0.0041726030     -0.0057873554     -0.0075073784     -0.2123384322
C      -1.7142637019     -0.3192563675     -0.4369001223      0.0007573791     -0.0015824937      0.0095506603     -0.2166198355
C       2.8467735228     -1.2014198637     -0.4178435997     -0.0007918284     -0.0011134429     -0.0012137410     -0.1605791988
C      -2.8625246953     -1.0324200038      0.2822450902      0.0049267425      0.0019398516     -0.0028424940     -0.1596538618
C       3.4353900061     -2.2635734156      0.5098449390     -0.0032021461      0.0021141126     -0.0029665801     -0.2044181243
C      -3.5671826048     -2.0555748250     -0.6053397279      0.0041374639      0.0039857134      0.0033601180     -0.2041150577
C       4.5908615999     -3.0236774737     -0.1317020121      0.0034550183     -0.0023846211      0.0014157528     -0.0641229382
C      -4.6808514336     -2.7948562220      0.1305862982     -0.0024237343     -0.0023588597      0.0001189549     -0.0663470202
H       1.6593884008      2.6687443920      0.6286339926      0.0011016356      0.0055327257     -0.0059720509      0.0957129414
H       0.7515716767      1.7522630417      1.9326728219      0.0127941435      0.0012782209     -0.0119563712      0.1886132057
H      -1.1517684375      1.9882156396     -1.7719111334      0.0180794918      0.0043881503     -0.0084784315      0.1266996766
H       0.4479915825      2.7878451434     -1.6976629608      0.0023944199      0.0040420198      0.0046792519      0.1137770941
H       1.9149595968      1.2694511371     -1.0583570537     -0.0029843388     -0.0054757408     -0.0006926556      0.1125102701
H       0.6640447984      0.1198839858     -1.5913574052      0.0025979540      0.0052436461     -0.0026979596      0.1202184997
H      -1.8212410877      1.4315656181      0.8252273113      0.0045058700     -0.0013059992     -0.0084569073      0.1549309774
H      -0.6714702289      0.2183769633      1.4353727649     -0.0051194216      0.0211763892     -0.0020052231      0.2111472027
H       0.2621043612      4.4619135917      1.3408919336     -0.0117690095     -0.0021974012      0.0131589672      0.0948570891
H      -1.0222087780      3.3769035551      1.8980589109      0.0098176761     -0.0036820389      0.0042751825      0.0954776320
H      -2.0846916899      3.5605893753     -0.1866572734      0.0043305925      0.0006823745     -0.0042557593      0.0832756402
H      -0.7826085350      4.5927482570     -0.7993229801     -0.0144788463      0.0027951722      0.0026721028      0.0932880439
H       0.9157103667     -1.1607669982      0.5562051280     -0.0002267719     -0.0010160258     -0.0057059787      0.1389760232
H       2.0227867269      0.0207598907      1.1848851836     -0.0157217190     -0.0118550338     -0.0007128584      0.1577278055
H      -0.9784273322     -1.0781165600     -0.7530951063     -0.0079671666      0.0035027439      0.0073675403      0.1115144665
H      -2.1061820347      0.1589986181     -1.3545519736      0.0034555557     -0.0177397441      0.0004974782      0.0784631273
H       3.6439377511     -0.4893058296     -0.7073600907     -0.0010909325     -0.0069114971     -0.0014866625      0.0737769263
H       2.5017583108     -1.6830035639     -1.3538881935      0.0113283894     -0.0012823717     -0.0017509578      0.0709698132
H      -3.5988512189     -0.2857848305      0.6342529651      0.0043640638     -0.0043411202      0.0016846178      0.0863978531
H      -2.4651964809     -1.5258340893      1.1874483896     -0.0005794881      0.0068118833     -0.0012965788      0.1193241963
H       2.6360419727     -2.9673206256      0.8032537300      0.0035297172      0.0028318595     -0.0025163182      0.0946116739
H       3.7680344686     -1.7787727209      1.4444137058     -0.0061481638     -0.0020834674     -0.0056769368      0.1044732696
H      -2.8246027439     -2.7830728397     -0.9823736172     -0.0033459252      0.0054009574      0.0031574941      0.0840557681
H      -3.9815405218     -1.5437484394     -1.4941203072      0.0036330106     -0.0051457215      0.0057406349      0.0760042585
H       4.9983462575     -3.7835471611      0.5519567997      0.0110977183     -0.0071143389     -0.0011238916      0.0400342291
H       4.2640652656     -3.5358484468     -1.0515500109      0.0104471580     -0.0048223952      0.0009724571      0.0270769611
H       5.4111117640     -2.3389603899     -0.4029561326      0.0045481534     -0.0061637583     -0.0002786104      0.0293048362
H      -5.1965924477     -3.5064553946     -0.5312374174     -0.0061947113     -0.0112217855      0.0042960451      0.0360196684
H      -4.2767056997     -3.3571094573      0.9871876799     -0.0065679627      0.0002241672      0.0039478451      0.0427942732
H      -5.4308260648     -2.0875788001      0.5200215857     -0.0073918034     -0.0067168123     -0.0018518531      0.0354753122
Cl      0.4530734300      0.0887133026      3.3509264894     -0.0137588957      0.0213609847      0.0152880670     -0.7413957644
