49
Properties=species:S:1:pos:R:3:forces:R:3:charge:R:1 energy=-263.472301459401 homo_lumo=4.991963281815362 dipole="3.4281650942637882 1.9555413595697826 0.7391368973200427" free_energy=-263.472301459401
N      -0.8413479349     -1.0680373778      0.4342213059     -0.0019215705     -0.0001317378      0.0037574132     -0.5505700230
C       0.0551209075      0.1498443103      0.5561852055     -0.0075331743      0.0066095309     -0.0068341957      0.0021475264
C      -1.5305719479     -1.0563584208     -0.9299919480      0.0017349106      0.0108686715     -0.0003690516     -0.0461800104
C      -0.6890851546      1.4547871749      0.3299001435     -0.0029429347     -0.0163736504     -0.0154633961     -0.1716954324
C      -2.2749979542      0.2371303775     -1.1873640834      0.0110334769      0.0087049973      0.0044534590     -0.2039060417
C      -1.3763989548      1.4614547303     -1.0356802551      0.0031771928     -0.0154850930      0.0097465453     -0.1596547401
C      -1.8503785236     -1.0996717302      1.5450482998      0.0090394302      0.0004123897     -0.0061348077      0.0200975603
C       0.0080474187     -2.2968054133      0.5362075861     -0.0052952762      0.0019402591     -0.0001034744      0.0606462418
H       0.8411963235      0.0193747813     -0.2051569694     -0.0020196450     -0.0009918160      0.0031525944      0.1316794732
H       0.5196165794      0.0991819674      1.5529173242      0.0059456393      0.0036851409      0.0036548306      0.1235622440
H      -2.2070963517     -1.9205550867     -0.9578780299      0.0004310177     -0.0062635180     -0.0002090347      0.2477210185
H      -0.7177913258     -1.1993558756     -1.6613592096     -0.0094661783     -0.0002800928      0.0058330236      0.1062391887
H       0.0483911522      2.2706705565      0.4081146608      0.0075529124      0.0067599564      0.0006080450      0.1128369296
H      -1.4232567854      1.6219730549      1.1353736610     -0.0015069363      0.0102794878      0.0017814228      0.1086146439
H      -3.1554146425      0.2988127509     -0.5295011242     -0.0086206359      0.0087475720      0.0005817095      0.1478500168
H      -2.6805807259      0.1649917819     -2.2079384164     -0.0084461196      0.0036297861     -0.0074797687      0.1430541172
H      -1.9638055575      2.3838689537     -1.1613636379     -0.0068956036      0.0136517996     -0.0009492174      0.0969522794
H      -0.6065405010      1.4593433694     -1.8298087455      0.0065085241     -0.0028948345     -0.0030897116      0.0849644989
H      -2.5198934525     -0.2399291643      1.4625553540      0.0051187015     -0.0011045198      0.0016532727      0.1052776528
H      -2.4418181608     -2.0148349576      1.4514773801     -0.0025164441      0.0118277563     -0.0016713632      0.2079688184
H      -1.3077484735     -1.0736069485      2.4988565583     -0.0019027094     -0.0054734013     -0.0020586922      0.0670063250
H       0.7469356703     -2.2810203228     -0.2750666317     -0.0071543690     -0.0030562908      0.0020434303      0.0752876502
H       0.5151272936     -2.2906240824      1.5099862681     -0.0012306634     -0.0038291432     -0.0049069116      0.0808764015
H      -0.6375159172     -3.1782552285      0.4485492523     -0.0066917587      0.0015359787     -0.0004015887      0.1438212935
P      -5.2710069189     -3.2211837955     -0.6466256042      0.0027241903      0.0023486519     -0.0000578594      1.7122073352
F      -4.4078868295     -2.0539602194      0.2404462490      0.0030395727      0.0017252967      0.0041891288     -0.5539385943
F      -4.2621297817     -2.8888029300     -1.9496441004      0.0007266899      0.0101793129     -0.0098293727     -0.5312289047
F      -6.2567880627     -3.5591961788      0.6527355176      0.0082367181     -0.0075375101      0.0091226359     -0.5175655630
C      -3.9148789275     -4.4799902609      0.1327499798      0.0035774961     -0.0075874523      0.0105543635      0.5038940878
C      -6.5452189287     -1.7533423866     -1.0746846276      0.0037537349      0.0056353092     -0.0013457344      0.5237666810
C      -6.1477317083     -4.5757622897     -1.8249262324     -0.0033751544     -0.0058051724     -0.0029134931      0.5665837276
C      -3.9162282418     -4.6897681267      1.6869951839      0.0116750989     -0.0054633836     -0.0225297165      1.3679514240
C      -6.2730886335     -0.7998071798     -2.2745852211     -0.0120304362      0.0084756750      0.0185139340      1.3695744830
C      -7.1769457728     -5.5662536240     -1.2071469561      0.0005609680      0.0022818839     -0.0030846959      1.3774693346
F      -2.6307717703     -3.9826549448     -0.1563254119      0.0027980733     -0.0037096324     -0.0050414756     -0.4812615992
F      -3.9168434978     -5.7590067370     -0.3539352464     -0.0065182735      0.0016597466      0.0177881458     -0.4365812540
F      -6.6187414539     -0.9063724773      0.0178867457     -0.0026325094      0.0031850838     -0.0054078041     -0.4449346056
F      -7.8166448026     -2.2409394228     -1.2467636620     -0.0006609458      0.0059104580     -0.0227226429     -0.4403901870
F      -5.1872429337     -5.3486534394     -2.4375920694     -0.0072662962     -0.0105549569     -0.0031451044     -0.4444648990
F      -6.8100497506     -3.9440566043     -2.8541600179     -0.0094279563     -0.0064134321      0.0101168975     -0.4465203807
F      -2.7585218479     -5.3365041794      2.0412582889      0.0069540931     -0.0079727177      0.0018754481     -0.4609866782
F      -4.9471623343     -5.4563389635      2.0795007666      0.0040218563     -0.0128196170      0.0016861779     -0.4327616558
F      -3.9424751230     -3.5313579905      2.3952518195      0.0030030867      0.0022358790      0.0045199647     -0.4611897060
F      -7.2948864490      0.0938618813     -2.3897011840      0.0030061673      0.0002988540      0.0033324830     -0.4492521137
F      -5.1326501636     -0.0793973356     -2.0634034879     -0.0013718453      0.0023711825      0.0089493385     -0.4733537260
F      -6.1475833312     -1.4372818195     -3.4543467241     -0.0101095980     -0.0012304688     -0.0038499368     -0.4403647110
F      -7.5923780686     -6.4446643297     -2.1644542586      0.0001564570     -0.0024753607      0.0094874421     -0.4513926725
F      -8.2681366737     -4.9253540701     -0.7357303716      0.0059468164     -0.0026972461     -0.0064164814     -0.4405237243
F      -6.6292466417     -6.2845235289     -0.1982253363      0.0168142099     -0.0048096122     -0.0013861753     -0.4493337308
