49
Properties=species:S:1:pos:R:3:forces:R:3:charge:R:1 energy=-260.20270147866785 homo_lumo=3.337295781771271 dipole="-4.398150601750128 -2.051764808194055 3.995771532467825" free_energy=-260.20270147866785
N       0.6208808926      0.0265920411      0.0546593396      0.6578475766     -0.0525778488     -0.0607034411     -0.5681444594
C      -0.1154288526      1.2604478671     -0.3478555801     -1.2402748265      1.4935657028     -0.3066431923     -0.0266558919
C      -0.1387934270     -1.1987986528     -0.3300787495     -1.2549578181     -1.4198637871     -0.2546346208     -0.0202431217
C      -1.5634401459      1.3042615260      0.1714591164      0.0294603454     -0.1226101194      0.0215205900     -0.1816779914
C      -1.5874318664     -1.2075797430      0.1894855944      0.0180838869      0.0978730763      0.0123354917     -0.1808936395
C      -2.3297791958      0.0524578978     -0.2497182559     -0.2680122523      0.0095791152      0.0985953026     -0.1716728951
C       0.9149175125      0.0341110261      1.5111597027      0.1346943401      0.0105661724      1.4411124331      0.0299834848
C       1.9195849548      0.0095987120     -0.6625097882      1.5103754472      0.0112192110     -0.8773740737      0.0006561244
H      -0.1578058502      1.3379090449     -1.4592444014      0.3309113471     -0.3672312952      0.3759830745      0.1718082452
H       0.4170493675      2.1695738028      0.0137055996      0.1759718723     -0.5916347424     -0.0983365561      0.1614943798
H       0.3762143616     -2.1125734069      0.0448516994      0.1777216830      0.5823006045     -0.0742855309      0.1495895676
H      -0.1827966844     -1.2915731756     -1.4401834346      0.3112900170      0.3957976178      0.3705205675      0.1616404779
H      -2.0723864528      2.1973069325     -0.2515636259      0.3605302882     -0.1236305857      0.1427243516      0.1356057952
H      -1.5837556381      1.4118121408      1.2760800568      0.0075270363      0.0256758028     -0.2034349468      0.1083284122
H      -1.6098290544     -1.2989853478      1.2955260724      0.0151120805     -0.0282340792     -0.2046992489      0.1087599060
H      -2.1134148743     -2.0967088386     -0.2208167924      0.3518138235      0.1164846829      0.1445307140      0.1306367753
H      -3.3418685770      0.0654185539      0.2089250226      0.2204949764     -0.0084556384     -0.2409873960      0.1088146441
H      -2.4530565571      0.0456900655     -1.3552913955     -0.0168019218      0.0040359391      0.2325318111      0.1076673618
H      -0.0051910453      0.0471921256      2.1274426563      0.1602610771     -0.0023692486     -0.4539309003      0.1190199090
H       1.4954173825     -0.8688505584      1.8055738045     -0.2234951399      0.3122110954     -0.4173063295      0.1161700746
H       1.5127243256      0.9297721382      1.7928488753     -0.2293006520     -0.3110640621     -0.4193598718      0.1220517138
H       1.7725386142      0.0024983983     -1.7661712679     -0.1228916505      0.0686164860      0.5022242660      0.1425004428
H       2.5293738012      0.9068595915     -0.4109680722     -0.3951052873     -0.3010402741     -0.0558073806      0.1440600341
H       2.5139444160     -0.8939499846     -0.3971603759     -0.4190970449      0.3265102833      0.0314040645      0.1171104911
P       5.1874858970      2.1835443776     -4.4194978440     -1.3403238363      1.7618774468      2.5536520705      1.6402562232
F       4.5225671005      2.7199434515     -2.9212465580     -2.8535876476     -1.1350744955      1.1504010522     -0.5391867225
F       4.1715380509      0.9555004396     -5.0745368616      0.6620338807     -0.5037194129      0.1579779415     -0.5224333468
F       6.0633909506      3.5661492405     -3.8892354190      1.7221185554     -0.0327060385     -1.5941193610     -0.5169395068
C       3.6558227607      3.1429289539     -5.1078843364      0.5530775164      0.6341635274     -0.6039112968      0.5331413049
C       5.6377314667      0.7923807753     -3.1518177314      1.3631816832      0.0922990670     -0.4160187553      0.5423699600
C       6.6642828457      2.1031154082     -5.6465349280     -0.3049009595     -0.7153510354     -0.2706821508      0.5391310235
C       3.7017622999      4.6796307944     -4.9638811453     -0.0213395855      0.6455210452      0.2973008142      1.3367977244
C       6.3028520945     -0.4920244013     -3.7078335895      0.2851908404     -0.7042980112     -0.1187580168      1.3298102839
C       6.8211556195      3.2551441969     -6.6562332072      0.4388783275      0.9519252960     -0.4689137164      1.3650273248
F       2.5158905589      2.7136053930     -4.4376150719      0.1569257417      0.2579989687     -0.2490395983     -0.4536930107
F       3.4642793493      2.8507071904     -6.4493493695     -0.4170458746      0.4540142316      0.2920495728     -0.4465557374
F       4.4842902300      0.3726229012     -2.4981840563      0.2852998929     -0.2775112152     -0.1350291722     -0.4687617549
F       6.4984923585      1.3201978515     -2.2011656830     -0.1478273350     -0.6200483613     -0.0532576015     -0.4396413186
F       6.5549523686      0.9337522694     -6.3775619284      0.3318171698      0.2278387089     -0.2586866492     -0.4457886851
F       7.8455243733      2.0509836010     -4.9245885294     -0.4046992243      0.1486307505     -0.4437865768     -0.4348867784
F       2.5120271309      5.2090357130     -5.4318281756      0.5046792388      0.0354627154      0.2320257796     -0.4588557944
F       4.7266485923      5.2242474339     -5.7059262450     -1.0833809703     -0.1969840850      0.7214128692     -0.4446739619
F       3.8474447925      5.0613897206     -3.6428817692     -0.3292117180      0.0788049592     -1.3595914491     -0.4381164094
F       6.3365368350     -1.4421845654     -2.7020226885      0.0835850242      0.0977128841     -0.4382391402     -0.4619791011
F       5.5964704919     -1.0293165540     -4.7670762257      0.9372064995      0.0893594566      1.0726231109     -0.4370009628
F       7.6068603838     -0.2652659566     -4.0970836313     -1.1856522330     -0.5100777411      0.3520345082     -0.4402706861
F       5.6835100894      3.4253709476     -7.4146113161      1.2135257469     -0.0595978566      0.5088939265     -0.4429951942
F       7.8567057599      2.9469301666     -7.5210481691     -0.5624540743      0.2417256834      0.4040216870     -0.4487463324
F       7.1492524919      4.4379360523     -6.0198979697     -0.1792558634     -1.0876905969     -1.0383390260     -0.4326183817
