49
Properties=species:S:1:pos:R:3:forces:R:3:charge:R:1 energy=-263.10625103174044 homo_lumo=5.020783136480156 dipole="3.1741815292401694 1.7430264050086304 0.6430512930650806" free_energy=-263.10625103174044
N      -0.9197964610     -1.1144047878      0.4015410074      0.3014533555     -0.2219526070      0.1068413451     -0.5608757821
C      -0.0311597958      0.0831243175      0.5485341474     -0.1662403530      0.6364135392      0.0522648538      0.0123498132
C      -1.5946220960     -1.0921646187     -0.9429633817     -0.5481421332      0.3440737513     -0.3201857893     -0.0408255810
C      -0.7807993356      1.3943248038      0.3424296898      0.1241877535     -0.2999039855     -0.3998591588     -0.1612085377
C      -2.3491306651      0.2039329144     -1.1946671532      0.6078154891      0.0897346859      0.0729118533     -0.1966298796
C      -1.4420540845      1.4205175712     -1.0346522894     -0.1798987508     -0.2530932538      0.3915894051     -0.1447564524
C      -1.9179867361     -1.1753236030      1.5047231286     -0.0833265523     -0.0124236067      0.1161793611      0.0303680708
C      -0.0715909306     -2.3364159177      0.4833027600      0.0315571621     -0.1011226800      0.0078338402      0.0774133733
H       0.7620438260     -0.0148541480     -0.1982847381      0.1639277779     -0.0781539452     -0.1835849414      0.1255211947
H       0.4145614237      0.0389734838      1.5453061617      0.1394782197     -0.1076583062      0.2274806258      0.1196159805
H      -2.2778520105     -1.9410533143     -0.9816395365     -0.0992571490     -0.1619986186     -0.0130334419      0.2589576129
H      -0.8079482943     -1.2278465191     -1.6902438375      0.2750898253     -0.0327393466     -0.1154649648      0.0964094544
H      -0.0538361465      2.2062092360      0.4275206636      0.1932083829      0.2193786998      0.1439982792      0.1043518886
H      -1.5299659794      1.5327570854      1.1261298508     -0.1536972658      0.0901174192      0.2386076113      0.1040099366
H      -3.2072539538      0.2788822397     -0.5234346427     -0.2524073960     -0.0565630752      0.0528923285      0.1447015332
H      -2.7349322616      0.1586234901     -2.2151871391     -0.1676036247     -0.1101057895     -0.1603397009      0.1332979287
H      -2.0289307286      2.3350464013     -1.1429018347     -0.1064636695      0.2791813989     -0.1065243773      0.0895003996
H      -0.6699753308      1.4154241196     -1.8110348499      0.2300284838      0.0492529830     -0.2452016171      0.0762486409
H      -2.6294040829     -0.3608719545      1.4089468521     -0.1690675202      0.1354739263     -0.0274469386      0.1002604662
H      -2.4488642261     -2.1200010968      1.4362709605     -0.1257432226     -0.0617894557     -0.0407223076      0.2171765045
H      -1.3946853743     -1.1077962641      2.4566655257      0.2442164141      0.0541083668      0.2419117635      0.0559533230
H       0.6806860523     -2.3023193997     -0.3022519785      0.2045606417      0.0616843174     -0.2285590503      0.0666698272
H       0.4098379870     -2.3667503835      1.4590961632      0.1361860725      0.0215176120      0.2840787463      0.0729974997
H      -0.7033048932     -3.2113252658      0.3529811652     -0.1434008329     -0.1942077787     -0.0064430176      0.1387992346
P      -5.2176023803     -3.1763113948     -0.6238259966      0.3686851614      0.2386004742      0.4764874432      1.6682964591
F      -4.3394644543     -2.0110790298      0.2874527066     -0.1762551984     -0.0395171519     -0.0586950033     -0.5625068079
F      -4.1753470686     -2.8095545019     -1.9123427199     -0.1490156855     -0.1979028842     -0.0191843080     -0.5400561255
F      -6.2054101513     -3.5257506965      0.6887692176      0.0177581060      0.1426666625     -0.1866331522     -0.5254698667
C      -3.8733996876     -4.4223503618      0.1371056062     -0.9999978777      0.5870635832      0.2090234746      0.5328464280
C      -6.4493644099     -1.7005027304     -1.0407506544      0.8028231124     -0.5542327091     -0.5777075893      0.5520960461
C      -6.0961602548     -4.5074455745     -1.8060144580      0.0188597687      0.3396983339      0.9989544641      0.5876600754
C      -3.8768576471     -4.6557141333      1.6741991088     -0.2699581042      0.3786944676     -0.5993351811      1.3915758329
C      -6.1739864707     -0.7866034702     -2.2636370446      0.2491773402     -0.5629034158      0.5976265057      1.3916843819
C      -7.0836809352     -5.5300766805     -1.1845910142      0.6190640586      0.7448873633      0.0837693492      1.3984350403
F      -2.6300360042     -3.9133118923     -0.1230923241      1.1771262083      0.2715182780     -0.3169994493     -0.4866983369
F      -3.8941215148     -5.6468991985     -0.4041136194      0.1344788139     -1.2427913533     -0.2941853369     -0.4432694224
F      -6.4849979342     -0.8658173886      0.0159526685     -0.1290712369      0.9367958997      1.0030264502     -0.4469996098
F      -7.6905269682     -2.1950797402     -1.1756892927     -1.3168113283     -0.2508413327     -0.1460488494     -0.4453834540
F      -5.1489577102     -5.2128170970     -2.4506869633      0.7997596877     -0.7430959018     -0.6747830010     -0.4482049017
F      -6.7739587966     -3.8375221858     -2.7584900706     -0.6950076266      0.2868584114     -0.9849513374     -0.4521652737
F      -2.7347549045     -5.2673554257      2.0248932089      1.1211800444     -0.6950561502      0.2448509255     -0.4642703026
F      -4.8837207734     -5.4156348894      2.0653112778     -0.8467686394     -0.7360861225      0.2559335416     -0.4373933870
F      -3.9159771198     -3.5087616899      2.3608426647     -0.0748574656      0.8690326409      0.6368828029     -0.4652163965
F      -7.1637942505      0.0906605816     -2.4249655897     -1.0672198368      0.7806363351     -0.0392752582     -0.4515203094
F      -5.0494258257     -0.0817289789     -2.0514410680      0.7540250843      0.5945471827      0.1745534460     -0.4779467153
F      -6.0235214476     -1.4500302213     -3.3998753810      0.0448396547     -0.5634608409     -1.0118594297     -0.4447904625
F      -7.4388544878     -6.4498685630     -2.0811147479     -0.2987963904     -0.8136499353     -1.0002213077     -0.4525917418
F      -8.1851851684     -4.9270200207     -0.7532476947     -1.0112879404      0.5671631939      0.3197667338     -0.4441819418
F      -6.5189752024     -6.1590448589     -0.1539765275      0.4708091813     -0.6278492801      0.8197793591     -0.4542356579
