34
Properties=species:S:1:pos:R:3:forces:R:3:charge:R:1 energy=-179.82875986875916 homo_lumo=4.468493553314848 dipole="-2.495363706994468 -3.4350589512796663 -2.7887689011568297" free_energy=-179.82875986875916
N      -0.0006449529     -0.0192541255     -0.0230652663     -0.2847453871     -0.0947880417     -0.0512589670     -0.5201104431
C       0.9093335287     -0.8687554889     -0.8513182294      0.9952909058     -1.7150509230     -1.4320474783     -0.0072301580
C       0.9085877433      0.8398233552      0.7950643756      1.1114741743      1.8396496281      1.4522721165     -0.0497400537
C       2.3227328277     -0.3386492533     -0.7053332250      0.3858591002      0.2886078410     -0.6382328819     -0.1359848499
C       2.3228872919      0.3139846344      0.6484972648      0.4693358457     -0.2669291488      0.6537118302     -0.1478555512
C      -0.8272846352     -0.8788809181      0.8848330348     -1.1556969005     -1.0799892118      0.7640742783     -0.0869054566
C      -0.8460290535      0.8328803331     -0.9206397569     -1.2010837592      1.0865168599     -0.7844416386     -0.0873601113
C      -1.8278940782     -1.7971731427      0.1590188733      0.0987516013      0.2288985065     -0.1484186662     -0.1181278346
C      -1.8439553622      1.7439040438     -0.1818201282      0.1313984502     -0.2234907716      0.1914524778     -0.1235736171
H       0.6253228439     -0.8977856161     -1.9278541343     -0.3345733126      0.1364332333      0.5644009443      0.1314898467
H       0.9273608426     -1.9280948121     -0.5053178015     -0.4948767302      0.5228805537      0.1672517223      0.1446278930
H       0.6265825690      0.8783545210      1.8716864003     -0.1952015295     -0.0365946651     -0.5501000644      0.1724942768
H       0.9219704723      1.8948932645      0.4377789647     -0.4219317928     -0.4401473316     -0.0126514333      0.1925885214
H       2.5253345147      0.4208981769     -1.4927251868      0.0613317509     -0.2755250028      0.1707464737      0.1025751378
H       3.0793372799     -1.1513494277     -0.7672389391     -0.3033506333      0.3116042582     -0.2191231799      0.0979620179
H       2.5290699179     -0.4432039866      1.4370351718      0.0797202511      0.3261224729     -0.1498535160      0.0961859971
H       3.0766055550      1.1290052664      0.7075711182     -0.3445871965     -0.2464000911      0.3614629098      0.1611005829
H      -0.1617498388     -1.5217336591      1.5065911629      0.1586249852      0.5146843218     -0.4132302360      0.1604791509
H      -1.3966809084     -0.2558752063      1.6087986844      0.4115117291      0.1366986380     -0.4097446364      0.1719010448
H      -0.1938234874      1.4812220070     -1.5508411286      0.1756549358     -0.4698980410      0.4567137672      0.1608821600
H      -1.4189293219      0.2049071881     -1.6373723373      0.3705023560     -0.1476941809      0.3927362877      0.1522914419
H      -2.2774875527     -2.4969369752      0.8945777196      0.1949719840      0.2436877671     -0.1793019459      0.0899750323
H      -2.6557185324     -1.2115205639     -0.2899612223      0.2184764988     -0.2187469942      0.0665211704      0.0740739767
H      -1.3375011389     -2.3992144030     -0.6325238008     -0.1779803189      0.1202628219      0.2087786243      0.0680426771
H      -2.3059575715      2.4424379500     -0.9107828120      0.2120174925     -0.2432249644      0.1787093812      0.0895393683
H      -2.6628980134      1.1522633337      0.2755600665      0.2119387295      0.2108576195     -0.0760083850      0.0680044655
H      -1.3481765353      2.3476586378      0.6052286305     -0.1523818453     -0.1105803209     -0.2212659853      0.1034959755
P       2.8457219826      3.8423605528      3.1258215671      0.6649196230      1.1056801258      0.9025816434      2.1164593070
F       1.8365927970      4.0279669222      1.7488540484      0.3846632633     -0.6076166408      0.7884256808     -0.5269715795
F       3.3034478079      5.4957284693      3.0417523239     -0.8067617146     -1.4254464467     -0.6080081065     -0.5005570439
F       1.4596913036      4.2074187945      4.0723832689      1.4269569189     -0.1841066273     -0.6073671245     -0.5071793006
F       3.9264848363      3.8296015735      4.4607818416     -1.1169426296     -0.6372378979     -1.0945882799     -0.5005992294
F       2.5093193417      2.1859599192      3.4300251505     -0.0774660853      0.9306090630     -0.7794629029     -0.5255138889
F       4.0556923988      3.3429401852      2.0139508986     -0.6958207600      0.4202735908      1.0552661202     -0.5164597560
