34
Properties=species:S:1:pos:R:3:forces:R:3:charge:R:1 energy=-181.28339598332403 homo_lumo=6.399435411691859 dipole="-1.3444824409795635 -2.7968091507332478 -0.35391834298042685" free_energy=-181.28339598332403
N      -0.0068923913      0.2569498818      0.4438444135     -0.2224579866      0.0586976876     -0.0585797872     -0.5093559637
C       1.2334212062      0.1225570331     -0.4127254246      0.5136904783     -0.1002886494     -0.2274360656      0.0193543063
C       0.4952244730      0.6097553589      1.8199949429      0.4163053449     -0.0870845878      0.4169241961     -0.0339001832
C       2.4354918520      0.0936394439      0.5320764035     -0.0021513608     -0.0446478584     -0.0134636202     -0.1391149314
C       1.8514074566     -0.0621819037      1.9335775888     -0.2018004556      0.0164154280     -0.1507653683     -0.1343485902
C      -0.7315111421     -1.0548602975      0.5235167928     -0.3212174841     -0.2838794848     -0.4344096964     -0.0602290007
C      -0.8770920779      1.3561350548     -0.0985218702     -0.5928804798      0.2444996501      0.1389502092     -0.1010072647
C      -1.3938667537     -1.4958926310     -0.7743893238      0.2000497270      0.1909284874      0.4153366060     -0.0782214824
C      -2.1108824264      1.6295770373      0.7450147636      0.3886950707     -0.2953079321     -0.2317414675     -0.0723581155
H       1.2814867107      0.9803512034     -1.0826054530     -0.0546346799      0.1397829113     -0.0870479829      0.1515728312
H       1.1534985178     -0.7875350169     -1.0074139328     -0.1374049592     -0.2077206110     -0.0739935916      0.1184724358
H      -0.2232623008      0.2797739241      2.5698021444     -0.2407965611     -0.0799290418      0.1206837139      0.0864257818
H       0.6070450026      1.6923323359      1.8623081437      0.0063049662      0.1925266670     -0.0256814942      0.2562314177
H       2.9747316244      1.0402656880      0.4620127079      0.0520966899      0.1780050431     -0.0170538909      0.1605436912
H       3.1152599290     -0.7209077678      0.2788906741      0.2003556349     -0.2029422719     -0.0719396794      0.0571555758
H       1.7529093553     -1.1152198016      2.2122306834     -0.0168847350     -0.2761221946      0.1134249831      0.0641856786
H       2.4622004300      0.4477933512      2.6789060406      0.1177759804      0.0838840545      0.2249116803      0.1100949219
H       0.0039950031     -1.7982648784      0.8400217341      0.1964410186     -0.0956885217      0.1445295710      0.1483007684
H      -1.4883134089     -0.9639706040      1.3059931845     -0.0763870181      0.0557875157      0.2049587077      0.1413910422
H      -0.2544543352      2.2509047055     -0.1305699924      0.1951191393      0.0562979369     -0.0148418508      0.2422133882
H      -1.1529430310      1.0825412151     -1.1187424754      0.0041644624     -0.1205998744     -0.2523887981      0.1179034382
H      -1.7580885108     -2.5131989090     -0.6321488362     -0.1241697035     -0.3064564689     -0.0045443650      0.0662963802
H      -2.2434172135     -0.8632314295     -1.0246732795     -0.2678449843      0.1587545399     -0.1078009602      0.0588638991
H      -0.6964332004     -1.4967722540     -1.6100495533      0.1816744933     -0.0488424067     -0.2930728192      0.0525520771
H      -2.6095136061      2.5032685387      0.3265384350     -0.1598634253      0.2586172956     -0.0746592786      0.0731503877
H      -2.8108676535      0.7949329820      0.7364661248     -0.2991582370     -0.2366223201      0.0083538553      0.0304293071
H      -1.8361692412      1.8561773566      1.7733127207      0.0338859147      0.1811129485      0.3016865756      0.0685414935
P       1.8682758744      4.0883818738      0.9557310934      0.0196018695     -0.1098259938     -0.0213747366      2.1974785572
F       1.9681903673      5.1362280646      2.1902265133      0.0048375602      0.1552516823      0.1930695545     -0.4914024736
F       1.2539091708      5.2205478841     -0.0402798517     -0.0978337361      0.1588412838     -0.1395561569     -0.4968503359
F       3.3873606138      4.4061621448      0.4714126339      0.2353718583      0.0366342512     -0.0804433014     -0.4953715964
F       1.7230162013      2.9441174612     -0.2842595073      0.0485459131      0.1510588458     -0.0756685487     -0.5436265476
F       2.4342987500      2.8564166270      1.9353244915      0.0831332564      0.0787510365      0.0962600231     -0.5305775240
F       0.3055880913      3.6720149700      1.4269272437     -0.0825635718      0.1001109522      0.0773737838     -0.5347933700
