49
Properties=species:S:1:pos:R:3:forces:R:3:charge:R:1 energy=-275.36409151574713 homo_lumo=3.6280747832692164 dipole="-2.991224523240869 0.2841014144130762 1.692518329297807" free_energy=-275.36409151574713
N       1.2619818408      1.0948377563      0.9842826372      0.2796912348      0.1760867311      0.2206194516     -0.5086415673
N       0.0748961965      0.6736219555     -0.7631348937     -0.2408145597     -0.0995620885     -0.4023018389     -0.5207922451
C       2.9371657253      0.4646904915      2.6955708924     -0.0582968134     -0.0611857743     -0.7724066087     -0.1958350064
C       3.4176877718     -0.7449885065      1.8884310933      0.1408900744      0.1644421686      0.7584228191     -0.2165519944
C       2.3737718619      1.5743374194      1.8079936790      0.1419755932     -0.0515597751      0.4637512649     -0.0074479931
C       4.0315426457     -1.8008384557      2.8119573132     -0.1552082057     -0.0852362975     -0.8513135964     -0.1570574852
C       4.4954229933     -3.0282293638      2.0214481504      0.1392423718      0.0564091213      0.7215048864     -0.2250511760
C       1.1602045669      1.3063049876     -0.3244385664      0.1326776842      0.2630195562     -0.1508888103      0.6000990435
C       0.2155787417      0.3135526420      1.3945436043     -0.1551801529     -0.1267917568      0.2509834444      0.1950988053
C      -0.5317973859      0.0470621969      0.2902170477     -0.1830338442     -0.1891366672      0.2006058064      0.2247019157
C      -0.3415594905      0.5869129869     -2.1633305978      0.0132249374      0.3672316232     -0.3414606653     -0.0509630369
C       5.0956658886     -4.0884370881      2.9422509476     -0.1604240297      0.1873242973     -0.4017508716     -0.0446591190
C      -0.3835973238      1.9644826469     -2.8087884009      0.0057059332     -0.3393057291      0.1864690505     -0.0985493832
H       3.7783495035      0.8954943349      3.2467393614      0.1647112291      0.1338402152      0.2101449359      0.1051541626
H       2.1830172430      0.1567451009      3.4271270554     -0.1457924968     -0.0600888629      0.3011651564      0.0814180149
H       4.1584728399     -0.4183034912      1.1543484826      0.0286388457      0.0392010503     -0.1599218537      0.1949231542
H       2.5742807326     -1.1793540428      1.3416906833     -0.1632714618     -0.1555737382     -0.2165662553      0.1018543998
H       2.0098739811      2.4064728041      2.4190013143     -0.1190933841      0.2213054077      0.0732306411      0.1047391612
H       3.1413931114      1.9383359876      1.1204599331      0.0853501498      0.0239239344     -0.1611853004      0.1530182365
H       3.2918654843     -2.1050804719      3.5620532934     -0.1604842780     -0.0992956720      0.2637984461      0.0656987027
H       4.8847169797     -1.3651897157      3.3431195595      0.2275432991      0.1051004109      0.1867807366      0.0775866579
H       5.2435121994     -2.7222297372      1.2849517053      0.0785617259      0.0486288036     -0.1790244289      0.1389249029
H       3.6450779625     -3.4543949114      1.4782282913     -0.1977321750     -0.0607072974     -0.2142439364      0.0693491345
H       1.8414262100      1.8889265917     -0.9166040379      0.0580394541      0.0145265649     -0.0741416377      0.1843180620
H       0.0830930086      0.0142540085      2.4189507001     -0.0013137832     -0.0765074542      0.2223996920      0.0458541796
H      -1.4303182611     -0.5330894184      0.1724754223     -0.1979760455     -0.1402270817     -0.0463639259      0.0315255789
H       0.3812125543     -0.0515560579     -2.6811297572      0.1178812821     -0.1203940182     -0.0412701920      0.1556531837
H      -1.3249936004      0.1106683923     -2.1822893889     -0.1807054068     -0.0858476276      0.1201608970      0.1021031806
H       4.3607842714     -4.4214963558      3.6771377031     -0.1879320141     -0.1347824586      0.2557814487      0.0180199871
H       5.9602556334     -3.6878209582      3.4731970048      0.2743573508      0.0779509982      0.1901592972      0.0268490741
H       5.4172160938     -4.9507275897      2.3577161903      0.1476941581     -0.3253419166     -0.0757744337      0.0314670124
H      -1.0062450423      2.6451229875     -2.2287083599     -0.2562261974      0.2057961207      0.1614201921      0.0418690848
H      -0.7994947873      1.8688090278     -3.8107285854     -0.0875860113      0.0203193651     -0.3233246682      0.0567273360
H       0.6208628240      2.3767435498     -2.8896365229      0.2490025892      0.0805846232     -0.1169934032      0.1042901032
N       4.9129834302      0.0485021751     -3.0515680407      0.0420582442      0.2381315188      0.1593411952     -0.8305417189
S       6.4192258563      0.0346061926     -2.4400185560      0.0665379233     -0.1153558892     -0.4437807699      1.6187054743
S       3.8671147460      0.9290429952     -2.2696243247     -0.1535368959     -0.3799302577     -0.2824870637      1.6593676151
C       6.3214926782     -1.0802657188     -0.9291208835     -0.2696250793      0.3635219756     -0.6830748729      1.1934607239
C       4.0422150261      2.7541803972     -2.6978681263      0.1504133958     -1.0159182314      0.1373662130      1.2024101312
O       7.2345173572     -0.6881713963     -3.3721996557      0.6029887627     -0.8363736374     -0.7436068995     -0.7224911508
O       6.8745308003      1.3089625310     -1.9492617790      0.2479159296      1.0381794216      0.5902289332     -0.7310974784
O       3.9582434409      0.9423975115     -0.8110751420      0.2503055525      0.1849253351      0.6640226547     -0.7973325453
O       2.5495899331      0.6339701892     -2.8116785510     -0.7777442403     -0.0834056372     -0.4940798449     -0.8001942702
F       7.3410228693     -1.9218850928     -0.9281051910      1.1305785606     -0.8565373728     -0.0063243889     -0.4362994517
F       5.1951766239     -1.7857072583     -0.9499160986     -1.0835697634     -0.7895457354     -0.0556189311     -0.4589803097
F       6.3552572065     -0.3755033515      0.1910785382      0.1664961981      0.7618249747      1.2022576467     -0.4536717774
F       2.8539154034      3.3126837377     -2.4055575232     -1.2053223117      0.7402661108      0.3175270950     -0.4739829273
F       4.2821489635      2.9387702650     -3.9815303933      0.2517137422      0.1453777146     -1.3338529550     -0.4308717165
F       4.9602737299      3.3647926293     -1.9805439791      0.9466729286      0.6306929339      0.7136162482     -0.4241746659
