34
Properties=species:S:1:pos:R:3:forces:R:3:charge:R:1 energy=-180.5390555753629 homo_lumo=1.1288387298921494 dipole="-2.773150316558815 2.7264052656158295 -1.5385821027016653" free_energy=-180.5390555753629
N      -0.8954447629     -0.1407491204      0.0339205133     -0.0331387289     -0.0491361114     -0.0547503963     -0.5245737959
C      -2.0302625425     -0.1933078076     -0.9378818287     -1.5940256549     -0.5967329908     -1.5681714016      0.0026560350
C      -1.2087758746      1.0166737972      0.9277396083      0.0845151414      1.7630264445      1.5128076010      0.0006616222
C       0.3829345224      0.1092532660     -0.7092522550      1.7594382518      0.2161599800     -0.4177198680     -0.0442917533
C      -2.8248451524      1.0900859307     -0.8043612900     -0.0932402505      0.5226510943     -0.6593848273     -0.1396108842
C      -2.6239554515      1.4744433940      0.6333594697     -0.5948811635      0.0196286965      0.5899836409     -0.1400645656
C      -0.8498693126     -1.4002263205      0.8456918423      0.2605055086     -1.9173378479      0.7599274814     -0.0964123692
C       1.6459488383      0.1625385668      0.1829500860     -0.4263959789     -0.1504841506     -0.1361645316     -0.2273263595
C      -0.5332516621     -2.6715761837      0.0375906545     -0.0327661897      0.3691473118     -0.2254009666     -0.1006367445
C       2.8672953658      0.6107305548     -0.6286878252     -0.1200463217      0.0667659668     -0.0818329894     -0.2050073578
C       4.1222862258      0.6544159838      0.2377292576      0.2345181104     -0.0627140054      0.0141171623     -0.0880640152
H      -2.7336164233     -1.0289265094     -0.7165907829      0.7148034984      0.0915974351      0.2249364924      0.1505518341
H      -1.7012051098     -0.3260637522     -1.9936113222      0.2517051402     -0.1452764136      0.6314897336      0.1376307392
H      -1.1093283970      0.7761067702      2.0109590135      0.2832783381     -0.2620793051     -0.6137459582      0.1477346397
H      -0.5436366966      1.8897703945      0.7347422533      0.1063453342     -0.7236780926     -0.1802928022      0.1480936848
H       0.5408302309     -0.6703984468     -1.4868762928     -0.3663709089      0.0544336685      0.4371327057      0.1591558356
H       0.3039325799      1.0710893431     -1.2675286711     -0.4077340723     -0.2368956126      0.3218622530      0.1319765574
H      -2.3940249722      1.8720065677     -1.4686107381     -0.2586946753     -0.1696172027      0.1064641898      0.0986018565
H      -3.9005279641      0.9420392144     -1.0429701993      0.4505464216      0.0812412349     -0.1616690873      0.0962285709
H      -3.3424869936      0.9193944096      1.2767664201      0.1295827210      0.2852120459     -0.1255815598      0.1026264235
H      -2.7494227719      2.5687590476      0.7857044854      0.0152797200     -0.4529232998      0.1936000690      0.0959140806
H      -0.1024854927     -1.3158883713      1.6645088710      0.0555797265      0.1811150786     -0.4120354227      0.1770381099
H      -1.8285659340     -1.5572818971      1.3543334836      0.1260507412      0.5502689203     -0.3511823367      0.1321720450
H       1.4999794172      0.8649391210      1.0302906097      0.0013689317     -0.1597000273     -0.1248991891      0.1011209116
H       1.8576030071     -0.8443665817      0.5976097512     -0.0067405763     -0.0113881677      0.1678288492      0.1862577398
H      -0.6308659083     -3.5564201140      0.7014615211      0.2400159732      0.3892420451     -0.0964784717      0.1028286499
H       0.5070747539     -2.6567897985     -0.3438353715     -0.1749979905     -0.1735367574      0.3098353343      0.0935673933
H      -1.2339924559     -2.8028880096     -0.8115338599      0.0728721079      0.0393510896      0.1489856515      0.0330480279
H       3.0367698546     -0.0956886340     -1.4704949583     -0.1101934410      0.1949575290      0.1200785198      0.0954206905
H       2.6888012474      1.6246054750     -1.0489481568     -0.0243247640     -0.2148246285     -0.0814818188      0.0691723847
H       4.3365812388     -0.3510294633      0.6591021872     -0.0724811376      0.3057445074     -0.0239767804      0.0847403361
H       3.9918687257      1.3811128138      1.0675550168      0.1152863344     -0.2458428938     -0.1698932530      0.0342795160
H       4.9882138120      0.9728007012     -0.3800804806     -0.1817958751     -0.0723579756      0.2631843353      0.0435185220
Cl      2.5482063246     -3.5042837089      1.9942713941     -0.4038642716      0.5139824345     -0.3175723586     -0.8590083612
