34
Properties=species:S:1:pos:R:3:forces:R:3:charge:R:1 energy=-180.37853753721038 homo_lumo=0.9699669651654288 dipole="-2.426897698450316 0.06145351683304454 3.4571482272289504" free_energy=-180.37853753721038
N      -0.8784478989     -0.1670308198      0.0324158999      0.0463791412     -0.0863821032      0.1855557353     -0.5241264241
C      -1.9681413551     -0.2806819015     -0.9851114601     -1.5131781123     -0.7410565666     -1.7356894202     -0.0071707967
C      -1.2495601226      1.0172386257      0.8665674222     -0.0945353983      1.8171163304      1.4733308064     -0.0018274037
C       0.4258871240      0.0760565142     -0.6658835509      1.8153028579      0.1275924947     -0.4572315021     -0.0599395495
C      -2.8045613311      0.9826973867     -0.9279506686     -0.0497062534      0.5027734630     -0.6679374780     -0.1409746572
C      -2.6602714755      1.4369485047      0.4969288148     -0.6154923251      0.0234052805      0.6057324542     -0.1393931261
C      -0.8462565088     -1.3917233934      0.8951941841      0.1221196928     -1.6099677426      0.7505758366     -0.0822073896
C       1.6512928746      0.2001199688      0.2718056528     -0.4448998030     -0.0326404396     -0.1321666562     -0.2161094356
C      -0.4774812602     -2.6895278495      0.1538304515      0.0832521963      0.2650267588     -0.0985169055     -0.1192461451
C       2.8975130218      0.6170651171     -0.5200821352      0.1047361322     -0.0632050817     -0.1050219978     -0.2019107520
C       4.1182563532      0.7452183019      0.3868074101      0.0512348682      0.0633743571      0.0516852386     -0.0831866923
H      -2.6569155549     -1.1305496404     -0.7715510181      0.6564324182      0.1252576671      0.2867105205      0.1390478160
H      -1.5881855225     -0.4363101253     -2.0211782276      0.3252606082     -0.0783123334      0.5952215286      0.1650768209
H      -1.1906557297      0.8190621004      1.9616546163      0.2723214704     -0.2461969857     -0.5713988301      0.1310320465
H      -0.5910125542      1.8945255494      0.6703420880      0.1241401455     -0.7486404002     -0.1847712375      0.1564866868
H       0.6316274503     -0.7352147007     -1.3986557483     -0.2769315821      0.2507136062      0.0359243459      0.1873644908
H       0.3509641048      1.0098063790     -1.2702434447     -0.2948614255     -0.4052979051      0.1645993880      0.1669674535
H      -2.3812617233      1.7490049750     -1.6145467156     -0.2257925700     -0.2243490730      0.0941780834      0.1165857119
H      -3.8678383891      0.7904407383     -1.1907789967      0.4675698054      0.0839824617     -0.1388389516      0.0969419589
H      -3.3952340247      0.9032896167      1.1396290778      0.1285582770      0.2705322305     -0.1173080976      0.0937818209
H      -2.8077927610      2.5348465151      0.5928651656      0.0239113447     -0.4334802232      0.2054199303      0.0978522590
H      -0.1353755109     -1.2612604443      1.7400237338     -0.1276962536      0.3678389960     -0.4640284133      0.1565305598
H      -1.8429049175     -1.5440165897      1.3695480249      0.1726777566      0.4766855271     -0.3514052659      0.1398785590
H       1.4630335777      0.9518144727      1.0663346619      0.0043856963     -0.1543258232     -0.0212252087      0.0884299645
H       1.8584782502     -0.7756586285      0.7583188313     -0.0704245931      0.1789000380      0.0042786317      0.1073702019
H      -0.5977170354     -3.5487085220      0.8466591633     -0.0126141850      0.3282150189     -0.1363495228      0.0787096489
H       0.5798676662     -2.6762284573     -0.1780006995     -0.3215121869     -0.0211330634     -0.0230368045      0.0946627088
H      -1.1351666806     -2.8645534485     -0.7214005522      0.2498751016      0.0171052383      0.1948263499      0.0792064200
H       3.1127027235     -0.1409266218     -1.3039465904     -0.2636502925      0.3823348100     -0.1157631758      0.1400817765
H       2.7182834411      1.5948451216     -1.0183730507     -0.0277423794     -0.3915474277     -0.0807858467      0.1036742762
H       4.3474511353     -0.2293613888      0.8683234521      0.0294871194      0.3027568486     -0.0467209996      0.0302842157
H       3.9375238532      1.5095685734      1.1719383963      0.1681389149     -0.2146053399     -0.0884097287      0.0217615380
H       4.9963884683      1.0590137027     -0.2161737389     -0.2123417906     -0.1190259174      0.2566574347      0.0639774835
Cl      2.0025194711     -0.2035877679     -4.2784492957     -0.2944043961     -0.0134447013      0.6319097584     -0.8796120462
