43
Properties=species:S:1:pos:R:3:forces:R:3:charge:R:1 energy=-238.66489327397642 homo_lumo=3.448089091860805 dipole="-0.6683453437192944 0.3373643096103526 -1.950831705966794" free_energy=-238.66489327397642
N      -0.3474548054      0.2277208092     -0.1481401366     -0.0041273561      0.0053188555      0.0027206465     -0.4843066791
C      -1.2128032687      1.0072898557      0.8345625475     -0.0057707000     -0.0117540686      0.0125987611     -0.0652242611
C      -1.0166954292      0.1910964167     -1.5044615697      0.0179804679     -0.0134516421     -0.0129592466     -0.0006704701
C      -0.1170009087     -1.1632791650      0.4216420664      0.0035173994      0.0162494576      0.0073777797     -0.1134905642
C       0.9687640356      0.9657250838     -0.3284735102      0.0007210719     -0.0044714052     -0.0038073678     -0.0142399084
C      -2.6460057189      0.5039565838      0.8810391983      0.0071250216      0.0058263630     -0.0014007705     -0.1616820544
C      -2.4306793603     -0.3621168923     -1.4615020951     -0.0035427602      0.0241209800     -0.0080517346     -0.1686386769
C      -3.3012441042      0.4450828914     -0.4975244716      0.0120663771     -0.0213233354      0.0083811434     -0.1611066833
C       0.7955766526     -2.0666422426     -0.3887680601     -0.0057688254      0.0020526156     -0.0100104155     -0.2478953453
C       1.8449171181      1.0583288419      0.9055846137     -0.0066294253      0.0073116040      0.0027307135     -0.2748505233
C       0.9974414248     -3.3646796507      0.4015165914     -0.0060903308      0.0040488470     -0.0108995405     -0.0677211507
C       3.1108094792      1.8481677014      0.5801976718      0.0007670406     -0.0058563441      0.0170398790     -0.0627121627
H      -0.7304656542      0.8966152440      1.8357449246      0.0092728422      0.0038129619      0.0000511453      0.2478370016
H      -1.1792471574      2.0547412945      0.4897829175     -0.0028855270      0.0009912360     -0.0028862840      0.0881630536
H      -1.0303190272      1.2345779505     -1.8612338662     -0.0032181597      0.0023570297      0.0053113353      0.1204668380
H      -0.3640997756     -0.3909341158     -2.1711263703     -0.0091530322      0.0021309275      0.0045964909      0.1314831295
H       0.3169635347     -1.0276504774      1.4417254037     -0.0038464232     -0.0139950156     -0.0117634461      0.2874225190
H      -1.1079757819     -1.6226234033      0.5302461478      0.0039276335      0.0022102244     -0.0090063253      0.1432802531
H       1.4948626377      0.4546679447     -1.1514847180     -0.0008787015      0.0082986169      0.0122912756      0.1229346870
H       0.6880964691      1.9711611329     -0.6871656292      0.0068624242     -0.0120765710      0.0003526719      0.1143723225
H      -2.6778372630     -0.4827160171      1.3721101194     -0.0101366349     -0.0026193838      0.0067766409      0.1052723874
H      -3.1935404830      1.1883215268      1.5502114711     -0.0006256351     -0.0143111915      0.0019648071      0.1097137019
H      -2.8326507665     -0.3183237843     -2.4884402160      0.0019183612     -0.0089446395      0.0158590741      0.0972499225
H      -2.4165988117     -1.4271051428     -1.1747248158     -0.0035159822     -0.0018461149      0.0039837603      0.1049405501
H      -4.3098348876      0.0049802793     -0.4333578694      0.0046142838      0.0063415770      0.0038094176      0.0805334274
H      -3.4201738284      1.4708758194     -0.8938210709     -0.0009915572      0.0005974717      0.0003877391      0.0810989503
H       0.3837202172     -2.2918704620     -1.3895665551      0.0160528440      0.0070435386      0.0126643351      0.0734086616
H       1.7786167321     -1.5876433731     -0.5332075286     -0.0037184215     -0.0121185908      0.0072199402      0.1084886335
H       1.2949737376      1.5342047479      1.7330288617      0.0071096060     -0.0044578332      0.0046834733      0.1544087649
H       2.0998739153      0.0560027102      1.2841709967      0.0012588752      0.0070410730      0.0199283645      0.1719542827
H       1.6979660713     -4.0356628982     -0.1166448929     -0.0052108927      0.0051069228     -0.0101024506      0.0261587095
H       0.0423981662     -3.8997364723      0.5272177096      0.0028304871     -0.0040205446     -0.0078842799      0.0222515427
H       1.3904289213     -3.1310571243      1.4027977276     -0.0053720890     -0.0013536820      0.0062333331      0.0990178619
H       3.7550214312      1.9087154402      1.4696670264     -0.0162130234     -0.0071559169     -0.0034887205      0.0557604437
H       2.8797016086      2.8787192357      0.2646527473      0.0043796366      0.0052999692     -0.0208594896      0.0198906466
H       3.6951941991      1.3670336093     -0.2210449706      0.0012093900      0.0065469218     -0.0172313229      0.0233278732
C       0.9274679558     -0.7859233128      5.3170579278      0.0053000446      0.0060833598      0.0026304047     -0.0952891328
C       0.7093674975     -0.5070285049      3.8235432828      0.0015450312     -0.0061379513      0.0102023932      0.9170258532
O      -0.0600006662      0.4607271236      3.5279843254      0.0003265671      0.0033184478     -0.0063705667     -0.8386199140
O       1.3336188802     -1.2578875797      3.0096678072     -0.0074188623     -0.0047967596     -0.0015323912     -0.8476899157
H       1.8167809104     -0.2313471631      5.6575318180     -0.0021337423      0.0073436827     -0.0134037499      0.0391161135
H       0.0692778208     -0.4455645785      5.9129949774     -0.0001356936      0.0052707200     -0.0115844114      0.0279211910
H       1.1178322003     -1.8546731848      5.4895218278     -0.0014016296      0.0059675867     -0.0065530119      0.0306381203
