45
Properties=species:S:1:pos:R:3:forces:R:3:charge:R:1 energy=-242.95536904009182 homo_lumo=2.419455360805643 dipole="3.5422067681524805 3.032343841134588 -5.66762659073115" free_energy=-242.95536904009182
N      -0.4027136914      0.1680509134     -0.0804531084      0.2028620102      0.1376577322     -0.0392694759     -0.5249496585
C      -0.9741819100     -0.8817404089     -0.9794398035     -0.4349472865     -1.7947780490     -1.6340001181     -0.0145775162
C      -1.4602271299      0.4109252057      0.9478717931     -1.5096344963      0.8528559538      1.7999032443     -0.0158687427
C      -2.4397334790     -1.0582880306     -0.6303053523     -0.5893024584      0.1922097593     -0.5866411571     -0.1379971451
C      -2.4977617596     -0.6863897337      0.8224198132     -0.0990235612     -0.6153187428      0.6491423526     -0.1699696800
C       0.8349277958     -0.3417311176      0.5947682117      1.5791722566     -0.4919000690      0.3082468333     -0.0554049115
C      -0.1518147570      1.4156010465     -0.8716984680      0.4661964059      1.6076219242     -0.6741526789     -0.0882189913
C       2.0178184348     -0.6315356691     -0.3596015807     -0.2787843817      0.1582619326     -0.0843738630     -0.2557569287
C       0.4399323004      2.5821723765     -0.0604807738      0.0076108796     -0.2784493848      0.0985533313     -0.1219716202
C       3.1668756902     -1.3047355195      0.3873418049      0.0411825907     -0.0810692128      0.1758259307     -0.0946507608
H      -0.4877455978     -1.8731469486     -0.8310924477      0.2318370535      0.6657625306      0.2199834702      0.1577867405
H      -0.8706970839     -0.6389127740     -2.0618754980      0.3353323077      0.1840458469      0.5789715205      0.1383374047
H      -1.9917665661      1.3768164609      0.7856483955      0.6304490373     -0.2060571007     -0.2825595163      0.1506745938
H      -1.0644496283      0.4403270261      1.9891367103      0.2197350702      0.0702789805     -0.6033413313      0.1613414796
H      -2.7876395964     -2.1008527309     -0.7990836986      0.1028902971      0.4517168709     -0.1556449387      0.1150096226
H      -3.0604623299     -0.3533066040     -1.2266800043      0.0821532797     -0.3066520030      0.0709930513      0.0984857982
H      -3.5117458959     -0.3416652794      1.1214032286      0.4712217126     -0.2321083473      0.1812745965      0.1262978185
H      -2.1946827747     -1.5597431432      1.4393756996     -0.3085215269      0.2872912254     -0.0257294754      0.1485269945
H       0.5933348607     -1.2784165851      1.1496787311     -0.3080905095      0.3803996418     -0.3110000087      0.1761001364
H       1.1813947839      0.3793649555      1.3681612335     -0.4007727708     -0.0316534914     -0.3480935520      0.1697948137
H       0.5278156081      1.2100468513     -1.7274430846     -0.2120371487     -0.3453771643      0.4177103890      0.1603844685
H      -1.1044090507      1.7694160460     -1.3294737067      0.1135303704     -0.5478590078      0.3470029483      0.1581543469
H       1.7057535962     -1.2952594759     -1.1922657855     -0.0429021788      0.2252191942      0.1175168177      0.1214636690
H       2.4041525322      0.3130811574     -0.7947422339     -0.2135520513     -0.1628025387     -0.0069953575      0.1251764092
H      -0.1740582641      2.8145366798      0.8330353200      0.2120931077     -0.0183896391     -0.2191400615      0.0827519201
H       1.4807106886      2.3656264419      0.2539755209     -0.2941389793      0.1075134746     -0.0177715003      0.0776386232
H       0.4680728150      3.4894918454     -0.7001579659     -0.0538255496     -0.3355452366      0.1493204401      0.0932205464
H       3.5337556183     -0.6461425197      1.2032909406     -0.0254993660     -0.3009538193     -0.1800317116      0.0614018080
H       2.8343737465     -2.2728756645      0.8191510759      0.2104044840      0.2802734083     -0.0573031398      0.0643782611
H       4.0046633101     -1.5003628099     -0.3145114967     -0.2381727498      0.0493175564      0.2911480188      0.0738155330
N      -3.9809780844     -3.9773650171      6.0110396183      0.0473724633     -0.3075430649     -0.2534952034     -0.8633656620
S      -5.0839340444     -3.3664963322      4.9642738196     -4.8905967032     -0.1501207707      5.7141487389      1.5773362159
S      -3.1298127334     -3.0380777507      7.0505981361      3.9591923624      2.2409266463     -5.3382025010      1.5538257191
C      -4.2692346025     -2.9651570736      3.4340569666      0.8277321716      0.1181465081     -0.9685147218      1.1370589766
C      -3.8982306301     -3.1106272925      8.6546253609     -1.2129363560     -0.2447531596      1.5972728591      1.1562738874
O      -6.1401058446     -4.4011179886      4.6995063462      2.3912942103      0.7577630601     -0.8322947048     -0.7237494343
O      -5.7222384408     -2.1281308174      5.5299365451      1.4014595894     -0.7821485348     -1.7619079941     -0.7266160016
O      -3.0909327347     -1.6113410874      6.5770611779     -0.7567913295     -1.3132149967      1.5145614326     -0.7445630585
O      -1.7288831701     -3.5690206250      7.1600133328     -2.2338386517     -0.3081237423      0.8659980725     -0.7341441524
F      -5.1896681193     -2.4577058494      2.5367100595      0.9295174820     -0.2719122016      0.2891230572     -0.4442010522
F      -3.6922873325     -4.1041570367      2.9048075645     -0.1528742364      1.0161989826     -0.1470081473     -0.4381118066
F      -3.2888633913     -2.0217218754      3.6703321510     -0.5127714428     -0.5848320493     -0.7075934072     -0.4467801170
F      -3.1969824631     -2.3138661193      9.5395480109     -0.6839834041     -0.7155726211     -0.5844725557     -0.4311004349
F      -3.8932944475     -4.4158287723      9.1090537360     -0.1420900588      1.0657276036     -0.0058617487     -0.4302393434
F      -5.2022546028     -2.6613680810      8.5669604181      1.1318480551     -0.4220538848      0.4387017652     -0.4229987686
