48
Properties=species:S:1:pos:R:3:forces:R:3:charge:R:1 energy=-262.6886421472557 homo_lumo=2.9315239333129646 dipole="-0.9770849700424775 -2.458668892952755 -3.169092404412672" free_energy=-262.6886421472557
N       0.1982604966      0.4050493836     -0.0551839701     -0.0796058458     -0.1003561221     -0.0658471331     -0.4928743594
C      -0.4809782698      1.4389567415      0.8173541537     -0.4055049032     -0.1194373209      0.4782638313     -0.0981834832
C      -0.8087660739     -0.4647137757     -0.7524883034     -0.3931931885      0.2749859265     -0.3619564453     -0.0322226638
C       1.0583078143     -0.4581351388      0.8302214059      0.4409079445     -0.4233474672     -0.2411097591     -0.0661889446
C       1.0253637011      1.1208617079     -1.0984325834      0.5852066067      0.2453927660      0.1163717498     -0.0423358567
C      -1.5398206775      0.9045739473      1.7792391902      0.1536445553      0.3432057805     -0.1872179222     -0.2572607766
C      -1.8178913507      0.2834157946     -1.6236045633      0.1004062704     -0.4451722193      0.1259757906     -0.2442153916
C       1.8634878367     -1.5397390354      0.1126833840     -0.1136558566      0.1466153302      0.3740439720     -0.2504686980
C       2.2897037153      1.8003288067     -0.5731946773     -0.3320010116      0.0397243969     -0.3738683557     -0.2975392405
C      -1.9739703241      2.0436382484      2.7033061323      0.1193478864     -0.3245590208     -0.2009053847     -0.0731839878
C      -2.7761467193     -0.7225887329     -2.2611960730      0.2718149482      0.3193865072      0.1638956621     -0.0456812036
C       2.8284329684     -2.1803723237      1.1116061658     -0.2539175044      0.1467995541     -0.3359100807     -0.0463561971
C       2.8156197914      2.8020328680     -1.5997731246     -0.0923129456     -0.3557198532      0.2513922991     -0.0494473969
H      -0.9266469604      2.1806333443      0.1511475030     -0.0532909389      0.1518655924     -0.1885206787      0.1167996502
H       0.3068793415      1.9265642917      1.3884063491      0.0476039439      0.0357390126      0.0343281581      0.2950251553
H      -1.3316935448     -1.0343559880      0.0192568050     -0.0817901635     -0.1223745977      0.2091053665      0.1470283888
H      -0.2499868469     -1.1661536249     -1.3762115011      0.1520554640     -0.1371618074     -0.0718841556      0.1541271971
H       0.3933139739     -0.9288133633      1.5568113652     -0.1621692628     -0.0063520243      0.1519177828      0.1558622081
H       1.7289071665      0.2126694180      1.3685580145      0.0233088282      0.1384147082      0.0901050444      0.2212987635
H       0.3715447497      1.8729369803     -1.5456676613     -0.1653783737      0.0962639673     -0.0486881645      0.1590838164
H       1.2799901074      0.3889524017     -1.8695326036     -0.0193877067     -0.1847617290     -0.1814513890      0.1185586504
H      -2.4075096087      0.5252508244      1.2307164550     -0.2033422090     -0.1680177201     -0.1583429935      0.0848190376
H      -1.1382582011      0.0898724373      2.3867644751      0.0985766531     -0.1850442013      0.1826411974      0.1062223606
H      -2.3918020024      0.9952939958     -1.0268924127     -0.1066482687      0.2178202651      0.1643156253      0.1238009821
H      -1.3042767454      0.8369220411     -2.4133860984      0.1147233059      0.1703906336     -0.1714558728      0.1090492695
H       1.2005978707     -2.3107468650     -0.2903299654     -0.1331205313     -0.1818431186     -0.1484590461      0.0933429491
H       2.4362048761     -1.1177280536     -0.7162368218      0.1344439133      0.1153146995     -0.2405884899      0.1121331775
H       2.0753809860      2.3388123227      0.3459936863     -0.0164732618      0.0369583012      0.0600264664      0.2282754368
H       3.0631818202      1.0585927082     -0.3613285467      0.1821885731     -0.1889249032      0.1343010332      0.0991426498
H      -2.7664179279      1.6939537767      3.3636521227     -0.2793425718     -0.0440977604      0.2066148231      0.0226961216
H      -1.1315815802      2.3777855128      3.3107246340      0.2949175645      0.1799500902      0.2494725700      0.1505712459
H      -2.3463780711      2.8873465517      2.1217629988     -0.1724742709      0.2851761544     -0.1538466532      0.0094001665
H      -3.4997243048     -0.1949079536     -2.8811526788     -0.2572214952      0.0671616961     -0.2020870903      0.0512525165
H      -2.2301915915     -1.4290704772     -2.8871803787      0.0982274811     -0.2495224194     -0.2126511054      0.0345320300
H      -3.3146879051     -1.2787585796     -1.4935580955     -0.2119896788     -0.2026954895      0.1928324697      0.0420937402
H       3.3974480755     -2.9678998097      0.6191106639      0.2018740981     -0.2558463066     -0.0683871502      0.0437577542
H       3.5239553657     -1.4363269617      1.4995671191      0.2282512740      0.1900723604      0.1747208051      0.0539311670
H       2.2803145651     -2.6153121514      1.9474997107     -0.1026178218     -0.1507999427      0.2935058104      0.0415220778
H       3.6542895495      3.3439871351     -1.1640271372      0.2530744085      0.1951798497      0.0514097371      0.0618360252
H       3.1559421315      2.2989991748     -2.5053129211      0.1048226055     -0.0882260140     -0.3375503321      0.0209998861
H       2.0405972943      3.5223099208     -1.8636526900     -0.1868687398      0.2714113933     -0.0888018677      0.0295006129
C       1.5260211504      3.6377785615      4.2403507096      0.9828973638     -0.4915267886     -2.0420680433      0.9616611959
O       0.5565500504      2.9333400831      4.4506591750     -1.7969770556     -1.2540459480      0.4296976997     -0.8020879728
O       2.1327492735      4.5184962434      4.7925363916      1.1137988947      1.6609416712      1.0977311371     -0.7343203535
C       2.1667529876      3.2491624270      2.7055993993     -0.6101281414      0.3186763634      1.5216753867      1.1540275679
F       3.3990026749      3.6517217697      2.3672983121      0.9766469046      0.4227982341     -0.0821314317     -0.4644259363
F       1.3446925062      3.7228150810      1.7139836726     -0.6471368608      0.6613049752     -0.6916607879     -0.4971150955
F       2.1698985372      1.8847420577      2.5077691326      0.1978091207     -1.0517174548      0.1010459149     -0.5084442424
