18
Properties=species:S:1:pos:R:3:forces:R:3:charge:R:1 energy=-89.13343562856792 homo_lumo=1.1725345832755774 dipole="-1.7373591661099272 -1.5924432734923577 2.964170218560331" free_energy=-89.13343562856792
N      -0.0081579279     -0.0102302499      0.0171427766     -0.0892570233     -0.1349285109      0.0963128517     -0.6286159971
C      -0.9578894127     -1.0957367530      0.3462918928     -0.9569957861     -1.0562533382      0.3814071471      0.0539764084
C       0.6215141840      0.4902804907      1.2587726844      0.6449461619      0.5363975065      1.2790846740      0.0476855741
C      -0.7347047578      1.0946710050     -0.6463321719     -0.8548469142      1.3089391543     -0.6972858773      0.0503173114
C       1.0387808029     -0.5305798071     -0.8893872140      1.2659301955     -0.7009086093     -0.9697152018      0.0510141665
H      -0.4363901314     -1.9449433816      0.8420689701      0.0010679612      0.4615155565     -0.2330534744      0.1012866360
H      -1.7535181715     -0.7339458361      1.0354219764      0.3840376088      0.0756234666     -0.2851876233      0.0970736046
H      -1.4500864400     -1.4851755627     -0.5730080441      0.3566662072      0.3321533128      0.2548625238      0.1135437032
H       1.3329569436      1.3178065593      1.0382708472     -0.3537039113     -0.3877815992     -0.2038453826      0.1251129680
H      -0.1450994939      0.8786006557      1.9660473361      0.1305439633     -0.2110145956     -0.4401528436      0.0986344691
H       1.1866402190     -0.3192159323      1.7724756962     -0.2889950957      0.1783235782     -0.3911179898      0.1027528221
H      -0.0435724015      1.9277953656     -0.9049994985      0.0466590345     -0.5069082187     -0.1052252693      0.1279764578
H      -1.2187399849      0.7457067856     -1.5859584749      0.4385669837     -0.0046380095      0.3806448186      0.1156882388
H      -1.5308406729      1.5012929722      0.0170555701      0.3583203652     -0.3736058367     -0.0164699909      0.0834603519
H       1.8045087048      0.2480451316     -1.1008732447     -0.4293796510      0.0835769962     -0.2518002469      0.1274092440
H       1.5585413454     -1.4045432556     -0.4365579239     -0.4051930908      0.3160519726      0.1224669179      0.0783484250
H       0.6015400675     -0.8562230079     -1.8597351066      0.0775574762      0.3949829057      0.4158852951      0.1156430434
Cl      2.0833226828      1.9276763313     -3.5792518620     -0.3259244851     -0.3115257313      0.6631896720     -0.8613074274
