18
Properties=species:S:1:pos:R:3:forces:R:3:charge:R:1 energy=-90.24989271682269 homo_lumo=3.6514867470330175 dipole="-1.1140077909045607 -1.8480932046866039 0.7178607776244419" free_energy=-90.24989271682269
N      -0.0641646290      0.0614467003     -0.0642051614     -0.1012803015     -0.1754447692      0.0815498755     -0.6125192863
C      -0.7909794936     -1.1443858478      0.4063831878      0.0128093065      0.0027176583      0.0015657435      0.1173069100
C       0.6007107512      0.7292033458      1.0900947194      0.0444464514     -0.0510143387      0.3534220047      0.0913207646
C      -1.0205852842      1.0124021545     -0.6946544793     -0.3523983281      0.0475254772     -0.0948294509      0.0913285472
C       0.9670557947     -0.3296992660     -1.0645930762      0.1624874384     -0.3108628815     -0.1506503075      0.0916181872
H      -0.0816606765     -1.8279564296      0.8696073795      0.2100838817     -0.1806653223      0.1258348817      0.0749213067
H      -1.5445492590     -0.8437922620      1.1321624865     -0.2089267600      0.0995548768      0.2061098184      0.0749777656
H      -1.2679584825     -1.6259993961     -0.4453315476     -0.1346838602     -0.1277412433     -0.2563845763      0.0746037842
H       1.1203726191      1.6123166903      0.7059920704      0.2068401302      0.4037595823     -0.3224411524      0.1406198060
H      -0.1584730826      1.0149168572      1.8153871929     -0.2861446625      0.0264080656      0.1996843898      0.0487267311
H       1.3085363153      0.0350313418      1.5388764574      0.1620205055     -0.2820538490      0.1078902523      0.0489139523
H      -0.4457643466      1.8824426770     -1.0275178333      0.3913445857      0.3688610818     -0.1044892393      0.1407827096
H      -1.4975835563      0.5239391185     -1.5421019015     -0.1379811087     -0.2376912528     -0.2205738371      0.0487949768
H      -1.7669301728      1.3042682536      0.0416357976     -0.2127913434      0.0103821423      0.2694090599      0.0488634124
H       1.4797924130      0.5826088438     -1.3841775977      0.1618989445      0.5303121883     -0.0666517861      0.1404730836
H       1.6690929672     -1.0175575799     -0.5967320387      0.1409527229     -0.2296599097      0.1959855248      0.0489460358
H       0.4765045456     -0.8095201637     -1.9089788250     -0.2272127394     -0.1743210493     -0.2111203010      0.0486343886
Cl      1.5919524886      2.8069774323     -1.1289913043      0.1685351369      0.2799335431     -0.1143108999     -0.7183130756
