26
Properties=species:S:1:pos:R:3:forces:R:3:charge:R:1 energy=-144.40326322013416 homo_lumo=0.07408306636264689 dipole="-0.19517091530485473 -2.9799639640766884 1.624713092803076" free_energy=-144.40326322013416
N      -0.7077931293     -0.8946356015      0.3832209187      0.4844935000      0.3634244608      0.7522854951     -0.5145933188
N       1.4926688756     -0.5763358041      0.3254100611     -0.5999748469     -0.0837265314      0.7759967954     -0.5056706069
C      -2.1151442524     -0.7641931402      0.7590958615     -0.9098234691     -0.0216925366      0.0251456121     -0.0206023156
C      -2.8972549110      0.0262727314     -0.2974028749     -0.0357581099      0.3437572553     -0.0926681770     -0.2340083601
C       0.3437286472     -0.2854198625      0.9659412780     -0.0902504190      1.1951553971      1.2095979797      0.5562475186
C      -0.2065284303     -1.5971588636     -0.6526942525      0.8506843318     -0.7705662360     -1.3429587088      0.2312731461
C       2.8267149337     -0.0718487324      0.6407170003      0.8531819583      0.5162997557      0.0672911968     -0.0746000001
C       1.1579372182     -1.3973641808     -0.6901499897     -0.7015574416     -0.9610934610     -1.2048561332      0.2461771327
C      -2.3444222346      1.4396926183     -0.4773830217      0.0729670045     -0.1368079394     -0.0956627845     -0.1059857641
C       3.1935608892      1.0757741636     -0.2923637213     -0.0008730883      0.1968555944     -0.0883403408     -0.1032338998
H      -2.2034089972     -0.2502929534      1.7415312745      0.3578685430     -0.1806769809     -0.3208418499      0.1172075374
H      -2.5610334266     -1.7763307305      0.8699050357      0.3730886628      0.1557107293      0.0325359720      0.1192552351
H      -2.8652342589     -0.5100059583     -1.2705225148     -0.0880729911      0.0201756316      0.2465581916      0.1067496834
H      -3.9596991439      0.0955677663      0.0213408831      0.2187610010     -0.3153763353     -0.0115649693      0.1024363302
H       0.2691726811      0.3833428785      1.8145732591      0.0019461590      0.0151507241     -0.0307043364      0.0946068500
H      -0.7893516412     -2.1975352485     -1.3386252809     -0.2105905151      0.0341387323      0.0757711766      0.0511721906
H       2.8580647111      0.2925525000      1.6905751344     -0.2697304699     -0.3550817272     -0.2670863717      0.1171972789
H       3.5697038705     -0.8924549571      0.5384412155     -0.4896531987     -0.0099934396      0.1155330203      0.1152257918
H       1.8508478336     -1.8114689597     -1.4107825059      0.2023677573      0.0922901264      0.0728829250      0.0525856231
H      -1.3071274731      1.4013825878     -0.8721168216     -0.2163829256      0.3960898147      0.0483637293      0.1115048628
H      -2.3487590269      1.9825768112      0.4921526220      0.0524375165     -0.0447302784     -0.3327125756      0.0327251451
H      -2.9735435428      1.9968169086     -1.2029854640      0.3545907515     -0.0624587892      0.2338534258      0.0706945924
H       3.1356437923      0.7447842416     -1.3506175874     -0.0302855513      0.2913294566      0.2878138594      0.0756405071
H       4.2289500413      1.4154081171     -0.0785837876     -0.3042560268     -0.1406992397     -0.0531782117      0.0524639992
H       2.4968875909      1.9265302726     -0.1356338498      0.0974997256     -0.1069119797     -0.4066593249      0.1101845001
Cl      0.6112398475      3.5460964208     -1.8955887967      0.0273221420     -0.4305622036      0.3036044047     -0.8046536592
