54
Properties=species:S:1:pos:R:3:forces:R:3:charge:R:1 energy=-303.67397518875595 homo_lumo=3.2931721909907656 dipole="-1.1866697413339273 0.12584105837036727 -2.1925834531302706" free_energy=-303.67397518875595
N       3.0471717938      0.2044839128     -1.8035116654      0.1538609672      0.4576461888      0.0992166419     -0.5015619561
N       2.6458206025     -1.9089273767     -1.8050000844     -0.0704696141     -0.4532100071     -0.0586952194     -0.5065928111
C       1.9005663132      2.3085263925     -1.2060206201      0.1630093434     -0.5358099748      0.3386251504     -0.1581149490
C       3.2346077648      1.5649279508     -1.3082118641     -0.4067382213      0.4024629250     -0.0690443041     -0.0171526321
C       1.1775995715     -3.2675671367     -0.3527936565     -0.1178721282      0.2722417180     -0.6896350355     -0.2052481598
C       2.3680486745     -3.2569083630     -1.3098818222     -0.1475620888     -0.1377464665      0.4792435390      0.0036866223
C       0.9588624324      1.6766115935     -0.1764127119     -0.0884909435      0.6954990701     -0.3279444179     -0.2366429293
C      -0.0879128751     -2.6726479368     -0.9766863091      0.1273553534     -0.2722196328      0.7122677919     -0.1805738121
C      -0.2743031182      2.5502154550      0.0695363644      0.1407828895     -0.8165819018      0.3087985283     -0.1457587100
C      -1.2149509555     -2.5716046574      0.0555981882     -0.0612442392      0.2971567496     -0.8744514608     -0.1663449829
C       2.6451096418     -0.8147335000     -1.0502284380     -0.1399576164     -0.0945809519      0.2769820729      0.5714911643
C       3.3037222867     -0.2446289638     -3.0694969757      0.0993173694      0.0177769748     -0.3185978391      0.2036386118
C       3.0524958186     -1.5815323718     -3.0699580818      0.0405823623     -0.0749329956     -0.2992772582      0.2108311406
C      -1.2144521355      1.8894487629      1.0826001539     -0.1845259106      0.6047255794     -0.3206811404     -0.2474962103
C      -2.4670026453     -1.9318737831     -0.5523238138      0.0357820106     -0.2040505316      0.7159526262     -0.2127044284
C      -2.4668935059      2.7313558367      1.3174711209      0.2913240261     -0.3858584006      0.0433710904     -0.0489070705
C      -3.5796459391     -1.7901320277      0.4847763952      0.2105282126      0.0476362334     -0.4322220848     -0.0540917163
H       2.1287114195      3.3367839671     -0.9104322920      0.0554196750      0.2965580534      0.0597177041      0.0920378261
H       1.4188007152      2.3383386278     -2.1886904128     -0.1341614967      0.0794960553     -0.2895128657      0.0766022610
H       1.4466397934     -2.7197600331      0.5540377257      0.1346544961      0.0303440578      0.2557669614      0.1446028867
H       0.9964469331     -4.3076768586     -0.0679013166      0.0058502073     -0.2635512731      0.1547610171      0.0952508529
H       3.9077648084      2.0790877220     -1.9976713903      0.2100689705     -0.0170133233     -0.1649421687      0.0880314551
H       3.7080301257      1.4879649531     -0.3246240938      0.0937006417     -0.0821301778      0.1566231910      0.1833201662
H       3.2639342415     -3.5947081996     -0.7782630735      0.1893615115     -0.0299751933      0.0444619588      0.1503077261
H       2.1918110154     -3.8977730237     -2.1776006380     -0.0765174408     -0.0349063064     -0.2383135565      0.0922128619
H       1.4986069340      1.5250616122      0.7639276116      0.1304010007     -0.1042715725      0.2316635004      0.1283913804
H       0.6308486500      0.6959656259     -0.5381046865     -0.1307317336     -0.2235494819     -0.0217325383      0.1424051836
H      -0.4099540460     -3.2932725077     -1.8202201364     -0.1129702714     -0.1123230935     -0.2823705748      0.0652049308
H       0.1301253175     -1.6717378990     -1.3659159258     -0.0353213091      0.2283444129     -0.1384659631      0.1253098788
H       0.0395331908      3.5297791005      0.4451348022      0.0679987289      0.2890985071      0.0735247762      0.0769434202
H      -0.8050002431      2.7083988000     -0.8760681841     -0.1697221119      0.1052111452     -0.2508752409      0.0714653285
H      -0.8730087790     -1.9685483280      0.9033986356      0.0881109904      0.1285114818      0.2701872448      0.1030794585
H      -1.4576090959     -3.5706803109      0.4320840765     -0.0607659662     -0.2578261073      0.1690768855      0.0818707300
H       2.4076880010     -0.7605797532     -0.0032336237      0.0759369588      0.0823324912      0.2436915871      0.1932141581
H       3.6472311410      0.4088453973     -3.8520908226      0.0918636228      0.1545605808     -0.1676183214      0.0286991542
H       3.1340929542     -2.3142830554     -3.8534450359      0.0260232352     -0.1774903013     -0.1674966856      0.0286388826
H      -1.5063052931      0.9000889765      0.7136377431     -0.0233186536     -0.2766149268     -0.0658839212      0.1510845339
H      -0.6853262839      1.7485269615      2.0305093767      0.1756164243     -0.1161092276      0.2285553103      0.0796530062
H      -2.8215593084     -2.5453042049     -1.3876703440     -0.0533093119     -0.1138365654     -0.2771064071      0.0748037317
H      -2.2123709902     -0.9426772173     -0.9489794489      0.0837874791      0.2290363790     -0.1665455222      0.0937009461
H      -2.1990200955      3.7159275947      1.7029935138      0.0292284369      0.3196294956      0.1202083268      0.0271564727
H      -3.0206795385      2.8619890158      0.3865100806     -0.2091201011      0.0718118577     -0.2631574250      0.0214379973
H      -3.1164613764      2.2395779827      2.0417902376     -0.3010278942     -0.0525256503      0.2237662596      0.0347688863
H      -4.4574150571     -1.3295283148      0.0311225429     -0.3550105131      0.1434465700     -0.0273269171      0.0257183758
H      -3.2493480185     -1.1648982884      1.3153256241      0.0610275323      0.1846024313      0.2873101578      0.0447882732
H      -3.8629828360     -2.7673978943      0.8775978265     -0.1182198351     -0.2780177618      0.1629418790      0.0284074013
S       4.3434803442     -1.0227198039      1.7380375701      0.2621006485     -0.1100889985     -0.0267518040      1.7782579310
O       3.8052642883     -2.1954557915      1.0524047295     -0.3409169191     -1.0057037585     -0.5940491171     -0.8284744934
O       4.7412681690     -1.2251220989      3.1018321480      0.5974917100     -0.1841995721      1.4296763190     -0.7564139646
O       3.5738949183      0.1927698243      1.4754792141     -0.7077001561      1.1809684176     -0.2652519743     -0.8350725805
C       5.9087228422     -0.6967949014      0.7929975279     -0.9995585724     -0.1539372755      0.4095843019      1.1465384966
F       5.5822132721     -0.3986957094     -0.4800711223     -0.1490791481      0.2860480602     -1.3451007993     -0.4742904079
F       6.7102473000     -1.7522955603      0.7618479250      0.8505664576     -1.1318441589      0.0451759952     -0.4437081242
F       6.5844855645      0.3347640831      1.2805742662      0.7025609344      1.0957601526      0.6018997458     -0.4444021939
