40
Properties=species:S:1:pos:R:3:forces:R:3:charge:R:1 energy=-222.99613530659968 homo_lumo=3.7041087664846346 dipole="-2.7531045291552827 0.8155936765675121 -0.7806374947098084" free_energy=-222.99613530659968
N      -0.1022602083     -0.1960598654     -0.0368614002      0.0707622471      0.1209412267     -0.2355595538     -0.4974607233
C      -1.0907731553     -0.6183775408     -1.0745738535     -0.5100417436     -0.1487976047      0.0095643706      0.0309715404
C      -0.8227296261      0.9098451641      0.6667711063     -0.3872924118      0.1142076440      0.1622402010      0.0129019241
C       1.1722853307      0.2801295760     -0.6862164003      0.3567715787      0.3394265555      0.1889323356     -0.0250540660
C      -2.4308396703     -0.6191593688     -0.3490043097      0.1297486731     -0.0064590896     -0.0795218452     -0.1394679406
C      -2.2861232929      0.4672865036      0.7296554215      0.0790069569     -0.0092107165      0.0098685264     -0.1285669078
C       0.1768520103     -1.3046310192      0.9548144245     -0.0059677096     -0.5556712873      0.0065294400     -0.0941097630
C       2.0075346415      1.2119625676      0.1884099889      0.0224512305     -0.2839265409     -0.5087134834     -0.2202643605
C       0.4316752077     -2.6670015288      0.3330565886     -0.3282013542      0.4455582340     -0.0239115378     -0.0878138338
C       3.3646731584      1.4557052092     -0.4871687786     -0.1481467420      0.1309238255      0.4839358723     -0.2104518090
C       4.3012727751      2.2270402430      0.4394556885     -0.2209073760     -0.1700088040     -0.3306468676     -0.0561507951
H      -0.8079949034     -1.5805022239     -1.4965770793      0.1544412870     -0.1862680225     -0.1255080570      0.1361952581
H      -1.0831553112      0.1355901669     -1.8653296877      0.0943126749      0.2131714270     -0.1318105541      0.1162378548
H      -0.3751291187      1.0703032568      1.6469280461      0.2150218004      0.0725827283      0.1642455341      0.1318019752
H      -0.7173863577      1.8144829578      0.0643070466      0.1116759802      0.1520719982     -0.1587060927      0.1286312420
H       1.7501870256     -0.6141166253     -0.9319068935      0.2096691510     -0.2188614366      0.0786252801      0.2040749685
H       0.8931130913      0.7924365551     -1.6113097336     -0.2071045394      0.1235568055     -0.2089144451      0.0890214521
H      -3.2417728642     -0.3963920367     -1.0438541628     -0.2178284359     -0.0506895247     -0.1826684474      0.0864527004
H      -2.6265973646     -1.5928136913      0.1044156824     -0.0738072951     -0.2515953796      0.0686841048      0.0984490098
H      -2.5361891139      0.0725308767      1.7158344221     -0.1124802235     -0.0368918739      0.2315465093      0.0826671635
H      -2.9408537451      1.3172048327      0.5292938286     -0.1559085507      0.2142353840      0.0426370014      0.0947649041
H       1.0611298963     -1.0027073323      1.5275342537      0.3878558188      0.0840370337      0.1182891851      0.2258117501
H      -0.6794626123     -1.3576974035      1.6301489676     -0.2680347673      0.0874271562      0.1286839722      0.1131210433
H       1.4942109075      2.1689616601      0.3270412227     -0.1098908347      0.2867417096      0.0310144420      0.0750146459
H       2.1705607888      0.7658489744      1.1716587401      0.1244500441     -0.2011210441      0.2419299290      0.1645854461
H       0.8513519804     -3.2982917034      1.1158109633      0.1950604125     -0.1852199131      0.1866106876      0.0826402918
H       1.1664683289     -2.6104564188     -0.4665872906      0.3604476040     -0.0396773156     -0.0961228889      0.0763284932
H      -0.4829695798     -3.1334873329     -0.0335198687     -0.3456156144     -0.1883251471     -0.0613470881      0.0190018099
H       3.8203246599      0.4946320478     -0.7411967371      0.0458474858     -0.2307386893     -0.0836585288      0.1492619075
H       3.2135292331      2.0149031101     -1.4172826310     -0.0332710704      0.1344757438     -0.2929427576      0.0548535660
H       4.4859995117      1.6557655996      1.3494612772      0.0854982894     -0.1530989651      0.2709526050      0.0710767480
H       3.8687201218      3.1912377777      0.7122160769     -0.0980578719      0.3257438342      0.1144925987      0.0105264736
H       5.2529284984      2.4011736579     -0.0616722585      0.3462630921      0.0919820695     -0.0604965253      0.0288781314
C       3.6286440371     -1.4469416156      1.1474171255      1.5586981690      0.0519140020      0.0338612269      0.8996532785
O       2.9763229375     -1.0918329935      2.1303059836     -0.8350313971      0.4380399898      1.5447859824     -0.8131494494
O       3.2630580043     -1.7963403064      0.0225042191     -0.2235447979     -0.5642024059     -1.4975164281     -0.8230995880
C       5.2219465185     -1.3845848423      1.3319345419     -1.3330065656      0.1497244987     -0.1764664382      1.3132515463
F       5.8165741762     -0.9070967261      0.2202865298      0.4743653569      0.3585246511     -0.9074817709     -0.4698858090
F       5.7652249436     -2.5882389119      1.5811846537      0.3205543192     -1.0773456503      0.2008392202     -0.4636408262
F       5.5852345414     -0.5710738284      2.3376437679      0.2712371296      0.6228228938      0.8437242855     -0.4670592530
