45
Properties=species:S:1:pos:R:3:forces:R:3:charge:R:1 energy=-243.40576937965767 homo_lumo=3.3540538050408033 dipole="-5.912204314234912 0.11833460336741346 0.7581625963204737" free_energy=-243.40576937965767
N       2.0132497099      0.4266667130      0.0885276576     -0.3041128231      0.5521260924     -0.0259269068     -0.5501991584
C       2.2493328713     -0.8911817831      0.7390011662     -0.1114677950     -2.1585443631      1.1055395811     -0.0137156195
C       3.1298204945      0.5975253608     -0.8907914562      1.8170578306      0.7459657039     -1.7351002347     -0.0052646586
C       0.7067253107      0.4527996236     -0.6390255271     -1.6342100140      0.0083918296     -0.3310820994     -0.0308462678
C       3.6883546839     -1.2848685070      0.4731254667      0.5271383674      0.0227774987      0.6831437496     -0.1556894608
C       3.9875982431     -0.6577025225     -0.8616711498      0.2472225950     -0.4052625322     -0.6803492358     -0.1677658767
C       2.0731098135      1.5159246162      1.0977357886      0.0405530369      0.9838409793      1.0763094534      0.0074678293
C      -0.5395754664      0.2728193254      0.2601807325      0.3806078155      0.0889334550     -0.1339793681     -0.2051419881
C      -1.8036418762      0.1100294734     -0.5949923100      0.1653842663      0.0044781192      0.1906920393     -0.1676151226
C      -3.0483543427     -0.0862024665      0.2790649738      0.0191874837      0.0361280043     -0.4487259134     -0.1698050317
C      -4.3099428185     -0.2061275874     -0.5854098299     -0.0500381270     -0.0156187748      0.2450292821     -0.2097230349
C      -5.5554915450     -0.4008150956      0.2736532672     -0.2417739437     -0.0302047714     -0.1139386735     -0.0859964659
H       1.6036239398     -1.6871915822      0.3012835659     -0.0652641240      0.6914018683     -0.0633858917      0.1449705389
H       2.0496401931     -0.8790034415      1.8351132932     -0.1972550253      0.3304659947     -0.5402614379      0.1374548392
H       3.7822753478      1.4688062834     -0.6474106806     -0.6050031382     -0.2201048994      0.2721827949      0.1653304411
H       2.7770834321      0.7724290811     -1.9337045372     -0.3043881117      0.0458867112      0.6488027566      0.1425803621
H       0.6997310565     -0.3486550868     -1.4142510920      0.3627432387      0.2031691392      0.3814184691      0.1485129420
H       0.5978796006      1.4189026126     -1.1837965176      0.3758096483     -0.2612477172      0.2747638497      0.1485656132
H       3.8184487998     -2.3887444333      0.4442871981     -0.0006330988      0.4395347222      0.2579703952      0.1122862348
H       4.3499343914     -0.8485929325      1.2533300237     -0.0533398572     -0.2878817637     -0.2038333554      0.1376279309
H       5.0691060201     -0.4260176750     -0.9712906478     -0.3547817569     -0.0761289453     -0.1743082563      0.1892908630
H       3.6721155609     -1.3468958600     -1.6765081468      0.2221821327      0.2190570622      0.1596154919      0.0933389978
H       1.3381228054      1.3593991067      1.9157712900      0.1384653742     -0.1333429044     -0.5010693284      0.1164045699
H       3.0764657007      1.5590120613      1.5786828108     -0.3020718082     -0.2203974358     -0.4334239764      0.1414983413
H       1.8701905153      2.5034193635      0.6266355595      0.1153774783     -0.5080485203     -0.0162913859      0.1155698036
H      -0.4263017594     -0.6188868654      0.9117569170     -0.0042596787      0.2105811273     -0.0881598417      0.1203561172
H      -0.6707629866      1.1678116929      0.9043192356      0.0626403812     -0.2664767881     -0.0500733319      0.1172693873
H      -1.6872198996     -0.7706204637     -1.2643616426     -0.0448537138      0.2460545325      0.0529002834      0.0975028939
H      -1.9357039366      1.0167079928     -1.2259237258      0.0064257691     -0.2630179621      0.0369861349      0.0989272109
H      -3.1560235529      0.7793855040      0.9690783222      0.0175716334     -0.2393450021     -0.0609400044      0.0931590583
H      -2.9286599938     -1.0103507349      0.8864160660     -0.0460392141      0.2491441761     -0.0304294158      0.0926736508
H      -4.4356504291      0.7155152453     -1.1944921096      0.1266382460     -0.2452094472      0.0268130208      0.0926105788
H      -4.2108809449     -1.0723673309     -1.2753494072      0.0542638698      0.2638810102      0.0504271936      0.0928292705
H      -5.6919035016      0.4630868147      0.9586179781     -0.0350722737     -0.2995346381     -0.1243475167      0.0426727267
H      -6.4489446735     -0.4780496744     -0.3816273179      0.1442672429      0.0000029953      0.3278035467      0.0530491185
H      -5.4715801387     -1.3339485465      0.8705004363     -0.1124911248      0.2953183581     -0.0924260637      0.0430940424
N       8.1374085506     -0.5677169667     -1.1487507105     -0.3241948712     -0.1377293771      0.1042557958     -0.8510302500
S       8.1396821296     -0.4932993772      0.4853374321      5.4048669565     -2.0221337091      0.8316220346      1.8229487807
S       8.4938077654      0.7440540441     -2.0585782252     -3.8551551995      1.7121786111     -1.3836135281      1.8418517015
F       6.8580294703      0.4530324233      0.9981148807     -0.2804923693     -0.1470564644     -0.0798226709     -0.4726023227
F      10.1198155493      1.1058725686     -1.8925885132     -0.7688448599     -0.3422599564     -0.0965035761     -0.4359956094
O       7.9987839135     -1.8774953313      1.0512071732     -1.5337613384      2.0727499011     -1.1432335363     -0.7186001887
O       9.4218397316      0.1252041848      0.9677951633     -2.5186141479      0.2587659839     -0.3996489171     -0.7110122678
O       7.6839067960      1.9230202257     -1.5969327531      1.8633590359     -0.9997337446      0.0659069933     -0.7422125210
O       8.1910866324      0.4527535803     -3.5006621914      1.6563560119     -0.4015541591      2.1586916006     -0.7166280000
