45
Properties=species:S:1:pos:R:3:forces:R:3:charge:R:1 energy=-245.6181778980273 homo_lumo=5.59132921261733 dipole="0.937834140622407 2.4550326064684653 1.0182546932511298" free_energy=-245.6181778980273
N       2.0361429048      0.1102187669     -0.0719466828     -0.1595306354      0.3325012365     -0.0781292802     -0.5319629644
C       2.2296796555     -1.0856940028      0.8109832098      0.3165606955     -0.3184034322      0.1829553844     -0.0339462750
C       3.1006780443     -0.0191151638     -1.1241332422      0.4269600011     -0.1167972700     -0.1615890679      0.0030926877
C       0.6837946057      0.1160758416     -0.7269799589     -0.5545472675     -0.0152810063      0.3891276267     -0.0451093400
C       3.7318341558     -1.3361372799      0.8406777520     -0.1302100614      0.1003208325      0.0506610933     -0.1314707541
C       4.2796337441     -0.7232277022     -0.4563024742     -0.0312937972      0.1052141858     -0.0304926653     -0.1477767888
C       2.2562147299      1.3583747062      0.7010321241      0.0131215358      0.0181424283      0.0839535583      0.0831269347
C      -0.4845987347      0.1148723994      0.2539432397      0.1701823460      0.1139093594     -0.5495927936     -0.2075389850
C      -1.7995573441      0.0600127765     -0.5350044841      0.1326550018     -0.0856607032      0.6600284426     -0.1625694388
C      -2.9796971063     -0.2583894999      0.3867925438     -0.0423169811      0.1115103387     -0.8522944732     -0.1568412253
C      -4.2706534872     -0.4266504460     -0.4199387857      0.0101284911     -0.0619982857      0.6974008104     -0.2006193508
C      -5.4564362001     -0.7420213074      0.4896760846      0.2212685112      0.1143253001     -0.3891954777     -0.0439171044
H       1.7055014863     -1.9220202533      0.3510907476     -0.0383219439     -0.0638450306     -0.0560783138      0.2477315654
H       1.8033938704     -0.8862289591      1.7937980955     -0.1972711991      0.0558730831      0.1744344022      0.0956119475
H       3.3440305822      0.9724635583     -1.5076510798     -0.0400255538      0.2690947431     -0.0925353774      0.0877120002
H       2.6973647578     -0.6268749919     -1.9345598438     -0.1336134632     -0.1718043699     -0.1346040325      0.1984294246
H       0.6348982469     -0.7858416375     -1.3468182243      0.0526994589     -0.1122356917     -0.1081275438      0.2224014490
H       0.6502118741      0.9954912722     -1.3759717607      0.0455609908      0.2301077994     -0.1804707810      0.1014615922
H       3.9199498241     -2.4100393794      0.8794046970     -0.0043037211     -0.2203976651      0.0739659455      0.1239560874
H       4.1912976687     -0.8701762080      1.7154157150      0.1212812955      0.0873029031      0.2339218963      0.0678261185
H       5.0876887851     -0.0206862325     -0.2427439796      0.2370218584      0.1289396100      0.0146913183      0.0718808001
H       4.6616984472     -1.4977544301     -1.1234572663      0.0800184510     -0.1330831315     -0.2042591130      0.1279692108
H       1.5544827693      1.3986817288      1.5310768412     -0.1765024049     -0.0009887933      0.1952919539      0.0928802377
H       3.2746910849      1.3620681394      1.0836331776      0.2977194860     -0.0111297370      0.1007032860      0.1059425658
H       2.1035983412      2.2140263769      0.0454464062     -0.0352071957      0.2156482726     -0.1965933351      0.0740277771
H      -0.4181372171     -0.7642055385      0.8991846457     -0.0279880975     -0.1975567448      0.1081857516      0.1420062748
H      -0.4696435138      1.0077175257      0.8858071104     -0.0594734461      0.2453392805      0.1845489118      0.0759992623
H      -1.7275381710     -0.7190858576     -1.2985808240     -0.0137934556     -0.1894611506     -0.1623124431      0.1504249701
H      -1.9632263263      1.0164378277     -1.0429350794     -0.0778107219      0.2694457571     -0.1598137961      0.0605083389
H      -3.1007416535      0.5426326483      1.1247620913     -0.0618771289      0.2045776115      0.2427704013      0.0655853917
H      -2.7701199450     -1.1869637398      0.9275424445      0.0593522198     -0.2560673371      0.1375194534      0.1018466047
H      -4.4743738340      0.4914444778     -0.9821440652     -0.0254540989      0.2303021103     -0.1951634176      0.0691164955
H      -4.1382317309     -1.2402600027     -1.1400388761      0.0893183052     -0.1643225706     -0.2104409990      0.1071235397
H      -5.6141831327      0.0635227497      1.2088343193     -0.0937420546      0.2198446267      0.2420345133      0.0184683579
H      -6.3624762936     -0.8589101119     -0.1052813928     -0.3651132174     -0.0635145940     -0.0812436276      0.0281436901
H      -5.2795669548     -1.6677516293      1.0386477362      0.0141442061     -0.2885395108      0.1880861100      0.0315865254
N       0.5078692422     -2.8988405216     -2.0148209395      0.0745987782      0.0193619218     -0.0625080877     -0.9103739130
S       2.0067782924     -3.4310142821     -2.0181863139      0.1257196990      0.0985486469     -0.4137277993      1.9805674555
S      -0.5124668714     -3.6385976390     -1.0399517707     -0.2810122873      0.4991053957     -0.0971342296      1.9621597914
F       1.9497605898     -4.8426028906     -2.7739874866     -0.1323011041     -0.6634398505     -0.3435621995     -0.4479051273
F      -0.0864032577     -3.0128543042      0.4322276659      0.1233103069      0.0790877514      0.6281163040     -0.4936072776
O       2.7503550175     -2.5728462622     -2.8939516695      0.6798483198      0.8182085925     -1.0076967075     -0.7693096505
O       2.5853879871     -3.7227128379     -0.7374349780      0.3369928103     -0.4709899030      1.2571123447     -0.7561557472
O      -0.3654826448     -5.0413864431     -0.8728857211      0.4590376569     -1.6777179787      0.1758849832     -0.7046401022
O      -1.8035326848     -3.0759132054     -1.2616141600     -1.4057905886      0.7165229696     -0.2538289298     -0.7538430521
