45
Properties=species:S:1:pos:R:3:forces:R:3:charge:R:1 energy=-245.45706774198104 homo_lumo=5.309125971063499 dipole="0.2514791306527663 1.5662163379315932 -2.55422318023372" free_energy=-245.45706774198104
N       2.5173618652      0.1261608314     -0.0415890877     -0.1912072164      0.2522082170     -0.2388411764     -0.5273342165
C       2.9912815208     -1.2863124892      0.1100957673      0.3932526643     -0.3427908506      0.1449557199     -0.0389072324
C       3.3874999730      0.6730629929     -1.1310015589      0.4540893660      0.0105218678     -0.1833954435      0.0231698206
C       1.0734550179      0.1910708039     -0.4468025124     -0.4580400660     -0.2296650548      0.4890362431      0.0110556228
C       4.5035489092     -1.2178857055     -0.0659848905     -0.0958685119      0.1001018777      0.0030972759     -0.1444677070
C       4.7625887894      0.0449635218     -0.9031786211     -0.1263593231      0.0921529539     -0.0502962609     -0.1362183227
C       2.7480825168      0.8945390849      1.2125038233     -0.0299058733      0.0331267481      0.1452445913      0.0379023458
C       0.1272798012     -0.3722687490      0.6099375344      0.0113252187      0.3125494427     -0.7143024417     -0.2341055801
C      -1.2898156111     -0.5193567536      0.0476350850      0.3149031022     -0.1383398123      0.6714699732     -0.1469860903
C      -2.2213954585     -1.0704201943      1.1327577148     -0.2867376109      0.1309154659     -0.8526472435     -0.1722854669
C      -3.6392255125     -1.2833994340      0.5959185520      0.2009684195     -0.1135520699      0.6534229826     -0.1928535954
C      -4.5616818516     -1.8349485258      1.6816697466      0.1063171705      0.1484165625     -0.4508743180     -0.0443005829
H       2.5225869358     -1.8805206199     -0.6769495529     -0.1968359736     -0.0519528444     -0.2202493245      0.1001783013
H       2.6919764148     -1.6648578413      1.0851035555     -0.1082755816      0.0467177685     -0.0293230132      0.2454955188
H       3.3864696977      1.7625581720     -1.0825649049     -0.0984152776      0.2688857626     -0.0127807567      0.1058817687
H       2.9640932572      0.3546762455     -2.0863892581     -0.1834346905     -0.1049939151     -0.1626814440      0.1204612205
H       0.9830817322     -0.3748532022     -1.3784972476      0.0767141284     -0.1265538533     -0.2298915848      0.1110634110
H       0.8468844393      1.2410245915     -0.6526517729     -0.0144783723      0.2699509973     -0.0863682141      0.1127274814
H       4.8625541792     -2.1166435102     -0.5690133978      0.0908076802     -0.2484305037      0.0044855239      0.0976690388
H       4.9988860483     -1.1565292820      0.9045303192      0.0671160141     -0.1156668227      0.1911025103      0.1293393916
H       5.4214130309      0.7351765515     -0.3728622171      0.2025334571      0.1603321125      0.0582620050      0.0827144523
H       5.2250466209     -0.1951065086     -1.8619269737      0.1508079489      0.0450621143     -0.2345333684      0.0951258593
H       2.2477863565      0.3977726666      2.0401649684     -0.0435065912     -0.0535331061      0.1816662572      0.2123949162
H       3.8158774807      0.9326763871      1.4131321018      0.2921170386     -0.0393354912      0.0617921552      0.1036166493
H       2.3563208738      1.9019620333      1.0852623159     -0.1108293001      0.2832805107     -0.1291185209      0.0550250934
H       0.4769309330     -1.3517760372      0.9419216640      0.0608547278     -0.2373573545      0.1215626584      0.1563995517
H       0.0978805101      0.2896997210      1.4773609609      0.0124387776      0.0514855384      0.2547478902      0.1485123974
H      -1.2757273302     -1.1993884926     -0.8114432478     -0.0450095810     -0.1743957856     -0.2621919485      0.0663394074
H      -1.6538790695      0.4539827464     -0.2994416062     -0.1505754541      0.2531522195     -0.1418604089      0.0656274594
H      -2.2473435471     -0.3705866419      1.9739341696      0.0334886625      0.1259522813      0.2806508594      0.0998131363
H      -1.8204805003     -2.0186865333      1.5039746850      0.1177589883     -0.1868415362      0.1720408892      0.1263349679
H      -4.0376402920     -0.3318050521      0.2264222455     -0.0966601185      0.2370158880     -0.1682129098      0.0711247955
H      -3.6092848268     -1.9827279087     -0.2469680430      0.0123169156     -0.1354664624     -0.2707837010      0.0732172975
H      -4.6176130637     -1.1424842341      2.5224781529     -0.0380673350      0.1714265108      0.2925423028      0.0306985988
H      -5.5658096901     -1.9795451596      1.2822170307     -0.3594172175     -0.0928824437     -0.0116378706      0.0257587820
H      -4.1902040420     -2.7932858587      2.0461856832      0.0874697435     -0.2912785399      0.1573502720      0.0347482156
N       2.6040251227     -1.4619426983      3.3360347269     -0.0578390228      0.0133226275      0.0391669909     -0.9299860077
S       3.2618605709     -2.9086915784      3.2484191569      0.5112322249      0.2873900324     -0.2182511930      1.9548825114
S       1.0908425702     -1.3607391970      3.8216538607      0.0182779274      0.4616624370      0.2051102311      1.9801132652
F       2.4161211103     -3.6232767130      2.0421583361     -0.4377075571     -0.4055251000     -0.5347586158     -0.4754219926
F       1.1324776941     -1.6846325866      5.3916110534      0.1177534307     -0.2054309712      0.7624469868     -0.4509348554
O       4.5597050538     -2.7263731067      2.6731148065      1.3096952568      0.2124135829     -0.6582134552     -0.7631488871
O       3.0993524520     -3.7746144324      4.3627694520     -0.4742180863     -0.9378167264      1.3558132870     -0.7068571583
O       0.1797087371     -2.3118551247      3.2660707566     -0.7827379529     -1.2037859990     -0.4390525187     -0.7384882405
O       0.7441278671      0.0291709319      3.7409120928     -0.2561121500      1.4675517240      0.0542981267     -0.7750953422
