41
Properties=species:S:1:pos:R:3:forces:R:3:charge:R:1 energy=-227.04375936092669 homo_lumo=0.06800934330031537 dipole="2.260795757314249 0.04345265049436923 -3.0337280233812045" free_energy=-227.04375936092669
N       1.4108083430      2.2496800303     -0.0848842285     -0.3659803531     -0.0561194754     -0.7739459870     -0.5070104490
N      -0.7927822822      2.4471154484     -0.3195842682      0.5143841523      0.0160161288     -0.1444654022     -0.5119424373
C       2.7787513532      1.7933102484     -0.3243586306      0.7433803481     -0.1733949510      0.0308369460     -0.0180513932
C      -2.1422465784      2.2633791460     -0.8539643499     -0.7120809882     -0.1222725227     -0.7490994757     -0.0173601680
C       3.0243763529      0.4249203523      0.3290819227     -0.2749394622     -0.0760128546     -0.1565185569     -0.1911427465
C      -2.4297588018      0.7792924722     -1.1287111153      0.0776549293     -0.0635549437      0.3602199898     -0.1980564046
C       2.0958878475     -0.6598962866     -0.2401224035      0.2622652267      0.0761296866      0.3665803252     -0.2238927578
C      -2.3844149988     -0.0633311235      0.1549459851     -0.0909460229     -0.0638692705     -0.4274907355     -0.2101315085
C       0.3657985211      2.1200394996     -0.9253530206      0.0858223436     -0.8125792982     -1.8768918719      0.5138900072
C       0.8986396880      2.6820217438      1.0848305357     -0.8218252810      0.5025704985      1.4562091383      0.2088640523
C      -0.4666618776      2.8121402306      0.9369225775      0.5378221414      0.3337524291      1.6656868170      0.2632784842
C       2.4447562777     -2.0427803561      0.3195638235     -0.1776409062     -0.0439025893     -0.1309767481     -0.2077549669
C      -2.6049300067     -1.5477281061     -0.1544926723      0.0617762321      0.0619609581      0.1875855488     -0.2154428962
C       1.4821149007     -3.1049674186     -0.2055091362     -0.0117590750     -0.2131143547      0.0854905040     -0.1188881016
C      -2.5524217067     -2.3899165103      1.1169129060     -0.0678078370     -0.2862582627     -0.0086686987     -0.1005201418
H       3.4920540452      2.5368040578      0.0930351375     -0.3930131653     -0.0284414535     -0.1426283868      0.1251759651
H       2.9710180847      1.7229127321     -1.4174213116     -0.3036266809      0.1577333343      0.3220020000      0.1129824707
H      -2.2404925302      2.8378006631     -1.8002222359      0.1728044331      0.0093090329      0.3038853182      0.1124118786
H      -2.8958184860      2.6598619603     -0.1386178844      0.5884746885     -0.0411000576      0.0098301748      0.1417542998
H       2.8737029682      0.5069900740      1.4277911585      0.1026424280     -0.0358851142     -0.2469634871      0.1215602046
H       4.0832016934      0.1372993293      0.1485195629     -0.2201215530      0.1666081260      0.0740693082      0.1066297756
H      -3.4393057596      0.6928884325     -1.5867009749      0.2761124216      0.1234279783      0.0168444607      0.1040143330
H      -1.6912600152      0.3897722908     -1.8625320484     -0.1845396094      0.0545703459      0.0404111294      0.0905329048
H       2.1836303632     -0.6791103212     -1.3487425118     -0.0935844231      0.0102042737      0.1698083143      0.0756417094
H       1.0440079415     -0.4218684931      0.0279174124      0.1774488783     -0.0615457401     -0.1467661588      0.1737223448
H      -3.1714854020      0.2932683015      0.8549984530      0.3866801739     -0.0091362526      0.0707121579      0.1330646125
H      -1.3951166862      0.0554454752      0.6475942683     -0.3165248739      0.0465769615      0.0771612537      0.1483401921
H       0.4375452625      1.7174239123     -1.9280655197      0.0344237627      0.0477431921      0.0038467075      0.0829702171
H       1.4672922526      2.8338536669      1.9932491616      0.1708053249      0.0291396513     -0.0479481359      0.0558832311
H      -1.1744177112      3.0866042207      1.7083493006     -0.4416793322     -0.1193484431      0.2281927455      0.0703603177
H       2.3875306839     -2.0238530538      1.4296618377      0.1401496152      0.0573303174     -0.2349687991      0.1004781812
H       3.4807700660     -2.3160667224      0.0230305832     -0.1546636296      0.1325566031      0.1827043697      0.0833066798
H      -3.5956048743     -1.6874997425     -0.6399214982      0.2599285030      0.0410293080     -0.0391257949      0.0773693688
H      -1.8164589386     -1.9040655970     -0.8530020142     -0.2185980900      0.0918779119     -0.0278271949      0.0846628445
H       1.5174025100     -3.1457109670     -1.3150780420     -0.0927010334     -0.0503524958      0.2851186160      0.0285944876
H       0.4446825864     -2.8783714337      0.1188101116      0.2414288927     -0.1297269342     -0.1530782487      0.1072546412
H       1.7687561967     -4.0994142361      0.1962937965     -0.2098003164      0.1976237544     -0.1884014493      0.0451852363
H      -3.3604614112     -2.0850886192      1.8153406365      0.3563398738     -0.0847103816     -0.0754209790      0.0725088528
H      -1.5691424691     -2.2707334158      1.6202341798     -0.3478110009     -0.0311957703     -0.0094423649      0.0525369171
H      -2.6903002523     -3.4608115044      0.8585954373      0.0485089580      0.2226083455      0.1995835907      0.0340242930
Cl     -2.7490585579      1.6123952886      3.9900212707      0.2607903066      0.1237523285     -0.5561509403     -0.8068045319
