41
Properties=species:S:1:pos:R:3:forces:R:3:charge:R:1 energy=-228.01984374809035 homo_lumo=1.4910153705337668 dipole="2.704599433427464 -0.3910338028726782 -1.3151044001970613" free_energy=-228.01984374809035
N       1.2062515925      2.2275104391      0.0708885372      0.5891169823      0.0821144378     -0.1985268318     -0.5070693788
N      -0.9097952082      2.2732829609     -0.3224031324     -0.4108714589      0.0955605784     -0.1562799941     -0.5040535888
C       2.6250846494      1.9388898846     -0.0789243770      0.0653224750     -0.4240055278      0.3220936076      0.0088108404
C      -2.1995163582      2.0932183563     -0.9880810562     -0.0382332058     -0.3861361263     -0.6155250860     -0.0084521744
C       2.9356885781      0.5474997901      0.4847984603     -0.3305446765      0.0892910251     -0.6006064709     -0.1731288840
C      -2.4233559215      0.6110002659     -1.2978232876      0.1324772132      0.2596778401      0.6682993017     -0.1736598293
C       2.1672091334     -0.5579238400     -0.2452315529      0.4412695156     -0.0259968277      0.6667774688     -0.2173701641
C      -2.3631636793     -0.2496429098     -0.0322349427     -0.2505686434     -0.3758422110     -0.7732599950     -0.2093465024
C       0.2790591886      2.0518278168     -0.8759080090      0.1722980845      0.0584899954     -0.1710748373      0.5584028157
C       0.5839830538      2.5489920422      1.2509988875      0.1133955277     -0.0027385925     -0.0024320405      0.1763412110
C      -0.7504140448      2.5809801133      0.9981422225      0.1681339345      0.1585795208      0.3184719267      0.2444827401
C       2.4836118321     -1.9372679334      0.3413624598     -0.4473713974      0.1070735600     -0.5431049498     -0.1993845895
C      -2.7130544076     -1.7083147717     -0.3368963239      0.3282222467      0.2435564091      0.5744901623     -0.2007546986
C       1.6793229234     -3.0302571927     -0.3591952122      0.2683410757      0.2082005516      0.3121307234     -0.0758027074
C      -2.6182233788     -2.5684985834      0.9219519166     -0.0792949207      0.0856200154     -0.4729374754     -0.0542606207
H       3.1892457175      2.7032841602      0.4619675616      0.0839910190      0.2628333465      0.0179023904      0.1098966051
H       2.8741356287      1.9946624983     -1.1421654707      0.0500999142      0.0639625069     -0.1998026690      0.1014279328
H      -2.1987715580      2.6873730457     -1.9058279899      0.0753949252      0.2193537670     -0.1876021247      0.0731052140
H      -2.9680826042      2.4557451533     -0.2957544739     -0.2218103945      0.1151651823      0.4139596650      0.1662846420
H       2.6844544790      0.5303790672      1.5494508662     -0.0155261796     -0.0129685622      0.3092127299      0.1099600906
H       4.0120563564      0.3795139575      0.3878727117      0.3137324281     -0.0445595949      0.0329758761      0.0932682628
H      -3.4107606447      0.5217723626     -1.7594430396     -0.2638562898     -0.0217525409     -0.1664345622      0.0926351078
H      -1.6770055857      0.2688131710     -2.0246039181      0.1565610329     -0.1712925913     -0.2858325285      0.0608206744
H       2.4252737462     -0.5405298347     -1.3098897726      0.0427392218     -0.0132763832     -0.3398171371      0.0690285737
H       1.0916028495     -0.3704937468     -0.1590780947     -0.2702803987     -0.0247316325      0.0076221073      0.1781995283
H      -3.0575252656      0.1548364757      0.7107926898     -0.1046655066      0.2527915839      0.2665442277      0.1557326225
H      -1.3532993908     -0.2005227904      0.3917881586      0.2426421415     -0.0158350041      0.1969821324      0.1145816448
H       0.4701295853      1.7983118693     -1.9042936053      0.0311409852     -0.0899112150     -0.1893295755      0.0805741731
H       1.1388215363      2.7310567837      2.1541064262      0.1356585714      0.0486102932      0.2419091234      0.0248069685
H      -1.6216440607      2.7514035299      1.6268071788     -0.7394887715      0.0065613061      0.2964327210      0.0943866037
H       2.2461635520     -1.9382121828      1.4102112588     -0.0035265028      0.0256762608      0.2979686066      0.0900688730
H       3.5539305731     -2.1424479639      0.2348799034      0.2906879047     -0.0264731384      0.0422853652      0.0776538766
H      -3.7298841554     -1.7629139076     -0.7391262502     -0.2501495361      0.0002506871     -0.1695345484      0.0771595353
H      -2.0292076335     -2.0996282193     -1.0998409841      0.1199376811     -0.1412606045     -0.2770654929      0.0692671614
H       1.9122637825     -3.0546396814     -1.4245610141      0.0370958997     -0.0521644325     -0.3445888317      0.0197429383
H       0.6099306308     -2.8512399509     -0.2414392369     -0.3418755921      0.0142689496      0.0126505768      0.0891124561
H       1.9182321918     -4.0021929704      0.0719446865     -0.0151972652     -0.3660741380      0.0503837662      0.0303048964
H      -3.3030149426     -2.1996223796      1.6859186242     -0.1774510461      0.1116229498      0.2787495087      0.0445823906
H      -1.6041206010     -2.5452774613      1.3250245763      0.2938541562     -0.0129347136      0.1761497932      0.0304151578
H      -2.8766678625     -3.6023028436      0.6910076151     -0.0551943443     -0.3785000931      0.0435007962      0.0185228351
Cl     -3.7128811830      2.3576518802      1.8533593878     -0.1362068062      0.0771931627      0.1462625742     -0.7362932340
