33
Properties=species:S:1:pos:R:3:forces:R:3:charge:R:1 energy=-188.0087438941024 homo_lumo=3.276049920224491 dipole="-0.9848898794513588 -1.201821308266243 -1.141884979034871" free_energy=-188.0087438941024
H       3.3372651924      0.8355971952     -2.0916397034      0.1342481398      0.1140257231      0.1524941922      0.0980413596
H       2.0908222549      1.6860187377     -3.0224078014     -0.0242977454      0.1931808688     -0.0916991146      0.0686059265
H       2.6313720705      0.0579440992     -3.5408822282     -0.0874759885     -0.1601539692     -0.2549799563      0.0569864878
C       2.4340595651      0.7089947834     -2.6904180282      0.0941936247     -0.1209640384     -0.0128606550      0.1071324687
H      -0.0063862022     -2.1851192100     -0.0411304406     -0.0522626234     -0.1669911763      0.1438122158      0.0407370419
H       1.9962713539     -1.9498586787     -1.9392574085      0.1623946477     -0.1500341124     -0.0823831799      0.0299379058
H       0.3602876242      1.8563533772     -1.1769833617      0.0042025761      0.1879211116      0.0399667295      0.1021019913
N       1.4105634203      0.1099739562     -1.8513121098      0.3353027968      0.0641849137     -0.5012606941     -0.5293551827
C       0.5122586358      0.7913164839     -1.1454287668     -0.2189675886      0.1499923553     -0.2160090631      0.5862956854
N      -0.1416390333     -0.0703419835     -0.3716771473     -0.4640008395      0.0471985980      0.0945791561     -0.4858010164
C       0.3640702015     -1.3260623182     -0.5717019629      0.0001829041     -0.2302317558      0.0122277714      0.2189307709
C       1.3462177958     -1.2116494856     -1.5034584911      0.0231093547     -0.2209192576     -0.0014441415      0.2369014963
C      -1.0795212550      0.3135319778      0.6804114768      0.1541107620     -0.2241515228      0.3552384801      0.0033459964
H      -1.1664662787      1.4016725384      0.6416324019      0.0402012790      0.1547579802      0.0026772460      0.1309052229
H      -2.0534058408     -0.1377982566      0.4673913017     -0.2188935261     -0.0849084035     -0.1071134518      0.0934714327
C      -0.5355022167     -0.1285890417      2.0439917171     -0.3975504917      0.5320544075     -0.0187316302     -0.2166980897
H       0.5470122313      0.0203604323      2.0538438856      0.2603245701      0.0531607920     -0.0637130292      0.1993373810
H      -0.7361214292     -1.1938787640      2.1946913327     -0.0816967607     -0.3110044087      0.0876738014      0.0716856618
C      -1.1681105799      0.6983068383      3.1660598031      0.3017427872     -0.4985808579      0.0600051276     -0.2038564374
H      -0.9393314159      1.7546094551      2.9976220739      0.0661368675      0.2560251280     -0.1264214057      0.1127820927
H      -2.2569951059      0.5763963544      3.1491147467     -0.3200776862      0.0197306905      0.0033797993      0.0643979644
C      -0.6211468081      0.2748926773      4.5278338107     -0.2661274696      0.1790910738     -0.3280483718     -0.0447387096
H       0.4586459835      0.4210180250      4.5628864975      0.3398407016      0.0382680587      0.0316859834      0.0468622984
H      -0.8374701246     -0.7772144023      4.7197293464     -0.0438013833     -0.3192342197      0.1134862474      0.0183072049
H      -1.0795228040      0.8740603600      5.3145138037     -0.0847227553      0.1286120676      0.3225621670      0.0291917404
S       2.2945418728      1.9891870868      0.7962367891      0.2390971993      0.1237747395      0.1861991477      1.7825630947
O       2.7392823969      2.4891654892     -0.4981758098      0.5524989752      0.6770401971     -0.9412860650     -0.8180549037
O       2.5314707334      0.5677392292      0.9944231020      0.3914767365     -1.2702238537      0.3245236924     -0.8022092564
O       0.9522706526      2.4231974156      1.1646139585     -1.0907647513      0.6200570015      0.4876866458     -0.8196732912
C       3.3950699250      2.8217119765      2.0256521310     -0.6299766301     -0.4735767591     -0.6807671125      1.1569557009
F       3.2756111615      4.1409610737      1.9531933461     -0.1502598515      1.4610998023     -0.1031601699     -0.4421801567
F       4.6653497268      2.5026309493      1.8077863820      1.3983774443     -0.3505751674     -0.2668663988     -0.4440936428
F       3.0729958271      2.4391707757      3.2576595760     -0.3665652755     -0.4186260066      1.3785460363     -0.4488162386
