53
Properties=species:S:1:pos:R:3:forces:R:3:charge:R:1 energy=-293.51112150096384 homo_lumo=4.132183930820987 dipole="-1.0665573228666623 3.492476443583523 1.4091821858403346" free_energy=-293.51112150096384
N       3.1622472483      0.6781549382      0.4043373449      0.1582628642      0.4828670502      0.1864671244     -0.5030446174
N       2.8597421420     -1.3973067749      0.8949607090      0.0351064512     -0.4103604580      0.1490092751     -0.5136676366
C       1.7812075652      2.5611337625     -0.3163723895     -0.0276304363     -0.2811282991      0.6455948547     -0.1752651963
C       3.0444147263      2.1294473877      0.4383449473     -0.3748954033      0.1172097076     -0.3983443369      0.0049211182
C       0.8807125230     -2.5846728088      1.7201405986      0.3291663380      0.0391255846     -0.6254625120     -0.1831916092
C       2.4059337974     -2.5996442954      1.5930385176     -0.5194038155     -0.1219369412      0.3452644673     -0.0344915180
C       0.5041055695      2.0402563327      0.3493485627      0.1325881337      0.3350965887     -0.7109854960     -0.2124506337
C       0.1883051971     -2.4886756141      0.3572357781     -0.3901753151     -0.0882669733      0.7324342831     -0.2101662819
C      -0.7386677847      2.3828263259     -0.4777261718     -0.0038389961     -0.4441698561      0.7764509726     -0.1595219803
C      -1.3336766030     -2.4374315449      0.5108326439      0.4601206196      0.1425582521     -0.7388379295     -0.1653791391
C       2.7210445723     -0.1546914852      1.3513044944      0.0483156913      0.1714344980      0.1834721516      0.5537233238
C       3.5770806564     -0.0549028718     -0.6770674238     -0.0019878314      0.0683142984     -0.0795149804      0.1825836940
C       3.3859836513     -1.3631630570     -0.3641126755      0.1019661686     -0.1292891500     -0.2946420257      0.2331880040
C      -2.0083974871      1.8544288651      0.1971891860     -0.0078710530      0.2816928569     -0.6408014292     -0.2433710310
C      -2.0168129597     -2.2963007718     -0.8531036015     -0.4063631596     -0.0150050507      0.6434212466     -0.2145378223
C      -3.2462998382      2.1209957291     -0.6564011756      0.2517356537     -0.1655049202      0.3843035107     -0.0613749364
C      -3.5345277989     -2.1989714209     -0.7107592563      0.4202334817      0.0213520189     -0.2129740509     -0.0563632862
H       1.7648259431      3.6540314340     -0.3480965090      0.0118197846      0.3161948394     -0.0696820922      0.0963374440
H       1.8402345101      2.1928818865     -1.3449274738      0.0244035313     -0.0454591120     -0.2997764269      0.1142277079
H       0.5759409542     -1.7434751623      2.3533271649     -0.1663498113      0.1895576733      0.2380230297      0.0714671206
H       0.5837324678     -3.5095308980      2.2223263102     -0.0735545395     -0.2190536812      0.1946485477      0.0983887035
H       3.9343884740      2.5542067374     -0.0328434869      0.2763342352      0.0460218453      0.0148913917      0.1144071537
H       3.0047309505      2.4456226632      1.4841157162      0.0518502360      0.0541306674      0.2049857752      0.1057650756
H       2.8739164289     -2.6177400969      2.5810248796      0.2289063242     -0.0082744853      0.1636753595      0.0880297038
H       2.7463250974     -3.4579065727      1.0131107953      0.1156636830     -0.0474096940     -0.0596005861      0.2300309969
H       0.4138100099      2.4716689200      1.3522611935     -0.0441599908      0.0989035998      0.3139223972      0.0694020559
H       0.5686917914      0.9520516110      0.4587532983     -0.0736087287     -0.2509560784      0.0186133884      0.1686775444
H       0.4715623701     -3.3492458742     -0.2543138667      0.1129304357     -0.1151280272     -0.1709900570      0.1540543452
H       0.5284068340     -1.5844671436     -0.1602935615      0.0522531121      0.1946876808     -0.2173508957      0.1188215372
H      -0.8105609773      3.4685900812     -0.6005262819     -0.0286585193      0.2943934381     -0.0917646701      0.0808926877
H      -0.6415169580      1.9384301462     -1.4740439739      0.0184925387     -0.0881686080     -0.2895909477      0.0913369277
H      -1.6085728605     -1.5873708579      1.1472071895     -0.1353400687      0.2007671431      0.2039188092      0.0815664134
H      -1.6837504337     -3.3501718031      1.0042361301     -0.1242294937     -0.2249109747      0.1718843691      0.0800364632
H       2.3442166317      0.1330974127      2.3173918162     -0.1071895271      0.0539462894      0.1693177082      0.0841327205
H       3.9724563137      0.4097687095     -1.5628819042      0.0990010125      0.0949303322     -0.2381720925      0.0275993558
H       3.5818522773     -2.2602005632     -0.9267034233      0.0858900073     -0.1801680246     -0.1901519352      0.1775459772
H      -1.9077397523      0.7765879847      0.3634803746      0.0578337769     -0.2637089704      0.0825267444      0.1584057666
H      -2.1266433726      2.3328093894      1.1753612493      0.0010725628      0.0754422530      0.3004628882      0.0650964845
H      -1.7630938425     -3.1593711665     -1.4765534605      0.1524569809     -0.1755600257     -0.1978977472      0.0923887234
H      -1.6407582971     -1.3982846422     -1.3562086906      0.1583707032      0.1944890080     -0.1660527254      0.0922750797
H      -3.3756909836      3.1916610272     -0.8199742679     -0.0889321268      0.3202177227     -0.0855667035      0.0325848977
H      -3.1540791465      1.6295844655     -1.6258041702     -0.0234225223     -0.1405468362     -0.3096445012      0.0377501861
H      -4.1339211581      1.7355893197     -0.1547097218     -0.3582391610     -0.0780804307      0.0485949809      0.0381890539
H      -3.9967109084     -2.1006852452     -1.6932615723     -0.2752154115      0.0365963868     -0.2593905619      0.0264440108
H      -3.8082232845     -1.3299020536     -0.1098388137     -0.1359806165      0.2502145424      0.1757295042      0.0423554850
H      -3.9314165415     -3.0928827615     -0.2277371853     -0.1731764732     -0.2561704558      0.1494858401      0.0273639466
P       3.8573377827     -4.8910696879     -1.3320718176     -0.0239301171     -0.0010890358      0.1018625490      2.1822505718
F       2.3930687621     -4.0901876578     -1.0492307184      0.0272037252     -0.0700385442     -0.0898545082     -0.5420891347
F       3.3653518999     -6.0909386208     -0.3376198626     -0.0790729752     -0.1756882098      0.1446829094     -0.5033673792
F       3.1995692716     -5.6244738180     -2.6256958230     -0.0972368236     -0.1057980305     -0.1972746393     -0.4937180358
F       5.2953537222     -5.6063715779     -1.5768062864      0.2032813462     -0.0931363259     -0.0422743770     -0.4923683205
F       4.3135483229     -3.5969156164     -2.2755862648      0.0383553060      0.1569951259     -0.0943237283     -0.5234508261
F       4.4865699373     -4.0715422003     -0.0015342043      0.0868482129     -0.0421322036      0.0272778781     -0.5344208957
