53
Properties=species:S:1:pos:R:3:forces:R:3:charge:R:1 energy=-293.716746730761 homo_lumo=4.619062933260393 dipole="1.0354267258313266 -0.36648312916002007 2.3587173601841607" free_energy=-293.716746730761
N       3.2818725694      0.9030981904      0.0640247273      0.2104526354      0.3720862625      0.1387700724     -0.4857021830
N       2.9393419352     -1.2233901965      0.1305864551     -0.0534257905     -0.4277603056     -0.0308834084     -0.5092739254
C       1.8961960850      2.8867947612     -0.3685491930     -0.0170080951     -0.3208203424      0.5479752786     -0.1910784403
C       3.1414255687      2.3306965583      0.3339166440     -0.4011492296      0.2577385819     -0.3557390724     -0.0002127489
C       0.9470035629     -2.5626099476      0.7269545300      0.3449506234     -0.1212303060     -0.6784359379     -0.1832704717
C       2.4697220945     -2.5375142814      0.5661849089     -0.4752263064      0.0259260929      0.3645732331      0.0016677046
C       0.5982603222      2.3526857082      0.2414810517      0.1526181474      0.4256886029     -0.5231710107     -0.2111573260
C       0.2163810157     -2.4409089689     -0.6137646039     -0.2046695826      0.1452363150      0.7503965863     -0.2179397898
C      -0.6182099801      2.7954676750     -0.5764411581     -0.0423446689     -0.5845259183      0.6147135275     -0.1792170704
C      -1.2868903406     -2.2447138870     -0.3984519159      0.3895345106     -0.0798821921     -0.7670995460     -0.1785001068
C       2.6990580865     -0.0714704814      0.7613015701     -0.0673267206     -0.0385331165      0.2612430995      0.5592947401
C       3.8843336208      0.3692168329     -1.0392687578      0.3671714586     -0.0285009182     -0.0122799576      0.2497094463
C       3.6677296084     -0.9719972523     -0.9977118569      0.2894380375     -0.0332275315     -0.0277246030      0.2553538296
C      -1.9033635091      2.1627671853     -0.0342989314      0.0159595060      0.4177390685     -0.5193064409     -0.2394133863
C      -2.0201397447     -2.0930016957     -1.7346327748     -0.3683192023      0.1512091575      0.6407057482     -0.2315473461
C      -3.1054089550      2.5163647865     -0.9077779812      0.2181855178     -0.2202704658      0.3528832629     -0.0632287911
C      -3.5116166251     -1.8422874663     -1.5234792972      0.3868197109     -0.1062586211     -0.1892732086     -0.0583051423
H       1.9297613876      3.9765742814     -0.2819230216      0.0288046126      0.3253354526      0.0149598384      0.0758290665
H       1.9426147471      2.6252957571     -1.4280534022      0.0332583669      0.0003855608     -0.2350417195      0.1900681878
H       0.6437798181     -1.7495062151      1.3941317046     -0.1275094982      0.1698779426      0.2402171507      0.0955116359
H       0.6827845247     -3.5068654376      1.2131564759     -0.0804820000     -0.2064118273      0.2365214376      0.0869672501
H       4.0415825309      2.8252133277     -0.0390482279      0.2631014029      0.0230214375      0.0091530319      0.1047442380
H       3.0785806353      2.4673328254      1.4176538809      0.0551400278      0.0076620290      0.2204661973      0.0930004916
H       2.9570912654     -2.7700848084      1.5188207405      0.2110450687     -0.0795436863      0.1441368682      0.1026762131
H       2.7932812594     -3.2632892355     -0.1837211636      0.0887793168     -0.0919107080     -0.1522897216      0.1147672375
H       0.5065644415      2.6967552296      1.2788407840     -0.0516557977      0.1038480486      0.3270314173      0.0479811505
H       0.6311642458      1.2583330256      0.2519065729     -0.1026947086     -0.1944188694     -0.0480063734      0.1665327849
H       0.3951781484     -3.3425866034     -1.2080446588      0.0640731364     -0.2448464748     -0.2006415449      0.0643297372
H       0.6144852151     -1.5899489418     -1.1689785133      0.0465156678      0.1571724032     -0.1917457735      0.2262404335
H      -0.7024355642      3.8871305016     -0.5529179239     -0.0322634665      0.3201448664     -0.0127165070      0.0568566696
H      -0.4764644520      2.4894513731     -1.6164059328      0.0606292818     -0.0526594287     -0.2230943261      0.1714832330
H      -1.4470019641     -1.3450860588      0.2075732198     -0.0639556516      0.2341695269      0.1782713859      0.1017588774
H      -1.6955126679     -3.0974663771      0.1566531373     -0.1580521196     -0.1999154436      0.2101484722      0.0542713927
H       2.1701493383      0.0469616441      1.6902803191     -0.1425218725      0.0312731004      0.1361711171      0.0873044611
H       4.3837812297      0.9794951476     -1.7701753941      0.0223526796      0.0983519282     -0.1705220635      0.0521998356
H       3.9434470161     -1.7485523239     -1.6884060099      0.0207069532     -0.1467665992     -0.1354126039      0.0460396683
H      -1.7855380993      1.0737234883     -0.0077794820      0.0772408439     -0.2625638871      0.0262546664      0.1459044737
H      -2.0796286734      2.5044687005      0.9922057997     -0.0307499671      0.0234759499      0.3105967982      0.0478633361
H      -1.8821193255     -3.0013085289     -2.3302669767      0.1072449578     -0.2031478239     -0.2025061637      0.0703669562
H      -1.5867705556     -1.2580180876     -2.2912918461      0.1690143181      0.0918597400     -0.1533508513      0.1668946846
H      -3.2524030619      3.5970558778     -0.9382588329     -0.0851662080      0.3278383763     -0.0450904533      0.0271070411
H      -2.9514030898      2.1579271946     -1.9260437330      0.0223508740     -0.0902651412     -0.3231659265      0.0469194201
H      -4.0083760544      2.0532805115     -0.5083389556     -0.3673213564     -0.0903690688      0.0332491514      0.0258237502
H      -4.0105867985     -1.7342946012     -2.4867374606     -0.2708330495      0.0638354012     -0.2477933967      0.0246172492
H      -3.6677799571     -0.9279016580     -0.9484751869     -0.0908384696      0.2866427051      0.1683593127      0.0525770129
H      -3.9713178903     -2.6729924782     -0.9846843314     -0.2063509197     -0.2278445074      0.1788591577      0.0076109896
P       1.3670522117      0.4033105100     -3.5096330032      0.0722747262     -0.1502029120      0.1293624211      2.2545435452
F       0.0857020280     -0.5995054759     -3.6959632656     -0.1044926995     -0.0790073403     -0.0756902119     -0.5130321365
F       1.1332912772      0.3614032016     -1.8409527580     -0.0954354443     -0.0158251941     -0.0805400005     -0.5442184281
F       2.3742455773     -0.9113567445     -3.3519806889     -0.0291346927     -0.1014929816     -0.1926519406     -0.5277557168
F       2.6777052456      1.4057930047     -3.2466097267      0.0227441486      0.1418488452     -0.1543461347     -0.5326609483
F       1.6344172257      0.4447825746     -5.1103404768      0.0441585451      0.0198477963     -0.2325050454     -0.4935987960
F       0.3890690885      1.7165175209     -3.5886239860     -0.1156375585      0.1759864196     -0.0539952891     -0.5147039903
