53
Properties=species:S:1:pos:R:3:forces:R:3:charge:R:1 energy=-294.0614852467774 homo_lumo=4.907697614503178 dipole="0.26871271503926236 -0.006409555428219887 -2.7224558955509415" free_energy=-294.0614852467774
N       3.2197549684      0.8959460169     -1.4204219958      0.0060816536     -0.0108001346      0.0028332380     -0.5158146201
N       3.2074669441     -1.2690969940     -1.5606001675     -0.0049059993      0.0135580621     -0.0109835222     -0.5168246238
C       2.0319440396      3.0029264532     -0.8949694944      0.0093100509      0.0073592653      0.0017290445     -0.1941650775
C       3.3676193470      2.2648009702     -0.8908805489      0.0049331614     -0.0034990655     -0.0150987790     -0.0153305377
C       2.1723478711     -3.0687992230     -0.1940129996      0.0095484801     -0.0063350668     -0.0012959509     -0.2099891849
C       3.2711773498     -2.6939829616     -1.1837011313      0.0132388454      0.0074575201      0.0140541401     -0.0030835260
C       0.9767335965      2.2793223308     -0.0680996324      0.0061400629     -0.0105851577      0.0113738884     -0.2324345506
C       0.7761340590     -2.6319994960     -0.6242715092      0.0032738885      0.0117485947     -0.0029202186     -0.2070814987
C      -0.3628633293      2.9995775697      0.0061177674     -0.0103199469      0.0041822915      0.0022617866     -0.1600645475
C      -0.2576719294     -2.8755870546      0.4719980177     -0.0042732777      0.0029917794      0.0081343924     -0.1810540832
C       3.5217682226     -0.2341703271     -0.7657477662      0.0015496947      0.0007927440      0.0005371912      0.5812944065
C       2.6801236481      0.5765350423     -2.6494684828      0.0180026374     -0.0062165052      0.0048930643      0.2000208850
C       2.6690879906     -0.7846136185     -2.7353705325      0.0123855535     -0.0098420894      0.0011360766      0.2060335852
C      -1.3634044316      2.2112162266      0.8506871316     -0.0170932843     -0.0046296712      0.0006786249     -0.2520744075
C      -1.6215181634     -2.2800092086      0.1341833513     -0.0103058054      0.0069290073      0.0064006398     -0.2343753183
C      -2.7129636085      2.9067630819      0.9885222650     -0.0046295495      0.0016536605     -0.0016752868     -0.0654590178
C      -2.6314421205     -2.4572890211      1.2643931694     -0.0011166315     -0.0023813651      0.0034059207     -0.0743085213
H       2.2249138115      4.0083515735     -0.4807488935     -0.0046783167     -0.0028063051      0.0061826411      0.1020886232
H       1.6838539621      3.1613594614     -1.9327284624     -0.0016202331     -0.0005516728     -0.0006893210      0.0789684077
H       2.4085069165     -2.6185420134      0.7818702122      0.0043090191      0.0067553766     -0.0016542100      0.1959484552
H       2.2171290774     -4.1645794388     -0.0623750587     -0.0045495126      0.0006182974     -0.0028409643      0.0841533036
H       4.1250264729      2.7751708856     -1.5065458611      0.0091944446     -0.0088004531      0.0115588051      0.1033821653
H       3.7401519967      2.1538967253      0.1361707724      0.0054813032     -0.0070885913      0.0154341394      0.1659439734
H       4.2696845737     -2.8821262711     -0.7619474829      0.0007097031      0.0044619926     -0.0110877263      0.1180550817
H       3.1851176433     -3.2525261020     -2.1276210812     -0.0047246695     -0.0117841494     -0.0088378596      0.1015723322
H       1.3640664484      2.1213561728      0.9508663053     -0.0041154888      0.0055013019     -0.0103536500      0.1748519157
H       0.8129611491      1.2671311272     -0.4775626658     -0.0012856407      0.0110849551     -0.0091054192      0.1469796075
H       0.4749702267     -3.1410256864     -1.5611524839      0.0049458346     -0.0033660972      0.0043416616      0.0550997639
H       0.7856683621     -1.5475642031     -0.8351447388      0.0004598114     -0.0121942920      0.0050553334      0.1551458304
H      -0.2217868912      4.0056905171      0.4457206507     -0.0042506975     -0.0140774870     -0.0011724057      0.0738213012
H      -0.7724794049      3.1558114819     -1.0110462021     -0.0027089123      0.0006844917      0.0048525445      0.0593505234
H       0.1150421484     -2.4161102557      1.4040822564     -0.0092134727     -0.0112759956     -0.0001131641      0.1598875210
H      -0.3578320634     -3.9603655944      0.6647220483     -0.0034201239      0.0037052800     -0.0084041669      0.0667634136
H       3.8893851599     -0.3106591757      0.2554806081      0.0188382759      0.0078643150     -0.0011179319      0.1829718758
H       2.3454320099      1.3351958492     -3.3448613356      0.0120365018      0.0019744485     -0.0082915694      0.0507082395
H       2.3198999111     -1.4452756587     -3.5191585762      0.0135936226      0.0007611023      0.0029991831      0.0427879581
H      -1.5033431820      1.2122386083      0.3997216464     -0.0048411487     -0.0016603468     -0.0093961404      0.1398551401
H      -0.9233634892      2.0309682074      1.8476328959     -0.0055522730     -0.0016636078     -0.0042629912      0.1149140144
H      -2.0107852179     -2.7337180106     -0.7971236945      0.0034494818      0.0006672978      0.0027626823      0.0564106241
H      -1.4908803633     -1.2015722775     -0.0706738143     -0.0009395084      0.0008698484     -0.0034078291      0.1328149770
H      -2.5994264821      3.8948327056      1.4635997205     -0.0054513102     -0.0021933584      0.0057511509      0.0290433272
H      -3.1840561070      3.0617730532      0.0037259546     -0.0011594355     -0.0005032988     -0.0013061504      0.0207583046
H      -3.4039509279      2.3128250137      1.6057849169     -0.0248698250      0.0093587074      0.0003248146      0.0391445294
H      -3.6093816021     -2.0275900484      1.0006967409     -0.0209509764      0.0049180527      0.0086039572      0.0305386284
H      -2.2748545481     -1.9612910573      2.1810068627     -0.0033623266     -0.0008409092     -0.0032521240      0.0511753901
H      -2.7798372721     -3.5243654042      1.4976865067     -0.0078564548      0.0075205029     -0.0057796051      0.0310011639
P       2.5611919969     -0.1893644506      2.8082035201     -0.0046346723     -0.0001786336     -0.0057098844      2.2260191772
F       1.6876603657     -0.3443118150      1.3835207474      0.0025073593      0.0036100003      0.0085694861     -0.5351457761
F       1.4280979151      0.8508250685      3.3760259574      0.0059452849      0.0026220150      0.0087018803     -0.5062850454
F       1.7621511970     -1.4855637324      3.4169168158      0.0126426582      0.0018605875      0.0072463689     -0.5064143722
F       3.4595209717     -0.0401284683      4.1593337648      0.0048541644      0.0010093254      0.0001202974     -0.4911337049
F       3.7217018138     -1.2159488908      2.1388319507     -0.0007821435      0.0019272787     -0.0130643108     -0.5369611801
F       3.3917222389      1.0946673868      2.1049886053     -0.0098198564     -0.0011738489     -0.0081217718     -0.5395048520
