53
Properties=species:S:1:pos:R:3:forces:R:3:charge:R:1 energy=-293.8905117931464 homo_lumo=4.421104038709693 dipole="0.980862563505234 -1.4599531016052316 2.270433317644013" free_energy=-293.8905117931464
N       3.2051968731      1.5163157928      1.2051675445      0.0033519321      0.0089827158      0.0012457865     -0.4954725831
N       3.1906747017     -0.4528305494      0.2869769308     -0.0001196625     -0.0148339514     -0.0023427406     -0.5156752359
C       1.5302080824      3.2986329118      1.5970351556     -0.0031577626     -0.0020627286      0.0023677987     -0.1959563254
C       2.8252648389      2.6438203548      2.0709911784     -0.0086952428     -0.0051028631      0.0044400441     -0.0073826653
C       1.3937577053     -2.1399135243     -0.0033603348     -0.0012818228     -0.0048978877      0.0041130689     -0.1910063436
C       2.8940137340     -1.8770965068      0.0561857805      0.0056066424      0.0005737525     -0.0219167682     -0.0041061142
C       0.3124860795      2.3877330013      1.7175885789     -0.0021326167      0.0097306992     -0.0033914928     -0.2184745047
C       0.7069671129     -1.4734543862     -1.1925355108     -0.0034380498     -0.0003984007      0.0099889126     -0.2214988232
C      -0.9419604803      2.9965926280      1.0962534105     -0.0012262950     -0.0100091995      0.0007501127     -0.1812878826
C      -0.8150826034     -1.5650110131     -1.1059229555      0.0045822275     -0.0040447229     -0.0019026773     -0.1849267869
C       2.7671559255      0.2564964267      1.3446964795      0.0162797177     -0.0077069770      0.0161260427      0.5608630541
C       3.9062644126      1.6170588886      0.0259870126     -0.0066241723      0.0050542299     -0.0122752548      0.2416644632
C       3.8997181809      0.3799247805     -0.5493815472     -0.0133837769      0.0023771493     -0.0033032266      0.2423591558
C      -2.1204024987      2.0251280784      1.1015407096      0.0009246674     -0.0060866221     -0.0025333418     -0.2481383811
C      -1.5163514564     -0.9082845426     -2.2928800321      0.0026325065      0.0064087195      0.0028052950     -0.2381394244
C      -3.3419568369      2.5821055351      0.3764021883     -0.0029132832      0.0050441058     -0.0095055663     -0.0866324609
C      -3.0361019167     -0.9325866908     -2.1617610253     -0.0056251991     -0.0010707300      0.0132636487     -0.0818447846
H       1.3894921185      4.2120201542      2.2023280863     -0.0022713382     -0.0051837685      0.0032864471      0.0851324401
H       1.6561373959      3.6133054841      0.5482157848     -0.0007830291      0.0030984890     -0.0064128471      0.1842962583
H       0.9280236922     -1.8020587943      0.9413873415     -0.0053871867     -0.0027229233     -0.0002621120      0.0965128086
H       1.2516292363     -3.2352090007     -0.0329733972      0.0017098812      0.0028330257     -0.0002512227      0.0949164167
H       3.6682607004      3.3494874656      2.0533362844      0.0076209861      0.0012042379      0.0028722692      0.1132981204
H       2.7325094749      2.2463910360      3.0946263052     -0.0021544883      0.0132841256     -0.0062948871      0.1000429982
H       3.3829738698     -2.4555417086      0.8554110828      0.0162379783     -0.0042795294      0.0065113138      0.1078871549
H       3.3739703696     -2.1364130634     -0.8989547190     -0.0032110734     -0.0000347014      0.0153851727      0.1216260560
H       0.1307818680      2.1323229858      2.7808082332      0.0042164688     -0.0052314374     -0.0032803150      0.0513164692
H       0.5103208274      1.4469695795      1.1763386208      0.0094261147     -0.0096165860     -0.0098232593      0.1694346624
H       1.0584978657     -1.9464892934     -2.1284646512     -0.0002915783     -0.0019685539      0.0002968292      0.0752465870
H       0.9924780127     -0.4114359671     -1.2558857556      0.0098618335      0.0058900435      0.0086980371      0.2142747751
H      -1.2168815272      3.9256166897      1.6302423216     -0.0040189541     -0.0050043948     -0.0012812111      0.0617764367
H      -0.7090343455      3.2749425807      0.0545216924     -0.0025307649      0.0102397917     -0.0080589968      0.1685929191
H      -1.1474771678     -1.0685283617     -0.1738734493     -0.0028421230      0.0017378831      0.0104229866      0.1058872948
H      -1.1281078364     -2.6243737061     -1.0228307717     -0.0022089306      0.0018791470      0.0057490867      0.0594540400
H       2.1709202568     -0.1167101713      2.1662140954      0.0242737150     -0.0009768127      0.0002295644      0.0968790404
H       4.2618192309      2.5666185847     -0.3536221715     -0.0107166139     -0.0120994698     -0.0115062429      0.0686217455
H       4.2735248482      0.0513489288     -1.5100370283     -0.0014113886      0.0007820072     -0.0025166965      0.0581109245
H      -1.8018570905      1.0892944010      0.6081533233      0.0003106786     -0.0063310342     -0.0077448463      0.1544997203
H      -2.3849131195      1.7593950593      2.1431089436      0.0049999620     -0.0001320304     -0.0056795369      0.0514770314
H      -1.2119987533     -1.4221141901     -3.2231728056     -0.0022719136      0.0002832337      0.0088153174      0.0781919743
H      -1.1605819718      0.1303549720     -2.3912134117      0.0034361746      0.0038599317     -0.0027790421      0.1665847922
H      -3.6790999496      3.5254475261      0.8366379511     -0.0039680561     -0.0116020424      0.0015578224      0.0351977002
H      -3.0988910449      2.7918134282     -0.6771339364     -0.0048129172      0.0002566626     -0.0064466296      0.0558161091
H      -4.1841394134      1.8737033716      0.3992292204     -0.0104558749     -0.0046417584     -0.0057729155      0.0332061132
H      -3.5172182258     -0.4613318210     -3.0322708823     -0.0112195469      0.0032004669     -0.0020333138      0.0335123646
H      -3.3610947153     -0.3836783169     -1.2629113077      0.0043779397      0.0086886831      0.0049018814      0.0624275367
H      -3.4157822381     -1.9651222799     -2.0804147085     -0.0004191081      0.0092284534      0.0045974035      0.0142861500
P       1.4980188238      2.6364660912     -2.5878564751      0.0024001369      0.0030804031     -0.0005562391      2.2336007107
F       2.7154941965      1.5644384297     -2.9625748106      0.0003925122      0.0036540245      0.0092805732     -0.5269532404
F       2.6014456765      3.5545762425     -1.7213393542     -0.0019383580     -0.0005418454      0.0026679826     -0.5338730830
F       1.8167652016      3.5026898001     -3.9342921934      0.0014436259      0.0041236567     -0.0008837492     -0.4946426747
F       0.3019563597      3.6816286958     -2.1453123976     -0.0027474398      0.0031374232     -0.0020311015     -0.5143280394
F       0.4155145070      1.6939097936     -3.3903421265      0.0002663703      0.0055189897     -0.0021271264     -0.5116200632
F       1.2001149954      1.7521709841     -1.1822912853     -0.0000935037      0.0024289196      0.0025399620     -0.5450346073
