53
Properties=species:S:1:pos:R:3:forces:R:3:charge:R:1 energy=-292.1730254673197 homo_lumo=1.9657770516414073 dipole="-0.8509853138548988 6.094505530328341 -2.435324138384917" free_energy=-292.1730254673197
N       3.0687389098      0.9510831557     -0.0066615458     -0.1387960615     -0.6589338141      0.7911548018     -0.5032811276
N       2.9171741218     -1.2613140804      0.1749069164      0.0053499580      0.9243626329      0.2488220747     -0.4944141834
C       1.4571920306      2.8042578559     -0.2632994602     -0.1401674344     -0.2675508462      0.2259115348     -0.1939577819
C       2.8271450253      2.3646038521      0.2763484952      0.0028467862      0.9389968221     -0.0116457946     -0.0241917887
C       1.0196963503     -2.6102927971      1.0163019345     -0.0643500228      0.1143657554     -0.3699886138     -0.2157113933
C       2.5209704269     -2.5726828002      0.6873508603     -0.2312522292     -1.0384131709      0.9273534599     -0.0485653433
C       0.3015634646      2.1150943838      0.4784148564      0.1075543131      0.2324370675     -0.3560625009     -0.2225487218
C       0.1495838884     -2.3040680234     -0.2130341395      0.0243724502     -0.0704396739      0.4669240422     -0.2038905380
C      -1.0600156153      2.5523485044     -0.0715172503      0.0430036976     -0.2994295771      0.3507616759     -0.1722437262
C      -1.3411684383     -2.2999551416      0.1462002985      0.1726255308      0.1102566626     -0.4658995541     -0.1811385965
C       2.8224582945     -0.0829414947      0.8213519265     -0.5764073650     -0.0613377214      1.3383474024      0.5483132095
C       3.3414037337      0.4080303692     -1.2104400420      0.2328937904     -0.7805147295     -1.5387265058      0.2182627118
C       3.2552784901     -0.9637804204     -1.0962774727      0.1648699088      0.6502682636     -1.4349773323      0.2479245156
C      -2.1980623416      1.8660968678      0.6939696841     -0.1054750275      0.1295612243     -0.1965276007     -0.2513822965
C      -2.1876153509     -1.8120379090     -1.0366233168     -0.1682897335     -0.0826857402      0.2575385355     -0.2268602701
C      -3.5546430751      2.1712954845      0.0671118770     -0.2180107642     -0.1299519173      0.1273698381     -0.1051470235
C      -3.6680364885     -1.7499741411     -0.6717734727     -0.1805768258      0.0867286601     -0.2103993037     -0.1024931934
H       1.3651165818      3.9050780341     -0.1388701321      0.1483413443     -0.2587732560     -0.0757881439      0.1150074948
H       1.3975516436      2.5760802370     -1.3502203252      0.0196335949      0.1351157102      0.2300292229      0.1155012361
H       0.8038523369     -1.8735422309      1.8205882937     -0.0107933668     -0.2208825880     -0.0972352383      0.0945829636
H       0.7654718539     -3.6211050460      1.4035952704      0.3175319995      0.2411499085      0.0327974284      0.1784131936
H       3.6249695983      2.9742950348     -0.2000098817     -0.0602062941     -0.4119723030      0.1553233273      0.1324020030
H       2.8761258308      2.5481185732      1.3722047320      0.0862190171     -0.3148142423     -0.3532673001      0.1275299907
H       3.1037340238     -2.7926326132      1.6072207367     -0.0040719174     -0.0247928793     -0.3726323015      0.1770037411
H       2.7539498039     -3.3623247327     -0.0603662195      0.1658165115      0.4936521461      0.1977114155      0.1532380656
H       0.3614187222      2.3605510882      1.5615263437     -0.0015938284     -0.1323619989     -0.1766440759      0.0842270637
H       0.3869357426      1.0144527545      0.3605417552     -0.0323162532      0.1702364410      0.1131851979      0.1644470195
H       0.3383586736     -3.0660927675     -1.0007229030      0.0104244468      0.2234577730      0.1072429524      0.0962417943
H       0.4212540037     -1.3064042311     -0.6192371831     -0.0604583101     -0.1462473778     -0.0690919633      0.1140428613
H      -1.1650892436      3.6554270243      0.0241889309      0.0127800535     -0.2294316327     -0.1485197404      0.0899835476
H      -1.1209036424      2.2816526527     -1.1489340954     -0.0159319627      0.1534979413      0.2034196036      0.0931449322
H      -1.5096330692     -1.6289393714      1.0168131867      0.0029402120     -0.2000471842     -0.1049035916      0.0983812123
H      -1.6544241709     -3.3287941534      0.4298635415      0.0460085935      0.2876733911      0.0566826144      0.1093562025
H       2.4911353766      0.0248357585      1.8471532086      0.1226324056     -0.0160278017      0.0414146764      0.1082414996
H       3.5214078731      0.9681068859     -2.1189197551      0.1154350990      0.2308514126      0.0919345404      0.0576023233
H       3.3530760285     -1.6826260291     -1.8992816668      0.0815011538     -0.2578384427      0.1580816808      0.0660876811
H      -2.0449586380      0.7665409591      0.6903257122      0.0822823990      0.2083127410      0.0791135226      0.1619963373
H      -2.1992546211      2.2132701645      1.7500903200      0.0957537156     -0.1771175451     -0.1710390541      0.0778138390
H      -2.0554854767     -2.4995590532     -1.9001847377      0.0894880175      0.2248059146      0.1252099626      0.0888439125
H      -1.8547180578     -0.7961053250     -1.3434187674      0.0671029795     -0.2338925863     -0.0156764419      0.0973716049
H      -3.7492203028      3.2645641482      0.0809631549     -0.0427778973     -0.3013554153     -0.0898101387      0.0480146958
H      -3.5863843038      1.8032891246     -0.9806532757     -0.0787602372      0.1613286016      0.2695504809      0.0507802187
H      -4.3533775613      1.6594720776      0.6444856280      0.0979105583      0.2162280421     -0.2679795696      0.0554133763
H      -4.2477935281     -1.3649744388     -1.5370244247     -0.0098109569     -0.1283686879      0.3181930923      0.0410976532
H      -3.8269392016     -1.0677143161      0.1903001395     -0.0447867174     -0.2321104195     -0.2110495861      0.0616430620
H      -4.0439669925     -2.7621752693     -0.4123872193      0.0096740614      0.3277418786     -0.0089508573      0.0506830702
P       3.0645836555     -6.8110269502      2.7845853614      0.1910894283     -0.9313968829      0.4184437787      2.1042730636
F       3.4574903645     -5.4359720695      1.8365164129     -0.6103769503     -0.3298404274      0.6139731855     -0.5345533550
F       1.6635837395     -6.0632878912      3.4386304122      1.0404956568     -0.4651838798     -0.6175778912     -0.5176528503
F       2.0657477283     -7.3939725811      1.5150889072      1.0803924668      0.4852815894      0.8796600695     -0.5121857884
F       2.8201020665     -8.2762176755      3.6462154801     -0.1132365428      1.5936097565     -0.6428098408     -0.5024771645
F       4.4803581054     -7.5280553930      2.1283847270     -1.2489617790      0.6480111979      0.5181729525     -0.5061406547
F       3.9234741498     -6.1530968035      4.1183172023     -0.4795616724     -0.5862187925     -1.3371201294     -0.5090302991
