44
Properties=species:S:1:pos:R:3:forces:R:3:charge:R:1 energy=-241.4695714768835 homo_lumo=5.6197433252459295 dipole="-3.169208214766644 -0.8434021636658341 0.6490584731949987" free_energy=-241.4695714768835
N      -0.4489900015      0.4417183172     -0.1696791772     -0.0092146981      0.0042263538     -0.0078687019     -0.4833396549
C      -0.9660132938     -0.3196787958     -1.3725798946      0.0188000317     -0.0094103464     -0.0018233222     -0.0078401744
C      -1.6118080418      0.7600665341      0.7461527489      0.0012816545     -0.0145044251      0.0019486785     -0.0163735046
C       0.6142567678     -0.3524438234      0.5969640015     -0.0018380560     -0.0009034833      0.0034508306     -0.0589032474
C       0.1637668876      1.7447445726     -0.6957106229     -0.0009010184      0.0065645019     -0.0025404442     -0.0727805563
C      -1.7420235149     -1.5703774915     -0.9983610036     -0.0040648945      0.0130247344      0.0092698007     -0.1747476236
C      -2.4598650861     -0.4509225149      1.1132081209      0.0034364438      0.0005246310     -0.0232781632     -0.1563495506
C      -2.9391248237     -1.2138061536     -0.1194275134      0.0183260632      0.0070264667      0.0075947384     -0.1591627724
C       1.5773214354     -1.1556917891     -0.2558405419      0.0074689999      0.0045124022     -0.0002201804     -0.2503336065
C       0.4450749726      2.8122604555      0.3474862988      0.0017189940     -0.0002259647      0.0080377068     -0.2569725917
C       2.6954983780     -1.7152241001      0.6291592668      0.0078224170      0.0030502763      0.0160693240     -0.2042293122
C       1.1372974083      3.9954063851     -0.3335837578      0.0030050159     -0.0000287467     -0.0162231066     -0.0817638459
C       3.7147470883     -2.4986512746     -0.1926212179     -0.0096719422     -0.0028287676     -0.0137065972     -0.0713733893
H      -0.0982259708     -0.5246607464     -2.0135901008      0.0003971889      0.0092047425      0.0062920376      0.1590319723
H      -1.6263243684      0.3834557367     -1.9046684836     -0.0018463536      0.0072423951     -0.0010905956      0.1293581924
H      -2.2193352828      1.5080136637      0.2107364221      0.0005611242     -0.0009687874     -0.0052514939      0.1329052725
H      -1.1895410289      1.2347478367      1.6417333990      0.0099460991      0.0081347520      0.0002942605      0.1501213522
H       0.0787930351     -1.0001691343      1.3043049214     -0.0021934554     -0.0101752421     -0.0119215773      0.1327254027
H       1.1800898507      0.4002434820      1.1627458612     -0.0098010822     -0.0138608176      0.0124712297      0.1958243425
H      -0.5547760418      2.1247131611     -1.4406283645     -0.0091717064      0.0025108881      0.0089730210      0.1043600817
H       1.0960797473      1.4617884434     -1.2122849851     -0.0065916398      0.0055311738     -0.0065641297      0.2597669899
H      -1.0890916873     -2.2925328192     -0.4812617574      0.0088107110      0.0000995418      0.0006069148      0.1210175087
H      -2.0681274220     -2.0517866091     -1.9346874185      0.0047991113     -0.0033542641     -0.0072535075      0.1030476345
H      -3.3124877931     -0.0808948716      1.7064797765     -0.0003575772      0.0052159951      0.0058434529      0.1081150480
H      -1.8958231830     -1.1286228749      1.7749815410      0.0061888099     -0.0042056776      0.0119016879      0.1000235580
H      -3.6430619517     -0.5854841011     -0.6952127991     -0.0095991613      0.0053665072     -0.0051106466      0.0865192142
H      -3.4865720602     -2.1202391897      0.1815324381     -0.0109389890     -0.0100221674      0.0001075876      0.0883141073
H       2.0379843243     -0.5123484773     -1.0222055095     -0.0093202147     -0.0104221590     -0.0019420624      0.1934482944
H       1.0640244891     -1.9929825361     -0.7600780832     -0.0021269834     -0.0074284132      0.0077247812      0.0882122001
H      -0.4865080238      3.1560920766      0.8279674565      0.0058894410      0.0016464852     -0.0066304637      0.0761955438
H       1.1220654416      2.4224853961      1.1233678430      0.0013784671      0.0022241742     -0.0059270650      0.1284005219
H       2.2642109219     -2.3552378852      1.4228589916      0.0000106796      0.0073547391     -0.0066302371      0.0561560036
H       3.2044609283     -0.8662098531      1.1156015044     -0.0051794583     -0.0089816620      0.0014932214      0.1292599506
H       1.2958310790      4.8038819237      0.3937147706      0.0102362981      0.0188861656      0.0008296087      0.0299915020
H       2.1170110090      3.6945984119     -0.7318478028     -0.0027035349      0.0110083978     -0.0021684242      0.1390297499
H       0.5238061820      4.3942498727     -1.1578166392      0.0032382139      0.0072854881      0.0028324460      0.0114482818
H       4.1904547049     -1.8303039023     -0.9260998413      0.0087684870     -0.0059733779      0.0043678420      0.0909250045
H       3.2404155291     -3.3390585703     -0.7268808284      0.0036684801      0.0036483462      0.0028469898      0.0062048183
H       4.5048037271     -2.9075011841      0.4538976829      0.0150029772     -0.0170750755      0.0032737835      0.0292178444
B       3.8718410892      1.5122810235     -1.0168134984      0.0108939079      0.0019582704     -0.0042403856      1.4304182097
F       2.8927376858      1.1391132488     -2.0244913958     -0.0099469303     -0.0014600947     -0.0026883222     -0.5865705401
F       3.2017834700      1.4645127346      0.2621725737     -0.0235206568     -0.0074291093     -0.0016871902     -0.5934616740
F       4.3045855537      2.8252839190     -1.2680628161     -0.0051790679     -0.0183646694      0.0118136813     -0.5514284925
F       4.9219285002      0.5797740090     -1.0313185858     -0.0174821962      0.0113758223      0.0067229918     -0.5544080655
