47
Properties=species:S:1:pos:R:3:forces:R:3:charge:R:1 energy=-260.01746701325385 homo_lumo=3.15477421505711 dipole="-3.479672161511584 -1.9647395790191526 -1.3735216012716251" free_energy=-260.01746701325385
N       1.6871216642      1.0557325970     -0.9579324577     -0.0054400545      0.0063676898     -0.0054445450     -0.5108038922
N       0.3740562114      1.3612314422      0.7463916884     -0.0050770230      0.0058957223     -0.0067653134     -0.5125306987
C       1.2221715193      0.4996022308      0.1676931713      0.0022611906     -0.0040581788      0.0025588623      0.5865838809
C       2.6880037356      0.4779616036     -1.8780556048      0.0025555478     -0.0078142810      0.0109832883     -0.0685504724
C      -0.3304040490      1.1562978551      2.0273511088      0.0107216656     -0.0025740213      0.0011555276     -0.0555373633
C       1.1244329683      2.3054319341     -1.0991769041     -0.0013484003     -0.0027542284     -0.0022279260      0.2312688098
C       0.3011328860      2.4965042816     -0.0290920839     -0.0055941653     -0.0015010151     -0.0016116277      0.2301824823
C       3.2905586344     -0.8074820084     -1.3535969410     -0.0061291302     -0.0013985058      0.0074041772     -0.1569460058
C       0.5100664149      0.3857593622      3.0279626196      0.0077596595      0.0005557559     -0.0002041650     -0.1410323101
H       1.5112994256     -0.4619935587      0.5629285617      0.0122722797      0.0062913379      0.0105274869      0.1429119609
H       2.1792200488      0.3209142815     -2.8422465138      0.0025020538      0.0076324239     -0.0068650807      0.1132867228
H       3.4668999608      1.2427963624     -2.0005926562      0.0047163762      0.0050639967      0.0072622170      0.1979006174
H      -0.5499504587      2.1626647361      2.4075943929      0.0058423399      0.0093569816     -0.0017423372      0.1381098604
H      -1.2830456193      0.6479469473      1.8072921773     -0.0024164068      0.0059780383     -0.0012342185      0.1205176105
H       1.3934014917      2.9633873813     -1.9157380489      0.0128953814      0.0055187942     -0.0022526737      0.0587818181
H      -0.2912916499      3.3534300996      0.2652370640      0.0015433591      0.0065141266      0.0101242915      0.0547897123
H       3.7881373771     -0.6418166520     -0.3871219099      0.0031267492     -0.0080952623      0.0017275203      0.0984789325
H       4.0588539140     -1.1433389637     -2.0640613081      0.0002957117     -0.0035380142     -0.0054905737      0.0976438674
H       2.5434787535     -1.6108741275     -1.2661249780     -0.0018372967     -0.0057942516      0.0030177171      0.0481545598
H       0.6647177258     -0.6588832326      2.7203367497      0.0078267441     -0.0044165979      0.0072165295      0.0384999042
H      -0.0194911004      0.3650470905      3.9909870231     -0.0024258120      0.0040464304      0.0035003726      0.0779907484
H       1.4821054977      0.8780781782      3.1740723838      0.0031173637     -0.0021994103      0.0098639370      0.1351820863
P       5.6032438799      3.5051787062      1.9670231756      0.0011428371      0.0080902909     -0.0052388718      1.7268338347
F       5.5541467208      3.9984118752      3.5527707801      0.0057936836      0.0025004567      0.0020934368     -0.5106902922
F       6.0786917670      1.9747340701      2.4272646586     -0.0033455422      0.0033067865     -0.0012707931     -0.5147419500
F       5.0827162428      4.9902356828      1.3951844505     -0.0021343645     -0.0061869559     -0.0007083290     -0.5208777003
C       3.6926454664      3.0250537099      2.3230005832     -0.0022195351      0.0027729132     -0.0091075934      0.5020092536
C       7.4445663229      4.2299846010      1.9249533935      0.0023595954     -0.0157305115      0.0107709104      0.5287169444
C       5.6704540594      2.7616828187      0.0813866318     -0.0025137602     -0.0118765846      0.0060228136      0.5640002248
C       2.6898982192      4.1883330171      2.6173056435     -0.0014202935      0.0081265018     -0.0156762425      1.3696190257
C       8.6010385541      3.3620983208      2.4970896255     -0.0249201139      0.0042333499     -0.0105175653      1.3584813681
C       5.1197987248      3.6069841071     -1.0967506723     -0.0096856323      0.0006403285     -0.0159482621      1.3839319443
F       3.6337576184      2.1962869337      3.4250708311     -0.0095014381     -0.0012841510      0.0044906739     -0.4497913746
F       3.0462919823      2.3222392463      1.3075127700     -0.0034927368      0.0021860594     -0.0029244758     -0.4808229549
F       7.4619216630      5.3837338453      2.6770148051     -0.0050603787      0.0193317644      0.0029696749     -0.4375725851
F       7.8288386043      4.6095352460      0.6569465398      0.0094376278      0.0169972052     -0.0085115665     -0.4500354527
F       4.9821369459      1.5506452168      0.0045429615     -0.0030357724      0.0013119067     -0.0074828714     -0.4737615737
F       6.9579490501      2.4386265414     -0.2719628844     -0.0052898902     -0.0059156098      0.0011958639     -0.4425339121
F       1.4948947970      3.6388199654      3.0613367439     -0.0024450076     -0.0001575343      0.0004128115     -0.4850319786
F       2.3859972195      4.8771847848      1.4892076827      0.0059288225     -0.0038899502      0.0005201544     -0.4503734851
F       3.1011807089      5.0464678558      3.5580413180     -0.0057111970     -0.0050428872     -0.0011034025     -0.4279359998
F       8.3631399507      3.0262982680      3.7858112998     -0.0003346031     -0.0045040100      0.0077165556     -0.4431117722
F       8.7974324715      2.2288971754      1.7818546455     -0.0096517873     -0.0024389221      0.0024128811     -0.4471855329
F       9.7645127455      4.0737240954      2.4591061609      0.0124152442      0.0033830445     -0.0010450045     -0.4525935975
F       3.7997497062      3.9015940576     -0.9213580565      0.0052977856     -0.0036878869     -0.0070813349     -0.4675358640
F       5.1996366209      2.8892108211     -2.2719240436      0.0029950809     -0.0175989037      0.0118838702     -0.4736153709
F       5.7979170441      4.7486371162     -1.2793044849     -0.0017767582     -0.0136442313     -0.0053768002     -0.4302640304
