42
Properties=species:S:1:pos:R:3:forces:R:3:charge:R:1 energy=-238.1992545623058 homo_lumo=5.095989268067747 dipole="-0.13172973726058276 -0.20765279280671867 2.2040087532252857" free_energy=-238.1992545623058
N       0.1385510285      2.4732018410      0.4029546727      0.3797832423      0.1719380811     -0.1179948949     -0.5030510185
N      -1.8843235067      1.7435748651      0.3489441683     -0.3845107827     -0.1016503514     -0.1811229436     -0.5110047536
C       1.4871753038      2.7741553151     -0.0654274306      0.4697040892     -0.2974371942      0.2217251262     -0.0151029669
C       2.4736096551      1.6823576648      0.3547221470     -0.5127371738     -0.1068718346     -0.3688863478     -0.1596826808
C      -3.0945945048      1.1179445873     -0.1742329811     -0.1644052884     -0.5222947810      0.2033987530     -0.0075977037
C       2.1296181716      0.3246402093     -0.2649749902      0.6878130246      0.1605243407      0.3440921040     -0.2397933043
C      -3.1242685652     -0.3818352345      0.1284220734      0.4319544451      0.2693765213     -0.3915424537     -0.1685564978
C      -0.7244995415      1.7482973575     -0.2989146323      0.0385253679     -0.1737274673     -0.0859909230      0.5743748661
C      -0.4778045765      2.9354734498      1.5346574973     -0.0143779961      0.1414486918      0.3039552256      0.2026736003
C      -1.7571838174      2.4737349691      1.5014160668     -0.1058111247      0.1484509591      0.3242390391      0.1989604626
C       3.2192412897     -0.7134806572      0.0164587736     -0.6157793492     -0.1345094094     -0.2456535441     -0.1892939038
C      -2.0101387142     -1.1437591550     -0.5974814626     -0.4546768022     -0.2606699619      0.2774595222     -0.2799711204
C       2.8482850276     -2.0702087985     -0.5798174731      0.2639363382      0.3137609906      0.2211369317     -0.0548163083
C      -2.1966039201     -2.6539997918     -0.4717839817      0.1937530355      0.4195044591     -0.0277340822     -0.0470525671
H       1.7809225278      3.7391073014      0.3540172705     -0.0669390673      0.2592965698      0.0517634606      0.0847003699
H       1.4293493144      2.8492064629     -1.1559458401     -0.0460669008      0.0745410477     -0.1114201580      0.1836133139
H       3.4671298932      1.9973063600      0.0225987172      0.2931281887      0.0919995245     -0.0648097865      0.0895304482
H       2.4910805479      1.6045621903      1.4470418079      0.0812388691     -0.0058406980      0.3165183569      0.0741383509
H      -3.9527313240      1.6181521701      0.2807088121     -0.1188896633      0.2182397219      0.0935183260      0.0869625740
H      -3.0993266390      1.2882212507     -1.2557488329      0.0063118819      0.1073781770     -0.1323566641      0.1726037436
H       2.0005007157      0.4417945100     -1.3453326607     -0.0899123159     -0.0093048496     -0.2096920858      0.1493649866
H       1.1796386585     -0.0317316258      0.1487363268     -0.2123415125     -0.1555749245      0.0624342725      0.1339485522
H      -4.0975683356     -0.7572419744     -0.2015870693     -0.2867204386     -0.1161578990     -0.0643106889      0.0929910292
H      -3.0494932800     -0.5416447019      1.2089854364     -0.0474479833     -0.0755619395      0.3198066848      0.0791298965
H      -0.5210299868      1.2624243605     -1.2359535116      0.0623464960     -0.1925188876     -0.0088911748      0.2128066372
H       0.0297599783      3.5530606479      2.2549507095      0.1142393505      0.1523639684      0.1477198476      0.0247737159
H      -2.5756108818      2.6137782617      2.1857384007     -0.1949128501      0.0394728857      0.1404379932      0.0235855935
H       3.3593187885     -0.8149348181      1.0985863848      0.1079804384      0.0103902875      0.2823694756      0.0681965522
H       4.1671288338     -0.3730982482     -0.4133472079      0.2562547367      0.1289558352     -0.0574504039      0.0769596998
H      -2.0051085534     -0.8580462584     -1.6541712285      0.0772241652      0.1188995154     -0.2313990719      0.1273895340
H      -1.0411278340     -0.8666375419     -0.1694973588      0.2372520199      0.0515946552      0.0264800554      0.1508019442
H       2.7195681503     -1.9889299995     -1.6595867207     -0.0677435594     -0.0178127130     -0.3317454600      0.0386878595
H       1.9160143307     -2.4359737177     -0.1464034471     -0.2913507622     -0.1529493438      0.1001881503      0.0375519423
H       3.6350105256     -2.7969744898     -0.3762582671      0.1789601026     -0.3251424161      0.0071405739      0.0272632157
H      -2.1944402767     -2.9555926346      0.5768665582     -0.0165684479     -0.1618923274      0.3136502570      0.0206064271
H      -1.3843801774     -3.1698463276     -0.9837220243      0.2105558177     -0.2640634453     -0.1344953704      0.0462442697
H      -3.1415867293     -2.9622532993     -0.9206235381     -0.2779012858     -0.1389513822     -0.1252855291      0.0285433483
B      -0.5601013556      2.1341262754     -3.2059413332     -0.0234963575      0.1379497737      0.2382334765      1.3989737352
F      -0.6171026106      3.2482359681     -2.3308830546     -0.1197706036      0.8067470844      0.1263837515     -0.5655569305
F       0.6090681508      1.4091888025     -2.8401694251      0.5878950919     -0.4444986427     -0.0775788731     -0.5764120447
F      -0.5456230332      2.5039197989     -4.5139295146      0.0087134154      0.2709268702     -1.0115729877     -0.5131257361
F      -1.6757605636      1.3049523224     -2.8980171527     -0.5752098515     -0.4363294914     -0.1427179400     -0.5743591319
