53
Properties=species:S:1:pos:R:3:forces:R:3:charge:R:1 energy=-300.8842525810189 homo_lumo=1.7250945965013444 dipole="1.1820371402842043 0.993076590734888 1.4374431413014748" free_energy=-300.8842525810189
N       3.3040435020      1.1985563637      0.8732891952     -0.0612121901      0.3853118735      0.2429995988     -0.5028126513
N       3.5209025586     -0.9446057870      0.8938191794      0.0832097255     -0.5559114325     -0.2396217405     -0.4809482026
C       1.7360835218      2.7336683946     -0.1928337164     -0.1306647517     -0.4766478917      0.4588955033     -0.1667247516
C       2.6568592225      2.4958138720      1.0122049083     -0.1931778432      0.1126103800     -0.4813611752      0.0063825008
C       1.9403332005     -2.6761029033      1.7731350552      0.0491020345      0.4635013245     -0.5317686115     -0.1996760512
C       3.2576204186     -2.3745107357      1.0630702372     -0.1684689025     -0.2888644654      0.4397210691      0.0036783391
C       0.7367748694      1.5907462621     -0.4020725189      0.2041531116      0.6561489875     -0.3786703814     -0.2393282485
C       0.7244969862     -2.1542818967      0.9932020648      0.0755780164     -0.6603164833      0.4321846462     -0.2452251959
C      -0.2541683666      1.9265311784     -1.5208879546     -0.0788697600     -0.6813451558      0.5285779604     -0.1471007315
C      -0.5227918746     -3.0118559872      1.2166712647      0.0310877062      0.7511668454     -0.3947947972     -0.1417467993
C       2.8802648111      0.0747605834      1.4563137930     -0.0558030987      0.1431890917      0.2894392252      0.5689982709
C       4.2141974549      0.8831463813     -0.1027307107      0.2536694478      0.0220803043      0.0013797561      0.2092705812
C       4.3351582151     -0.4691031063     -0.0969116622      0.3769191110      0.1329756332      0.0142002048      0.2716012073
C      -1.2900783801      0.8107621089     -1.6876736990      0.0322853259      0.4895848093     -0.4434622797     -0.2751611476
C      -1.6588798573     -2.5203762171      0.3135237535     -0.1231607314     -0.5981318430      0.3239974216     -0.2448904708
C      -2.2672851327      1.1245560667     -2.8181603071      0.1730364293     -0.1679795719      0.4012350241     -0.0404256056
C      -2.8954773434     -3.4086482497      0.4281002332      0.2666758466      0.3812722595     -0.0533039199     -0.0374456615
H       1.2036936223      3.6734488712     -0.0170175679     -0.1085926724      0.3144749444      0.0045451200      0.0849288958
H       2.3486781447      2.8549689135     -1.0909838214      0.1488301153      0.0812705030     -0.2721162934      0.0980822467
H       1.9558189873     -2.2805411766      2.7944464182      0.0492346060     -0.0446735514      0.3890646526      0.0541224526
H       1.8853866642     -3.7671377981      1.8464006568      0.0118748798     -0.2588281486      0.0865933729      0.1056383831
H       3.4296787036      3.2674020570      1.0682092796      0.2100745238      0.1348548260      0.1453930756      0.1023120569
H       2.0872056980      2.4890907136      1.9453078503     -0.0740890408     -0.0122302431      0.1934223003      0.0969605497
H       4.1026625263     -2.8121627993      1.6054008463      0.2347250765     -0.0369799459      0.1434810731      0.0943029192
H       3.2272407073     -2.7790914602      0.0459638560     -0.0707830221      0.0388142615     -0.2046576334      0.1413845503
H       0.1921517102      1.4109560912      0.5320718929     -0.2113145708     -0.0731193191      0.2709203005      0.0645903852
H       1.2762513308      0.6746707472     -0.6636205249      0.0696981276     -0.3116984416     -0.0748942620      0.2286904591
H       0.9547633108     -2.1476472482     -0.0766423756     -0.0150494929      0.1551074709     -0.2732020781      0.2299151573
H       0.5071686889     -1.1219502310      1.2858429082     -0.1391184931      0.2602822941     -0.0543262315      0.0963048587
H      -0.7600448360      2.8724195781     -1.2914738866     -0.1278379512      0.2930420379      0.0090347244      0.0523924822
H       0.2958241924      2.0606621750     -2.4585197338      0.1465997178      0.0474600860     -0.2833593751      0.0800008121
H      -0.8291269010     -2.9721740258      2.2690556212     -0.1331683096     -0.0922125570      0.3207324749      0.0411170899
H      -0.2933012991     -4.0554771137      0.9739560835      0.0669516842     -0.2984707467     -0.0666217105      0.0627684978
H       2.1701312315      0.0269370936      2.2616252499     -0.1861935756     -0.0633087769      0.0627420109      0.0921140796
H       4.6664853083      1.6325961270     -0.7269859524      0.0682023928      0.1586825818     -0.1637305075      0.0266284243
H       4.9033676139     -1.1274670618     -0.7274840144      0.0860395210     -0.1423957710     -0.1536831437      0.0377466218
H      -0.7772989478     -0.1313882111     -1.9033570322      0.1456699511     -0.2531783424      0.0476946542      0.2185215434
H      -1.8437504738      0.6880843410     -0.7499382965     -0.1082092294     -0.0566244200      0.2667989710      0.0765636873
H      -1.3049147248     -2.5097062144     -0.7221570647      0.1423778760      0.1249103244     -0.1817476109      0.1588520284
H      -1.9218836275     -1.4929272033      0.5887604382     -0.0119389272      0.2865931991      0.0078245507      0.0926825153
H      -2.8064797869      2.0533646626     -2.6202631145     -0.2056994782      0.2977125453     -0.0027922216      0.0011479647
H      -1.7344674171      1.2277891174     -3.7646412143      0.1305715794      0.0203040499     -0.3202474513      0.0198552782
H      -2.9922093796      0.3161665330     -2.9159596482     -0.2756851774     -0.2117106278     -0.1372984440      0.0282793548
H      -3.6858536075     -3.0332222329     -0.2226367882     -0.3341953145      0.0231394099     -0.1801014468      0.0251343348
H      -3.2681394178     -3.4224895592      1.4543818161     -0.1701027242     -0.0612843405      0.3068339909      0.0062380085
H      -2.6600598790     -4.4320526911      0.1317203125      0.0287881649     -0.3338870765     -0.0889834557      0.0159988871
C       2.0868961093     -1.3683491109     -3.9074516441     -0.2718074085     -0.0589710234      0.5390642205     -0.0880878502
C       1.6585036203     -1.5030120205     -2.4215340137      0.3704862539      0.0908092657     -1.2991571066      0.9523773909
O       0.4970100469     -1.8686216726     -2.1925757178     -1.1927354944     -0.4221284065      0.2049585769     -0.8285268105
O       2.5403447219     -1.2110016425     -1.5722468009      0.7234357695      0.2175554787      0.6182438989     -0.8708748294
H       2.9329492320     -2.0283658627     -4.0958340960      0.3223937191     -0.1612599876     -0.1163419510      0.0237766574
H       1.2608395564     -1.6287211339     -4.5660874845     -0.2263763872     -0.0754717855     -0.2442440646      0.0252515713
H       2.3997202897     -0.3412204826     -4.0942803128      0.1725838337      0.3147755675     -0.1094904850      0.0143639640
