49
Properties=species:S:1:pos:R:3:forces:R:3:charge:R:1 energy=-264.5032630195656 homo_lumo=3.4470432823168635 dipole="-1.0026413661100746 -0.06920315721884493 -2.1144918401255763" free_energy=-264.5032630195656
N      -1.0470079027      0.8924730287     -0.1772828252      0.0040735301     -0.0054967285      0.0047994334     -0.4814870780
C      -1.4532328475      1.9616861008      0.8341739081     -0.0138968719      0.0002905288     -0.0024380862     -0.0448621190
C      -2.0886851089      0.8074210438     -1.2713353928      0.0013591663      0.0096456825     -0.0094819663      0.0002277519
C       0.2556853117      1.3120467533     -0.8367406867     -0.0067705162      0.0064133303     -0.0160970413     -0.0128410009
C      -0.8870878971     -0.4321118609      0.5555874022     -0.0144912373     -0.0034617629      0.0086110479     -0.0843892431
C      -2.8551768294      1.7432990906      1.3739661659      0.0033377006     -0.0060952903     -0.0161342342     -0.1565091999
C      -3.4930609572      0.5586608549     -0.7452004201      0.0036002069      0.0043473081      0.0160272347     -0.1688691743
C      -3.8993463953      1.6329471921      0.2642715500      0.0077103386     -0.0019303878     -0.0001342641     -0.1608160553
C       1.4639969969      1.3688099156      0.0752075964      0.0040926089     -0.0079194104      0.0218003204     -0.2159142540
C      -0.3316633282     -1.5689482978     -0.2792015989      0.0015237934     -0.0035520996     -0.0197246732     -0.2175056204
C       2.6886351307      1.8544736114     -0.6984976604      0.0001456940      0.0032471622     -0.0144122334     -0.1596597153
C      -0.2292335375     -2.8281662521      0.5865896719      0.0019833026     -0.0001342228      0.0168387989     -0.1598697503
C       3.9310704266      1.9298600265      0.1886178328      0.0056963257      0.0007780106      0.0016014513     -0.2042756635
C       0.3500572914     -4.0198351364     -0.1719681136      0.0045006391     -0.0038743308      0.0032529614     -0.2046798558
C       5.1626142568      2.4156231208     -0.5697635885     -0.0107814277     -0.0001441663     -0.0087854327     -0.0647427707
C       0.4617960441     -5.2698031931      0.6978163123     -0.0064276440      0.0106612331      0.0101601885     -0.0666122698
H      -1.3810185578      2.9198588564      0.2932532746      0.0065245134      0.0095935742     -0.0067072384      0.0899232949
H      -0.7166869623      1.8969400375      1.6707376992      0.0020836491      0.0035176301      0.0005606761      0.2040053384
H      -1.7646571458      0.0220187406     -1.9686510478      0.0005646267     -0.0038300847     -0.0002060101      0.1300233788
H      -2.0480132265      1.7743380226     -1.7999389964      0.0008265530      0.0018054397      0.0077061014      0.1211452433
H       0.0513065227      2.3026926901     -1.2768661763      0.0024729660     -0.0052708008      0.0191155095      0.1167853607
H       0.4181259374      0.6091274111     -1.6697450722     -0.0024512023     -0.0009904752      0.0062743479      0.1200920982
H      -1.8841932973     -0.6942818302      0.9296332403     -0.0029260767     -0.0072960606     -0.0082119821      0.1632727922
H      -0.2671786191     -0.1988563194      1.4569135185      0.0025528928     -0.0076526850     -0.0127540834      0.2124382107
H      -3.0724766569      2.5947782455      2.0394401448      0.0038965083      0.0107734094     -0.0028316624      0.1098764583
H      -2.8608457696      0.8549028620      2.0266859455     -0.0056806692     -0.0043708270      0.0022818752      0.1096505010
H      -3.5597928177     -0.4443208025     -0.2911096003      0.0003175614      0.0030899382      0.0057850489      0.1033780272
H      -4.1735941498      0.5512529088     -1.6131561562     -0.0011589445      0.0082624997     -0.0063862662      0.0974354838
H      -3.9816002418      2.6033608963     -0.2603498251     -0.0014108857      0.0035807149      0.0026487458      0.0813304075
H      -4.8932113338      1.4077400628      0.6819860376     -0.0154651259     -0.0021176135      0.0066288100      0.0810367118
H       1.2756327339      2.0129916297      0.9493638234      0.0055539935     -0.0026550345     -0.0106597855      0.1538044895
H       1.6698039541      0.3806488480      0.5155572144      0.0056724004     -0.0030886595     -0.0194653003      0.1417268219
H      -0.9675428320     -1.7903781279     -1.1569510329      0.0060812687      0.0000140957      0.0034568032      0.0811347688
H       0.6744958305     -1.3246341963     -0.6594920379      0.0035170744     -0.0057187516      0.0153266223      0.1119350313
H       2.4910250318      2.8542958721     -1.1313457535     -0.0024639059     -0.0029081835      0.0096870981      0.0737866849
H       2.8915818910      1.1801107121     -1.5536967740     -0.0004803888      0.0022983702      0.0028614860      0.0718998291
H       0.3942738686     -2.6029808986      1.4704753023      0.0002641062     -0.0033315071      0.0011967384      0.1200988250
H      -1.2311263931     -3.0922763313      0.9740364139      0.0083416187      0.0056471090     -0.0062753049      0.0851724417
H       4.1235300748      0.9338893620      0.6251183179     -0.0016459084     -0.0027870787     -0.0095632517      0.0955050204
H       3.7220934115      2.5962659590      1.0436885329     -0.0032566815      0.0030976384     -0.0057980892      0.1033107044
H       1.3484027983     -3.7503999123     -0.5626851313      0.0007009647      0.0042678187      0.0066214990      0.0843763572
H      -0.2816460694     -4.2350998736     -1.0541191597      0.0009501561      0.0038388437      0.0041657937      0.0758590545
H       6.0445239054      2.4639688224      0.0862229033      0.0104294052      0.0001928781      0.0057861785      0.0402003237
H       5.4023942522      1.7415670420     -1.4086451392      0.0013135877     -0.0004188789      0.0032091381      0.0273193850
H       4.9979337461      3.4222060006     -0.9877031266      0.0004386231     -0.0000430760      0.0053020588      0.0292414357
H       0.8826223685     -6.1158460511      0.1345891326      0.0044353650     -0.0110579459     -0.0071573712      0.0362780602
H       1.1107430501     -5.0846436095      1.5685580604      0.0025767956      0.0011227981     -0.0028381378      0.0435716307
H      -0.5263478599     -5.5741083709      1.0789947123     -0.0011999795     -0.0003369868     -0.0055412249      0.0342782811
Cl      0.4559384291      0.8742480023      3.2737139145     -0.0170304706     -0.0000029651     -0.0001023280     -0.7470864335
