49
Properties=species:S:1:pos:R:3:forces:R:3:charge:R:1 energy=-264.4912541515109 homo_lumo=3.448142870690971 dipole="-1.00439248255882 0.00575451756383237 -2.1020695793127615" free_energy=-264.4912541515109
N      -1.0370853180      0.7702925289     -0.1692058283     -0.0002488392      0.0015480055     -0.0007468102     -0.4810607095
C      -1.4761859228      1.7850581860      0.8830908422     -0.0032332660      0.0032837839     -0.0042736380     -0.0464783725
C      -2.0813979521      0.6858879410     -1.2614209879     -0.0057688454      0.0081629787      0.0084955668     -0.0001083929
C       0.2441355254      1.2621409603     -0.8189846710      0.0026324388      0.0016590840      0.0083365396     -0.0120187064
C      -0.8259133751     -0.5753889962      0.5117774547     -0.0050969144     -0.0100056223     -0.0146992942     -0.0856940871
C      -2.8651669912      1.4948128231      1.4213993204      0.0002593298     -0.0000599239     -0.0055826485     -0.1558004769
C      -3.4766853660      0.3774232476     -0.7406358548      0.0045189019     -0.0018644036      0.0010280380     -0.1691774821
C      -3.9119211792      1.3965431379      0.3131346925     -0.0004146395     -0.0028521704     -0.0011893547     -0.1613332505
C       1.4363675412      1.4028960664      0.1063542776     -0.0017311795     -0.0016485610     -0.0122587304     -0.2142049531
C      -0.1632016599     -1.6371349059     -0.3445829946     -0.0050382819      0.0022356744      0.0106904688     -0.2164799467
C       2.6750348013      1.8200935571     -0.6859289497     -0.0014154714      0.0001206130      0.0058202536     -0.1589604135
C      -0.1104483021     -2.9533884747      0.4367890182      0.0080972840      0.0009450499     -0.0088344428     -0.1591757971
C       3.8963755410      1.9939711462      0.2166360917      0.0006866934     -0.0000179169     -0.0054998728     -0.2043340775
C       0.5851838829     -4.0695308159     -0.3391452139      0.0013144756     -0.0000257777      0.0064521697     -0.2039299280
C       5.1455286776      2.4018828587     -0.5587458303     -0.0002385093     -0.0005573868      0.0025445017     -0.0647314322
C       0.6396429689     -5.3810460219      0.4406730189      0.0040388948      0.0023379726     -0.0026128168     -0.0664263295
H      -1.4411943015      2.7656234651      0.3783710203      0.0010517835     -0.0008906813      0.0004661644      0.0907174694
H      -0.7317247200      1.7148524502      1.7117626498     -0.0005296330      0.0046815668     -0.0017994411      0.2049610885
H      -1.7349801689     -0.0674444524     -1.9834819358     -0.0052387408      0.0000393509     -0.0008403147      0.1306370065
H      -2.0736026637      1.6697551323     -1.7590962077     -0.0035492488     -0.0010089982      0.0015481583      0.1201646103
H      -0.0138603465      2.2329656986     -1.2739733394     -0.0011162751      0.0062477851      0.0120494350      0.1138243612
H       0.4583215430      0.5603953641     -1.6406419475      0.0012232251     -0.0095566443      0.0038127258      0.1248065048
H      -1.8202642416     -0.9136699439      0.8282168410     -0.0009789002     -0.0059860035     -0.0109975972      0.1610595572
H      -0.2506749137     -0.3498980723      1.4451321039      0.0049223846     -0.0102900683     -0.0039659501      0.2107393845
H      -3.1068864964      2.3087179854      2.1248099223      0.0033054705      0.0064184323     -0.0114603259      0.1093643386
H      -2.8348107955      0.5793290567      2.0353767804     -0.0039593762     -0.0009976800     -0.0082994579      0.1107360296
H      -3.5160873177     -0.6449750412     -0.3282965543      0.0066985297      0.0082283595      0.0048641256      0.1023807217
H      -4.1583985534      0.3862781993     -1.6078816679     -0.0031451468      0.0095594808     -0.0005612792      0.0982325351
H      -4.0302179077      2.3848983530     -0.1701747054      0.0045230334     -0.0037303393      0.0083634250      0.0811082329
H      -4.8957913106      1.1213821025      0.7259217248     -0.0024523132     -0.0031972555     -0.0000952252      0.0813388966
H       1.2304304556      2.1318776895      0.9049385288      0.0030369009      0.0126444627     -0.0057532955      0.1422285043
H       1.6311062390      0.4660743338      0.6513742385      0.0064130703     -0.0065043321     -0.0121852908      0.1512578202
H      -0.7013153974     -1.8077861852     -1.2955415624     -0.0066882685     -0.0026185760     -0.0082688702      0.0791053059
H       0.8690594317     -1.3437022849     -0.6003136459      0.0022591483     -0.0018722462      0.0055121344      0.1158484859
H       2.4832731558      2.7683652687     -1.2247313226     -0.0084712777      0.0089229780      0.0055140294      0.0712572444
H       2.9010184467      1.0635785931     -1.4621141265     -0.0015812384     -0.0110662759      0.0009314344      0.0744131624
H       0.4096160357     -2.7778516280      1.3953875622      0.0077445682     -0.0000204013      0.0069737966      0.1193999315
H      -1.1382279098     -3.2714095029      0.6929751762     -0.0071091404      0.0006812772      0.0019276164      0.0826521727
H       4.0774118065      1.0502736986      0.7609513470      0.0024941829     -0.0042600459     -0.0072162966      0.0993464460
H       3.6670454243      2.7465058746      0.9911856582     -0.0007543301      0.0044670026     -0.0048704484      0.0994834601
H       1.6110416463     -3.7464039035     -0.5938736843      0.0092285633     -0.0000294076      0.0065359334      0.0853475639
H       0.0618661809     -4.2286970380     -1.3005932147     -0.0031632184      0.0003888563      0.0050041424      0.0754668328
H       6.0137584113      2.5109288836      0.1088348331      0.0021030132      0.0018566658      0.0009599504      0.0404280946
H       5.4007960641      1.6497244423     -1.3230468918      0.0007004330     -0.0045392205      0.0024193507      0.0280137881
H       4.9948531714      3.3639459394     -1.0754576782     -0.0028484997      0.0032697956      0.0028732978      0.0282462113
H       1.1526409305     -6.1686548426     -0.1319253643     -0.0002737980     -0.0008947635      0.0011256300      0.0362998719
H       1.1770411950     -5.2484204257      1.3929853513      0.0062129915      0.0018078167      0.0014575882      0.0436377443
H      -0.3745902494     -5.7407351339      0.6777726124     -0.0010698269      0.0014323074     -0.0011403747      0.0331942250
Cl      0.4832946103      0.6493891804      3.2638489475     -0.0073501378     -0.0064445979      0.0174452994     -0.7457832469
