49
Properties=species:S:1:pos:R:3:forces:R:3:charge:R:1 energy=-262.50886272004686 homo_lumo=0.05111712254043351 dipole="-6.225103704049326 1.199551080375759 -0.3736651019077864" free_energy=-262.50886272004686
N      -1.0997813036      0.8118633346     -0.1878541668     -0.0347732724      0.3114128500     -0.2331601355     -0.5182012433
C      -1.6031440266      1.8478847625      0.7726298821     -0.8556327223      0.9776966630      1.3119587683     -0.0331369043
C      -2.0694839087      0.7027962554     -1.3260379942     -1.3805838678     -0.2276624344     -1.1268326634     -0.0268848269
C       0.1958392726      1.2935376657     -0.7789716907      1.8628435510      0.4763103276     -0.2000034968     -0.0496522750
C      -0.9284954656     -0.4979622490      0.5332804622      0.3567291831     -1.5455370670      0.3853132588     -0.0602708496
C      -3.0473210031      1.6041703096      1.2586832269     -0.0190734898     -0.1156481040     -0.1114943779     -0.1692258150
C      -3.5128668660      0.3962307437     -0.8945596881      0.0500036029      0.0332437182      0.0356733762     -0.1766677147
C      -4.0120933382      1.4528019176      0.0858119874     -0.3044947188     -0.0672003506      0.1331963712     -0.1659450649
C       1.3928476071      1.3933630252      0.1991982170     -0.4280833614     -0.1601868803     -0.1594436588     -0.2237905445
C      -0.3251132510     -1.6535446753     -0.3019971703     -0.0634946991      0.4500837086      0.0827044952     -0.2255114779
C       2.6321602023      1.9323061009     -0.5277289677     -0.0910756406      0.0194203324      0.0844967547     -0.1648972487
C      -0.1858771587     -2.9192386505      0.5547245121     -0.0108126519      0.1544149380     -0.1052029408     -0.1683530025
C       3.8361302240      2.0225122577      0.4160970162      0.0483032327     -0.0303844589     -0.0416376967     -0.1990122381
C       0.4142793082     -4.0739044461     -0.2554252397      0.0261457580     -0.0218697703      0.1119188256     -0.2150390686
C       5.0771145273      2.5168309597     -0.3224244309      0.1452248978      0.0901777523      0.0014665816     -0.0643144051
C       0.5414627908     -5.3346290914      0.5948260859      0.0738425540     -0.1919379430     -0.0521974064     -0.0877291802
H      -1.5758059239      2.8597379860      0.3056652832      0.2093888138     -0.5542235544     -0.2077764586      0.1445305209
H      -0.9616387702      1.8970591788      1.6785636009      0.1337022987     -0.2389219727     -0.5814015080      0.1628038720
H      -1.7476482184     -0.0583466321     -2.0663176030      0.3345154523      0.1399890875      0.4998062790      0.1553402413
H      -2.1008657147      1.6629519654     -1.8937086407      0.3769766513     -0.1636368748      0.5182688361      0.1484209550
H       0.0521397334      2.3027657262     -1.2308238088     -0.4047390462     -0.3635133168      0.2978717771      0.1454228939
H       0.4984582168      0.6430246870     -1.6299363483     -0.4019281516     -0.0514830661      0.3937813863      0.1572363829
H      -1.8963795437     -0.8620261368      0.9287771377      0.0121321666      0.4725812851     -0.3033549800      0.1767232606
H      -0.3004051595     -0.3551927828      1.4401566694     -0.0724034501      0.3776058980     -0.4658364394      0.1622976434
H      -3.3700389341      2.4706687560      1.8752735368      0.3310710515     -0.2038915153     -0.0762052747      0.1237907576
H      -3.1010763892      0.7112060403      1.9153997866      0.0675577236      0.1840787509     -0.1204943115      0.1085383731
H      -3.5948531631     -0.6181367002     -0.4530965812      0.0478309170      0.1698622675     -0.0893425996      0.1105143251
H      -4.1659945461      0.4071678449     -1.7937439839      0.3457007888     -0.1049766972      0.1050871283      0.1181126705
H      -4.1117992432      2.4284279325     -0.4390760387     -0.0181927329     -0.2036290283      0.0950057980      0.0958031944
H      -5.0153731770      1.1620527856      0.4646873644      0.2018230155      0.2021906140     -0.1402044341      0.1014236053
H       1.1554423293      2.0770074518      1.0392820283      0.0219090742     -0.1794670191     -0.0920344467      0.1083155697
H       1.6450848355      0.3947026583      0.6106780271     -0.0443485159      0.2174408233     -0.0232753006      0.1402104087
H      -0.9820459799     -1.8936698724     -1.1620995071      0.1562833315      0.1109982055      0.0692921557      0.1122771179
H       0.6802541280     -1.3825617356     -0.6825670285     -0.2231533180     -0.0190790126      0.0109548133      0.1491125569
H       2.4110376245      2.9437341495     -0.9346472498      0.0197557255     -0.1971175478     -0.0612402106      0.0698458238
H       2.8818056491      1.2567056417     -1.3759166085      0.0131744437      0.1698579014      0.1668513819      0.1021844672
H       0.4704855862     -2.7036819689      1.4266147222     -0.1859998606     -0.0898465275     -0.1410361374      0.1116369139
H      -1.1883062605     -3.2193945800      0.9327365298      0.2244915661      0.0405357109      0.0382361721      0.0814033688
H       4.0490324649      1.0212593182      0.8478139491      0.1358073221      0.0675992632     -0.1382831296      0.1263120246
H       3.6090682161      2.7224502802      1.2493287521     -0.0879827257     -0.1410629397     -0.0898087827      0.0526127373
H       1.4223400026     -3.7872800036     -0.6265274186     -0.2779598903      0.0130140449      0.0021173778      0.1192629124
H      -0.2342193471     -4.2952975828     -1.1309553063      0.1797963316      0.1543948085      0.1004857568      0.0838473918
H       5.9401562830      2.5428659054      0.3756461282     -0.1902911430     -0.1272300494     -0.3465226612      0.0599893780
H       5.3236657159      1.8352127777     -1.1645285739      0.0636731859      0.1202074522      0.3882609042      0.0565561115
H       4.9073598749      3.5408138389     -0.7179874542      0.0546565952     -0.1567457824      0.0384821691      0.0005195087
H       0.9805608083     -6.1516832482     -0.0154838573     -0.1201995621      0.1504201435      0.3017318743      0.0579252623
H       1.2036371157     -5.1472075128      1.4668396152     -0.2033703398     -0.1462505499     -0.2212599170      0.0577361596
H      -0.4577432116     -5.6589845631      0.9560342602      0.3039967991      0.0137501088     -0.0213064648      0.0330491154
Cl      6.2080818466     -1.0025756427      0.3525653499     -0.3787428727      0.1842158071     -0.0236068089     -0.8851236652
