39
Properties=species:S:1:pos:R:3:forces:R:3:charge:R:1 energy=-222.52159099542308 homo_lumo=2.5158213523284876 dipole="-0.23223610019191038 1.4527307985712212 2.2124787870465346" free_energy=-222.52159099542308
N       2.0564796643     -1.7379770787     -0.0610668755     -0.1068083563     -0.1480877711     -0.0781876863     -0.4905246518
C      -1.5996756549     -0.7297311986     -0.3789505685      0.3465288884      0.4639179619      0.5864474843     -0.1670275274
C      -0.1680511652     -0.7157254524      0.1650200416     -0.1820649151     -0.4169763029     -0.4499907128     -0.1614264389
C      -2.4752624843      0.2976455224      0.3443634154     -0.2726730683     -0.5346604772     -0.6406991964     -0.1554726203
C       0.6832866559     -1.7446512828     -0.5783040226     -0.4670893984      0.5324826530      0.3662044438     -0.0492082157
C      -3.9065403629      0.2849638334     -0.2018268651      0.2145607369      0.4482000934      0.5483740194     -0.1987354825
C      -4.7859345239      1.3052464621      0.5186041687      0.1172656315     -0.3390151046     -0.3099206106     -0.0450994655
C       2.4941189227     -2.7529465636      0.6965063286      0.2500966773     -0.1772339553      0.3095903100      0.3052514826
C       2.8699321637     -0.7292277662     -0.4094341497      0.3344506144      0.2752324425      0.0280463018      0.2903661642
C       3.7961488120     -2.7735933778      1.1531112211      0.0141834847      0.0804725645      0.0522152685     -0.0080988690
C       4.1777115546     -0.7019121188      0.0262409067     -0.0078069384     -0.0218222264      0.1400658005     -0.0026014890
C       4.6562054893     -1.7379713928      0.8165012159     -0.2356790287      0.0409719911     -0.0506941367      0.0487495793
H      -2.0254259007     -1.7303403026     -0.2518810133     -0.1348109878     -0.2707530679     -0.0228564547      0.0941024270
H      -1.5805778872     -0.5077245400     -1.4506360580     -0.0319731410      0.0057245804     -0.3111958292      0.0981564854
H       0.2674247427      0.2808843095      0.0406670005      0.0872065874      0.2929343819      0.0068840246      0.0973918526
H      -0.1702901142     -0.9510548874      1.2344554196      0.0069935836     -0.0188928601      0.3139737357      0.0905816045
H      -2.4899512138      0.0733205248      1.4166237785     -0.0009449216     -0.0174753466      0.3118203702      0.0819391422
H      -2.0437992512      1.2967001729      0.2183314814      0.1087187564      0.2852952012      0.0076739988      0.0819386276
H       0.7370994368     -1.5201939055     -1.6465821617      0.0719942706     -0.0682622445     -0.1332630832      0.1779630692
H       0.2779016960     -2.7493565061     -0.4519650713      0.0473233133     -0.1766648364     -0.0417030675      0.1447266259
H      -3.8882792544      0.5112489144     -1.2730349694      0.0120582049     -0.0189430537     -0.3020843360      0.0855615794
H      -4.3334139816     -0.7159031029     -0.0785722848     -0.0859764217     -0.2849511583     -0.0344553831      0.0846674761
H      -4.3862260062      2.3123149928      0.3917165521      0.0821916301      0.3263031950     -0.0104820078      0.0279958367
H      -5.7969580872      1.2791319322      0.1120103587     -0.3612695568      0.0858900877     -0.0450320941      0.0342036480
H      -4.8345380996      1.0830843856      1.5855535241     -0.0466909220     -0.0263649019      0.3394277201      0.0273365033
H       1.7936014812     -3.5499800812      0.9081490051     -0.1373909038     -0.0582527618     -0.0384959125      0.1055590769
H       2.4582165141      0.0373421150     -1.0527642695     -0.1208894655      0.0532308740     -0.0640049499      0.1070649390
H       4.1343229086     -3.6110365579      1.7495149761      0.0358818804     -0.2087381738      0.1359336420      0.0545673964
H       4.8215059805      0.1126322522     -0.2791922112      0.1156697752      0.2039708271     -0.0967767275      0.0545257156
H       5.6865337962     -1.7452107477      1.1501252549      0.2580574124     -0.0119099670      0.0732577776      0.0539377546
N       2.8372308191     -4.0766623240     -3.6204721320     -0.0797195054      0.0550286167      0.0811322780     -0.8458985840
S       1.5951736596     -4.5179109157     -2.7368742294     -0.0348252454     -0.1168310548     -0.4727636837      1.9579042247
S       3.5741314284     -2.7453720910     -3.1946655865      0.4119193174     -0.2857686295     -0.1593163266      1.9685228342
F       0.4572840492     -3.3783985355     -3.0396693314     -0.4494770482      0.4071290403     -0.2880266850     -0.4768071779
F       4.2857598696     -3.1175219055     -1.7575659169      0.2582811586     -0.2600830476      0.4009458458     -0.4787968086
O       1.0543636380     -5.7147649146     -3.2773281696     -0.6284517542     -1.3452768782     -0.6948570261     -0.7104410439
O       1.7585457704     -4.4181510517     -1.3094979323      0.2637205719      0.1740680377      1.2855376970     -0.7846216481
O       2.7382333628     -1.6253242809     -2.8399935074     -0.9298090006      0.8827172109      0.2507740653     -0.7843544343
O       4.6671740279     -2.5183786196     -4.0741058689      1.2772480834      0.1933940604     -0.9934988738     -0.7138995887
