43
Properties=species:S:1:pos:R:3:forces:R:3:charge:R:1 energy=-229.41455643594506 homo_lumo=4.6029328467001305 dipole="-1.5935251655468585 2.2546592398220815 -4.192544362917603" free_energy=-229.41455643594506
N      -0.8388892858     -0.2067492744      0.0269746324      0.0876120093      0.1591746687     -0.1055203496     -0.5197569305
C      -1.1821562705     -1.2455344125     -0.9934855072      0.0078724956     -1.6173622978     -1.7491088054     -0.0072573123
C      -1.9678950595     -0.2386885328      1.0066424859     -1.6473350729      0.4806143941      1.7573465204     -0.0195442676
C       0.4365943587     -0.5726884368      0.7259204693      1.7519061853     -0.3311505792      0.4974050096     -0.0805040803
C      -2.6009631154     -1.7182614451     -0.7362920134     -0.6078012253      0.0752701018     -0.5946859291     -0.1399578565
C      -2.7984927866     -1.4766959717      0.7333753953     -0.0500392691     -0.6619111538      0.6192089193     -0.1450612156
C      -0.7659362447      1.1381230989     -0.6325834349      0.2709950192      1.5301860426     -0.2823497167     -0.0418476473
C       1.6957350763     -0.5270109027     -0.1740347458     -0.4483572516      0.0733111187      0.1447667306     -0.2182040591
C      -0.3925217246      2.2978653468      0.3218476750      0.0276031593     -0.3071677604      0.0774880663     -0.2557015766
C       2.9170914576     -1.0877207551      0.5633591937      0.0201632388     -0.0871579266      0.0970986205     -0.2184230240
C      -0.5003482698      3.6460924487     -0.3855663796     -0.0724700257      0.0611105009     -0.1616645472     -0.0909042856
C       4.1684730431     -1.0159278635     -0.3067893376      0.0895651012      0.0027926533     -0.0260497349     -0.0839441932
H      -1.0930655427     -0.8796145798     -2.0419529247      0.2581311846      0.1859360470      0.6050927654      0.1315856264
H      -0.5260271391     -2.1431816436     -0.9207317143      0.1120298883      0.6968510097      0.3192694592      0.1598878789
H      -1.6313817848     -0.2360750552      2.0684128178      0.3015395667      0.0943091883     -0.5575887206      0.1805131012
H      -2.6490451493      0.6364428338      0.8916374174      0.6797143930     -0.0801572652     -0.2880866027      0.1376270013
H       0.3432608978     -1.5982219456      1.1529703799     -0.3088745717      0.3927667777     -0.1426487205      0.2113410532
H       0.6096110276      0.0945310919      1.5994748667     -0.3892206561     -0.1558279406     -0.3540978118      0.1861652610
H      -3.3170509067     -1.0992273712     -1.3207666792      0.1217768243     -0.2839917149      0.0663749240      0.0928357157
H      -2.7356475878     -2.7914389733     -0.9940024259      0.0268450518      0.4644148531     -0.1350320945      0.1033777665
H      -2.3989452088     -2.3359235718      1.3164776597     -0.2301598089      0.2517602946     -0.0404071272      0.1387602468
H      -3.8714796311     -1.3210920226      0.9799437558      0.4718110752     -0.1049049578      0.1527428965      0.0990863417
H      -0.0341660441      1.1233851225     -1.4705374364     -0.1218409458     -0.3487720986      0.3968900941      0.1567216430
H      -1.7476946873      1.3729511838     -1.1063089561      0.1753331380     -0.4217062573      0.3196386129      0.1451903615
H       1.5343748987     -1.1137690043     -1.1025276467      0.0168991098      0.1393644911      0.0973690002      0.0988765697
H       1.9187581214      0.5217104965     -0.4609542676     -0.0908913956     -0.1787383641     -0.0583669934      0.1112772440
H      -1.0596989652      2.3125388776      1.2082801012      0.1915428723     -0.1445457531     -0.1396905780      0.1292969454
H       0.6524977339      2.1881248445      0.6775755395     -0.2886487690     -0.1572487086      0.0121736105      0.1406912467
H       3.0939037402     -0.5034518217      1.4930382965     -0.1784234113     -0.3360954731     -0.1188979728      0.1276607773
H       2.7349816013     -2.1489017313      0.8408744074     -0.0273646083      0.3727350434      0.1667360690      0.1310554804
H       0.1897352173      3.6806732371     -1.2554920212     -0.2515851513      0.1179951634      0.1974311091      0.0522192518
H      -1.5410030991      3.8186811358     -0.7339286742      0.3293483006      0.0715031854      0.0262862755      0.0473529336
H      -0.2235886694      4.4583209882      0.3194141204     -0.0980882397     -0.2190823738     -0.2989516541      0.0746077958
H       5.0367463510     -1.4145948792      0.2583699258     -0.1984271906      0.1350853436     -0.2575066875      0.0682011670
H       4.0328551601     -1.6235075273     -1.2270926955      0.1515236495      0.2082019611      0.1833187878      0.0340659547
H       4.3819325401      0.0370327922     -0.5900164910      0.0418872370     -0.3083775185     -0.0147679270      0.0318483615
P       1.0030749669     -2.7434539449      4.8252832999      0.5723177488     -0.4836629284      1.0833260971      2.1110857370
F      -0.5621513930     -2.4961161363      4.1618514787      0.9896115427      0.0603121697      0.3622530277     -0.5275748443
F       1.7719885174     -2.0769185268      3.4437306931     -0.9649229072     -0.3379797204      0.3689342269     -0.5291491004
F       0.9064826165     -1.1680083946      5.5024931084      0.2904547169     -1.3139020761     -0.6529542991     -0.5105600584
F       2.5904394771     -3.0272406096      5.4169769986     -1.4647780525      0.3354842634     -0.4694807156     -0.5037457164
F       0.4120385513     -3.3798932372      6.3073297606      0.1357505006      0.5891028122     -1.6970777098     -0.5000753590
F       0.9426421547     -4.2982627277      4.0977373282      0.3169945440      1.3814607844      0.5937838748     -0.5091199349
