43
Properties=species:S:1:pos:R:3:forces:R:3:charge:R:1 energy=-230.70309931384472 homo_lumo=6.132144580603135 dipole="-2.4991833880741954 -0.11736080819872703 1.9486960327886724" free_energy=-230.70309931384472
N       0.1886080377     -0.5966481549     -0.2341004644     -0.1516938297      0.1733701726     -0.1414942181     -0.4989311593
C       0.5767917063     -1.8048474854     -1.0346895283     -0.0695848793     -0.6575894207      0.0654409689     -0.0210923851
C      -1.2719546763     -0.8113168884      0.0155344184     -0.3184777516     -0.3125443387      0.1646992624      0.0130021306
C       0.9207328257     -0.5749286018      1.0813483193      0.6025150009      0.1679272290      0.0489985581     -0.0212655911
C      -0.2186329351     -2.9607574554     -0.4394463665      0.0168532207      0.1626455506      0.0545442593     -0.1376842556
C      -1.4306492154     -2.3124393238      0.2487057943     -0.0027998710      0.1112654176      0.0193082189     -0.1301150171
C       0.4284537152      0.6455812004     -1.0387355123     -0.0591036380      0.6987075969      0.4491470937     -0.0750906502
C       2.4095693680     -0.2513155567      0.9780893839     -0.4752248185     -0.2752546777      0.5328606680     -0.2521461347
C      -0.0210024726      1.9324101540     -0.3538262298      0.1450934259     -0.2198759514     -0.3773752309     -0.2417047941
C       3.0785331444     -0.4657121525      2.3403011517      0.1690664675      0.1992977446     -0.4675213739     -0.1955853475
C       0.3058507192      3.1153036663     -1.2660963178     -0.1105986874     -0.2637266727      0.3234276126     -0.0478367067
C       4.5655649714     -0.1248767978      2.2637852465     -0.4014472123     -0.1391145931      0.1737461466     -0.0475824069
H       0.2887725204     -1.6178034837     -2.0699714895      0.0226781698      0.1345111994     -0.1472291509      0.1444797385
H       1.6543362897     -1.9462725270     -0.9924921226      0.2061738219      0.1002163631     -0.1872942290      0.2143195729
H      -1.5986888838     -0.2058245953      0.8608258700     -0.0552812851      0.2107662418      0.1264422713      0.1128582282
H      -1.8076862738     -0.4975921766     -0.8832443097     -0.0283639181      0.1186276533     -0.2280523905      0.1251699261
H       0.7840721863     -1.5614735632      1.5308739911     -0.0857620354     -0.2301873683      0.0787754417      0.1591723168
H       0.4197256825      0.1596237992      1.7174255873     -0.1795193717      0.1243383440      0.1012590424      0.1163859284
H      -0.5262985374     -3.6478312711     -1.2290790113      0.0246548726     -0.2092066251     -0.1710162982      0.0986756779
H       0.3807702213     -3.5209721862      0.2809352752      0.1325072498     -0.2007555120      0.1243923343      0.0758379983
H      -1.4404181910     -2.5399645723      1.3166825029     -0.0817634958     -0.0693892155      0.2465711836      0.0795908233
H      -2.3719498076     -2.6596771510     -0.1803598071     -0.2709239341     -0.0663351192     -0.0059047339      0.0939575256
H       1.4952130979      0.6827959304     -1.2557768334      0.1660825737     -0.0257292028     -0.1359816178      0.2867902160
H      -0.1048007337      0.5164086330     -1.9834283475     -0.0755765306     -0.1171675076     -0.2051615304      0.1235792079
H       2.8944347614     -0.8902461481      0.2393742192      0.1453817473     -0.0377555470     -0.2153071442      0.1988157985
H       2.5532733761      0.7853205050      0.6668720980      0.0729124168      0.2025950518     -0.1272764708      0.1345474033
H      -1.0967833628      1.9077883025     -0.1542661159     -0.2882251371      0.0259157556      0.1166044297      0.0860359593
H       0.4986128692      2.0626509106      0.5990052372      0.1255011317      0.0254836435      0.2789751899      0.1031926690
H       2.5928380312      0.1646983815      3.0937407728     -0.1410703581      0.1075994677      0.2569871750      0.0686828670
H       2.9558633471     -1.5102870397      2.6469898185     -0.0686090026     -0.2614198608      0.1216605341      0.0720017723
H       1.3754730106      3.1485868215     -1.4723403739      0.3171230499      0.0349319444     -0.1216009329      0.0653766353
H      -0.2287681358      3.0272765039     -2.2120184201     -0.1239782673      0.0298343612     -0.3129568214      0.0376629983
H       0.0120479422      4.0463340010     -0.7827848177     -0.0770530825      0.3152521244      0.0741257354      0.0363625579
H       5.0385828987     -0.3038835372      3.2291781847      0.2348000783     -0.0173618990      0.2710024984      0.0300640453
H       5.0580749334     -0.7408352842      1.5114992599      0.1835003697     -0.1379464393     -0.2414918660      0.0548632604
H       4.7016921794      0.9232329164      1.9961021804      0.1039922778      0.2973565588     -0.1021650263      0.0377071970
P       3.7091742861     -0.4531882446     -2.8646228202     -0.3729246742      0.0298492568      0.0139651709      2.1965981340
F       3.8855154279     -1.5964214650     -4.0085538788      0.0485485236     -0.1806973784     -0.1575346989     -0.4955022890
F       3.5568089733     -1.6488904957     -1.6945980445      0.1428412795     -0.1813467928      0.0704858184     -0.5361335335
F       5.3103382750     -0.3883640789     -2.5952365750      0.2480408013      0.0039887882      0.0664687321     -0.4941988093
F       3.4575402907      0.6820996166     -1.6521291808      0.0984153218      0.1261379649     -0.0243321473     -0.5352391374
F       3.7823852271      0.7434777830     -3.9654054885      0.0330684607      0.1823790501     -0.1685439011     -0.4966895612
F       2.0352220381     -0.5231962858     -3.0641174754      0.1982315195      0.0204066413     -0.2416485635     -0.5389328091
