43
Properties=species:S:1:pos:R:3:forces:R:3:charge:R:1 energy=-230.7986579854814 homo_lumo=6.359248725322873 dipole="2.4024845101125223 -2.029054847709886 0.6133682468494546" free_energy=-230.7986579854814
N      -1.0005930241      0.3596726547      0.3070137355      0.1075351074      0.1669956840     -0.0074964806     -0.5021173532
C      -1.7274034144     -0.4530144209     -0.7321597173     -0.2616692441     -0.3621679137     -0.3004451878      0.0144707166
C      -1.9703677229      0.4552738354      1.4518844922     -0.4245674691     -0.2294229844      0.3796752276     -0.0345240165
C       0.2295954493     -0.3596872701      0.7771504830      0.4579211477     -0.0188766545     -0.4023031703     -0.0154710523
C      -2.7846705077     -1.2809690561      0.0025703637      0.0452258735     -0.0543391898     -0.0156245780     -0.1397179039
C      -2.6814040116     -0.8866502436      1.4781573209      0.1629813075      0.1121658336     -0.0724573048     -0.1289339929
C      -0.6900920646      1.7180136015     -0.2528844178      0.2860085323      0.4563055886      0.3630294085     -0.0750557930
C       1.3704593942     -0.4161161147     -0.2379908506     -0.1241290722     -0.2927337225      0.6159775401     -0.2109365030
C      -0.0733971349      2.6824280189      0.7552125295     -0.1041638048     -0.0805043414     -0.4479167078     -0.2450076561
C       2.4584191350     -1.3716838324      0.2684712660     -0.0074965062      0.3249374759     -0.5208201647     -0.1972463556
C       0.0492982344      4.0611726219      0.1064533561     -0.0046018944     -0.3255546994      0.1980419007     -0.0489454285
C       3.6338005270     -1.4299150758     -0.7046989886     -0.2836438534     -0.0676286820      0.3756197619     -0.0481269883
H      -2.2005097633      0.2424229710     -1.4253328291     -0.0269752255      0.1865733055     -0.0713073266      0.1615768887
H      -1.0098824411     -1.0663812187     -1.2765529118      0.2463349360     -0.0639135037     -0.0654797938      0.1181230416
H      -1.4331710322      0.6820646325      2.3721662046      0.1882150510      0.1014830374      0.1626769529      0.0910267900
H      -2.6714648666      1.2578366585      1.2233700940     -0.0455296767      0.1550772356     -0.0907652616      0.2500360617
H      -0.0814357826     -1.3732762228      1.0427284053     -0.1129566704     -0.2069344044      0.0817770941      0.1549826117
H       0.5739187261      0.1428168030      1.6842724023      0.0014155651      0.1039939833      0.1952673419      0.1353398911
H      -3.7706758895     -1.0223246124     -0.3866921537     -0.1902249534      0.0487163053     -0.1137707441      0.1294523328
H      -2.6206516122     -2.3505357557     -0.1381526297     -0.0182709324     -0.2717427077     -0.0464684915      0.0662812737
H      -2.1110364272     -1.6266958484      2.0458883562      0.0967018109     -0.1863569184      0.1802117270      0.0645636913
H      -3.6658935821     -0.7846430720      1.9360549326     -0.2120260253      0.0260529230      0.1846321445      0.1002535208
H      -0.0320504286      1.5749813844     -1.1124507126      0.1511248512     -0.0894605183     -0.2163738188      0.1141276466
H      -1.6354177479      2.1281900614     -0.6069191494     -0.1002257494     -0.0076712050     -0.0843824081      0.2755210502
H       1.0100880068     -0.7635846135     -1.2097746000     -0.0639623098     -0.0712669128     -0.2850359984      0.1089327971
H       1.8046220560      0.5775155379     -0.3739039201      0.0923945720      0.2612421083     -0.0801218552      0.1233234892
H      -0.7193307747      2.7628802628      1.6324322627     -0.1613696845      0.0121538395      0.2081064820      0.1247395691
H       0.9118149390      2.3339269351      1.0806539864      0.2846785067     -0.0946419054      0.1241831631      0.0811797941
H       2.8105147626     -1.0333475576      1.2484592449      0.0633811474      0.0340775371      0.2958127862      0.0899267917
H       2.0343409653     -2.3737316005      0.3914314627     -0.1127001082     -0.2533450663      0.1041920334      0.0856980173
H       0.6882211484      4.0157016086     -0.7762464071      0.2048948425      0.0494677402     -0.2760082524      0.0184498670
H      -0.9352412519      4.4218840650     -0.1896965175     -0.2743560216      0.1174551974     -0.0979997013      0.0936930541
H       0.4820900890      4.7640460631      0.8172815419      0.1526228060      0.2614360038      0.1545693704      0.0280208619
H       4.3932699688     -2.1138223164     -0.3268458454      0.3099274945     -0.1892121604      0.0228613652      0.0426213882
H       3.3034012344     -1.7817051443     -1.6825969983     -0.0473256670     -0.1022704781     -0.3200534186      0.0346440046
H       4.0815543855     -0.4426589950     -0.8227196374      0.1772418551      0.2799746578     -0.0772179335      0.0360560098
P      -4.2306693697      3.0829277886     -0.5194866641      0.0718329140     -0.1254941830      0.0262564266      2.1958015630
F      -5.3685815982      2.7298888189      0.5958321393     -0.1594526166     -0.0553939734      0.1598882194     -0.5009079309
F      -3.0858683323      3.1900606771      0.7155745511     -0.1105439979      0.0933626733      0.0715742459     -0.5374246460
F      -3.8671207818      1.4270406322     -0.6276200595     -0.1346298801      0.0776011665     -0.0086077462     -0.5445993902
F      -3.0019520230      3.3591359625     -1.6044139042      0.0824953201      0.0522581793     -0.1335794919     -0.5235191148
F      -5.2943964634      2.9174701952     -1.7357309796     -0.1625957007     -0.0262787296     -0.1869052546     -0.4929473142
F      -4.5150520064      4.6756914435     -0.3950966120     -0.0395165774      0.2538803788      0.0167878992     -0.4933612847
