44
Properties=species:S:1:pos:R:3:forces:R:3:charge:R:1 energy=-240.791605607058 homo_lumo=4.074190338495946 dipole="-2.3260300821766573 0.35337242309215017 1.7499675010002942" free_energy=-240.791605607058
N       0.0330263378     -0.1370413889     -0.7961542184      0.0049304739      0.0082890839      0.0040651419     -0.4925155099
C       0.2109261551     -1.4593641533     -1.5283726370     -0.0132487667      0.0013796151      0.0032460229     -0.0335906843
C      -1.4645967627     -0.0849775937     -0.5915447245     -0.0008549714      0.0014327700      0.0100887920      0.0060372052
C       0.7187817933     -0.1797418415      0.5596825820      0.0147108267     -0.0030197088     -0.0064861559     -0.0248874935
C      -0.7718301875     -2.4148645953     -0.8524412050      0.0035853080      0.0089492563     -0.0078406544     -0.1546659038
C      -1.8736652430     -1.5143278825     -0.2336494865     -0.0070774581     -0.0063549510     -0.0040289598     -0.1455984934
C       0.5271567017      1.0216614368     -1.6386133598     -0.0032097043     -0.0003896659     -0.0104276755     -0.1176181133
C       2.2334668623     -0.1772684696      0.5069997020     -0.0103560344      0.0014205753      0.0135659897     -0.2499994971
C       0.2835379091      2.3795240401     -1.0147856687      0.0153022410      0.0152488034     -0.0064681097     -0.0977171350
C       2.8171623772     -0.3570709828      1.9094442848      0.0082230747      0.0005128887     -0.0058387311     -0.1592988370
C       4.3451401583     -0.3686027540      1.8772245267      0.0064849766     -0.0025785698     -0.0030679246     -0.2083949982
C       4.9664946055     -0.5397155747      3.2596074468      0.0105427312     -0.0021499158     -0.0014238755     -0.0656173225
H      -0.0446642714     -1.2607299052     -2.5788543180      0.0032327297      0.0051031614      0.0005957280      0.1500215046
H       1.2669560787     -1.7616636026     -1.5106101361      0.0097511960     -0.0031330318     -0.0109449589      0.2104721912
H      -1.7039295954      0.6637109897      0.1737108733     -0.0154764008     -0.0013886352     -0.0109146638      0.1158165601
H      -1.8921773765      0.2280565681     -1.5554566235      0.0015959692      0.0023957121     -0.0063386208      0.1317989997
H       0.3367648604      0.6850105730      1.1230656514     -0.0018647894      0.0047261739      0.0130956332      0.1201449655
H       0.3509065389     -1.0893621070      1.0564687715     -0.0004060924     -0.0070289089      0.0053790028      0.1623427070
H      -1.1780313046     -3.1179522267     -1.5932148586      0.0075156885      0.0034458607     -0.0042800463      0.1064190871
H      -0.2747257236     -3.0180628814     -0.0790899430      0.0059219056     -0.0032044560      0.0078077738      0.0847283824
H      -1.9325853715     -1.6454726520      0.8566619107      0.0059097076     -0.0103612015      0.0023364174      0.0852161399
H      -2.8722805666     -1.7332831945     -0.6379766520      0.0067364984      0.0025303904     -0.0051845930      0.1009549748
H       0.0156285021      0.9203581780     -2.6071728524     -0.0036583177     -0.0040046733      0.0009587373      0.1317945724
H       1.5974503535      0.8585253644     -1.8305641480      0.0027422916     -0.0008107245     -0.0042343238      0.2595300350
H       2.6097942510      0.7639377330      0.0761659864      0.0042428097      0.0029413489     -0.0074876422      0.1386211994
H       2.6103825790     -0.9758572614     -0.1522177933      0.0072068315      0.0036095891     -0.0119798389      0.1911193300
H      -0.7824037602      2.5978650442     -0.8545747634     -0.0079347256      0.0018233007      0.0098698532      0.0381253083
H       0.8255230405      2.5092331248     -0.0669465582      0.0003827354     -0.0071089179      0.0044145584      0.0522806695
H       0.6765731694      3.1357345058     -1.7113198349     -0.0006088004     -0.0123391322     -0.0016774605      0.0873015164
H       2.4533861329     -1.3053081419      2.3496046145     -0.0011249693     -0.0029459872     -0.0021293377      0.0745916014
H       2.4680790108      0.4550119145      2.5764242078     -0.0012961957     -0.0051343764      0.0003048297      0.0725507351
H       4.6783275943     -1.1793726016      1.2055860677      0.0107729067      0.0053830653      0.0054924084      0.1093754076
H       4.6991805157      0.5711782576      1.4174638825      0.0096941368     -0.0050434394      0.0055148434      0.0985936507
H       6.0659957290     -0.5455082019      3.2040822065     -0.0137334813     -0.0021079941      0.0002448156      0.0439856459
H       4.6684926938      0.2801579594      3.9334230861     -0.0066162845     -0.0019953280      0.0054286424      0.0279447341
H       4.6491710680     -1.4881933523      3.7223526221     -0.0066363100     -0.0038045799      0.0053092399      0.0302502016
S       3.2736968724     -0.6963737940     -3.1329960773      0.0125479483     -0.0010846202     -0.0101951091      1.7222828523
O       3.3199114243     -1.8539312516     -2.2085801787     -0.0105547769     -0.0104735887      0.0151951755     -0.8064016008
O       3.6440542804      0.5933876613     -2.5135213662     -0.0063685355      0.0186707384      0.0129095091     -0.7954812370
O       2.0776504829     -0.6469218845     -3.9957760776     -0.0251429467      0.0030153239     -0.0091559186     -0.7966831788
C       4.6735805064     -1.0463466999     -4.3331574556     -0.0219092554      0.0062404384      0.0140047108      1.1260288957
F       4.4529669016     -2.2060348207     -5.0075076692      0.0001647123     -0.0074296594     -0.0080983347     -0.4434428340
F       5.8623466196     -1.1598882476     -3.6835618393      0.0037249932     -0.0018381298      0.0064315407     -0.4433624136
F       4.7872271464     -0.0463381540     -5.2466048419      0.0021561235      0.0086120999     -0.0080564313     -0.4430538207
