42
Properties=species:S:1:pos:R:3:forces:R:3:charge:R:1 energy=-237.61633970729991 homo_lumo=3.164145433164634 dipole="-1.529103620050963 0.8042729577591354 -0.920289688856421" free_energy=-237.61633970729991
N      -0.7248013728      0.6192557232      0.4519414727      0.0338451143      0.3713055829     -0.2830636455     -0.4949018733
N      -1.4610115385     -1.3575459374      0.8970724852     -0.2252358248     -0.4116588610     -0.1816934360     -0.4955560371
C       1.4311359499      1.7538031171      0.1131953110     -0.2654653811     -0.2308752927     -0.5305655228     -0.1701311518
C       2.1967494507      0.6558672721     -0.6276996233      0.1233866231      0.4629246045      0.5824501071     -0.2009998278
C      -0.0661390297      1.7347171606     -0.2196932623      0.5733848785      0.0828344102      0.2318544426      0.0010602641
C       3.6368192285      0.5469985048     -0.1182366401     -0.3530830645     -0.5490723209     -0.5627413913     -0.1583765048
C       4.3511330527     -0.6448584134     -0.7623425091      0.3264556613      0.4173931262      0.4347921739     -0.2066460863
C      -0.8848809564     -0.6076113986     -0.0411538010     -0.1175017764      0.0942777502     -0.2086451331      0.5893622223
C      -1.1610818091      0.6371053292      1.7483319442     -0.2374845311      0.0843456424      0.1767722398      0.2401717957
C      -1.6257687834     -0.6092335807      2.0269906930     -0.2422043305      0.1678268374      0.2360287575      0.2349028526
C      -1.6765120312     -2.7991212653      0.7420081880     -0.2186017774     -0.3431621491      0.2932798367     -0.0441841387
C       5.7929265222     -0.7589525186     -0.2711297584     -0.3611664004     -0.0732632669     -0.2534470155     -0.0431243477
C      -2.4493264377     -3.3982589144      1.9034417229      0.1410743196      0.2641986691     -0.2816085126     -0.1094459214
H       1.8225967185      2.7380687243     -0.1600972025      0.1013002339      0.3151586044     -0.0695915298      0.0711448138
H       1.5515071858      1.6222936108      1.1915214657      0.0439755539     -0.0488398608      0.2521862945      0.1428425357
H       2.1901076607      0.8631177315     -1.7041326708      0.0102915395      0.0816939810     -0.3400071216      0.0438366707
H       1.6962356715     -0.3021634130     -0.4659678510      0.0067877907     -0.2900496945      0.1059695038      0.1877281617
H      -0.5474963218      2.6535218228      0.1254759071     -0.2366594220      0.1441908499      0.0160009619      0.0978221466
H      -0.2305022392      1.6285367496     -1.2959548097     -0.0926425361      0.0050028133     -0.2021653859      0.0950857842
H       3.6200098322      0.4124945912      0.9675883404     -0.0430883301     -0.0246685098      0.2606933178      0.1252856408
H       4.1790282873      1.4737510901     -0.3374203478      0.1804918923      0.2748069096     -0.0501035684      0.0578456837
H       4.3443534449     -0.5332924844     -1.8527543109     -0.0532419980      0.0062086265     -0.3028621468      0.0606144178
H       3.8082360930     -1.5621442311     -0.5137366702     -0.2049263315     -0.1904482597      0.0244300370      0.1136064429
H      -0.6077173946     -0.9373138509     -1.0265862578      0.0985031026     -0.0643152490     -0.1755303357      0.0839068215
H      -1.0964535288      1.5180203878      2.3616306102      0.0561224083      0.1798833297      0.1415473889      0.0287499668
H      -2.0177984852     -1.0156167105      2.9409284094     -0.0479230982     -0.1017443206      0.1633246452      0.0570498381
H      -2.2064865540     -2.9515696439     -0.2038284926     -0.1389776652      0.0472425236     -0.1763748522      0.0971032396
H      -0.6830548632     -3.2554258153      0.6728370570      0.2097994234      0.0168052935     -0.0045286944      0.1620914002
H       5.8162253940     -0.8799112956      0.8121673151      0.0569373173     -0.0377188594      0.3123261957      0.0400859778
H       6.3600405318      0.1364712384     -0.5323065413      0.2145837917      0.2551887334     -0.0610949103      0.0136039307
H       6.2769322852     -1.6227281986     -0.7279865037      0.2668243148     -0.2538031786     -0.0827577739      0.0176383037
H      -1.8634009567     -3.3299248334      2.8188968791      0.2110947955     -0.0287033342      0.2194960443      0.0893946701
H      -2.6327669922     -4.4500688282      1.6868438195     -0.0816653838     -0.2966302017     -0.0393313311      0.0620865353
H      -3.4066210053     -2.8960208328      2.0440071957     -0.3684221389      0.0924506698      0.0107724436      0.0336617455
S       1.3659425269     -1.8114579986      2.1492256821      0.1965162405     -0.0657018388      0.1284661386      1.8129026226
O       1.3092007139     -2.1910373647      0.7393918660      0.2793653464     -0.5391730900     -1.1740460713     -0.8262173937
O       0.3233083576     -2.4176328927      2.9619495917     -0.6569514302     -0.7368521704      0.8841588331     -0.8197377313
O       1.5498101487     -0.3874366897      2.3706235466      0.4172365614      1.1431831175      0.3309693242     -0.8102471718
C       2.9315500146     -2.5857676852      2.7556938034     -0.8331155772      0.4702821707     -0.3900432322      1.1710255979
F       3.9822090548     -2.0529811387      2.1358468122      1.1096991583      0.5476895506     -0.6197342323     -0.4615528695
F       2.9281809089     -3.8923298544      2.5185220251     -0.0114633072     -1.4635624732     -0.2504806119     -0.4458736180
F       3.0797101081     -2.3963365196      4.0603649328      0.1321442373      0.2253491345      1.4348977687     -0.4436154090
