32
Properties=species:S:1:pos:R:3:forces:R:3:charge:R:1 energy=-187.06452038334473 homo_lumo=3.111763710872826 dipole="1.2043100914399085 1.4362885703252257 -0.7144798074314264" free_energy=-187.06452038334473
H      -0.5133734088     -1.6019222125     -4.4902892498      0.0063218372     -0.0131495856      0.0039033402      0.0478251003
H      -1.9564007312     -0.7349350720     -3.8778356099      0.0012356410      0.0082007208      0.0023825554      0.0473182004
H      -1.5534469045     -2.3547813634     -3.1836278099     -0.0099364574     -0.0063151104      0.0090884294      0.1148524621
C      -1.1452227464     -1.4216993028     -3.6121235829     -0.0069149525     -0.0060674322     -0.0006564670      0.0945423035
H       2.0162656508     -0.7196080348     -0.2911164916      0.0186084202      0.0076816861     -0.0062829260      0.0390067259
H       1.4039654703     -2.0815994632     -2.6411652414      0.0001088937     -0.0039749444     -0.0009259772      0.0411188553
H      -1.7479489732      0.5874361764     -1.7253421631     -0.0190358630     -0.0095705583      0.0090865180      0.0901247152
N      -0.3410207283     -0.8176003435     -2.5590412314     -0.0057848532      0.0035078531     -0.0064759922     -0.5382498895
C      -0.8057944169      0.0645222413     -1.6646582737     -0.0141100683     -0.0109570066      0.0115231833      0.6330430427
N       0.1227817334      0.2311390991     -0.7115321612     -0.0067865854      0.0007613556     -0.0012801006     -0.5085209274
C       1.1679869446     -0.6418818603     -0.9583182744      0.0111104870      0.0015242965     -0.0035733001      0.1939838992
C       0.8725709748     -1.3018689759     -2.1115557818      0.0080238156      0.0059763189     -0.0012861441      0.2392199787
C      -0.0569016286      1.0195980406      0.5115244662      0.0081254630      0.0105201045     -0.0012148412      0.0042671618
H       0.8904800534      1.5490797301      0.7059486945      0.0026489640     -0.0076366933      0.0002287924      0.0993314093
H      -0.8245559712      1.7781998530      0.2950299002      0.0037568796     -0.0011027479      0.0033297754      0.1058785077
C      -0.4763314585      0.1379461428      1.6815430350      0.0029776556     -0.0187742063      0.0023188244     -0.2288522916
H       0.2811306581     -0.6525500129      1.8295236127      0.0073804511      0.0053370570      0.0059907694      0.1049554925
H      -1.4121861753     -0.3741274743      1.4040120399      0.0028240375      0.0030185530      0.0002865464      0.2070944177
C      -0.6470903907      0.9378639636      2.9700315406     -0.0016297442      0.0167339799      0.0035662672     -0.2135516038
H       0.2919985267      1.4711980138      3.2103319321      0.0047347823     -0.0008455768     -0.0019934517      0.0721119884
H      -1.4176289993      1.7160515839      2.8190812543     -0.0073265954     -0.0068176440     -0.0092093842      0.0811084553
C      -1.0467402002      0.0444141642      4.1435192706     -0.0024305474     -0.0042277476      0.0011292838     -0.0688459982
H      -0.2750640733     -0.7170941049      4.3376165129      0.0028923160      0.0017229911     -0.0100453775      0.0385192852
H      -1.9863089579     -0.4866245428      3.9274550853     -0.0018732897      0.0025052070     -0.0094312709      0.0607360128
H      -1.1836065102      0.6302909778      5.0651004800     -0.0001414314      0.0104959104     -0.0141048909      0.0356808697
C      -2.1825565951     -2.5254031160     -0.3987649061     -0.0032352673     -0.0064299770      0.0138992574      0.9111255230
O      -2.5090592111     -1.3040552332     -0.4061992939      0.0141154169      0.0162489699      0.0175191617     -0.8154337140
O      -1.5607741412     -3.2152414501     -1.2326482004      0.0047054493     -0.0054840909     -0.0061236108     -0.7937488478
C      -2.6469882939     -3.2675243149      0.9034778250     -0.0063879062      0.0058988041     -0.0026422672      1.2941851811
F      -4.0001967993     -3.1634845982      1.0840498745     -0.0111730196     -0.0038557925      0.0098786037     -0.4585848784
F      -2.0560769067     -2.7168049657      2.0228586815      0.0018047209     -0.0014497849      0.0035105869     -0.4758630578
F      -2.3415828507     -4.5926531863      0.9202737021     -0.0046086498      0.0065250907     -0.0223958935     -0.4543783793
