32
Properties=species:S:1:pos:R:3:forces:R:3:charge:R:1 energy=-186.67480414262621 homo_lumo=2.7891373826337773 dipole="-1.428313023764373 -1.07419798063765 0.08845417297930132" free_energy=-186.67480414262621
H       2.4878434490      0.4171816406     -3.7759291344      0.1937271715      0.1373801332      0.0429525037      0.1069967708
H       0.7248613242      0.3307552387     -4.0607581985     -0.2102201838      0.0594054151     -0.1130297836      0.0450088228
H       1.7022358053     -1.1674432137     -4.0521211256     -0.0691093295     -0.2736253195     -0.0832339156      0.0552296631
C       1.5817844507     -0.1749728779     -3.6208586899      0.0405805295     -0.0177166542     -0.0189984828      0.1115332748
H       2.3365617855     -0.9285382018      0.8525071155      0.1149985296     -0.0334747619      0.1847631529      0.0397079289
H       2.9599192683     -1.6710696793     -1.7414243194      0.1979164771     -0.1070522381     -0.0795127565      0.0316991338
H      -0.0905215951      1.2319337138     -1.8279088405     -0.0700611092      0.1377047870     -0.0622354665      0.0874277281
N       1.3874445010     -0.2877910055     -2.1855993017     -0.0481919316     -0.1769601474     -0.6197204300     -0.5298459120
C       0.6172988510      0.5137745071     -1.4518759227     -0.2103526904     -0.0378932393     -0.0524621876      0.5769291399
N       0.9006444639      0.2906021442     -0.1706880154     -0.2195786819      0.2471338430      0.3298992166     -0.4927995565
C       1.9009690178     -0.6403898492     -0.0865760237      0.0345173890     -0.2103463513      0.1426334143      0.2349010466
C       2.2094178958     -1.0036544116     -1.3583051721      0.0275545829     -0.2322193167      0.0701211596      0.2554061782
C       0.4443090645      1.1154125253      0.9424405359     -0.2301996092     -0.5132618257      0.4038505463     -0.0063025152
H       1.3311322737      1.6391708743      1.3174307471      0.1678811752      0.1407587741     -0.0693024729      0.1581735812
H      -0.2578665846      1.8508999392      0.5432130046     -0.0990998474      0.1214815712     -0.0727166064      0.1010648134
C      -0.2096081842      0.2636746485      2.0288726971     -0.0073148286      0.7046315540     -0.0435972626     -0.1764556990
H       0.5125993135     -0.4659145126      2.4073194733      0.1695661481     -0.2190374057      0.1343016828      0.1066607196
H      -1.0524514551     -0.2885701113      1.6000036067     -0.2069574036     -0.1999465608     -0.0922121931      0.0915524498
C      -0.6966640893      1.1506963224      3.1789759873     -0.0004488422     -0.6647060885     -0.0261248305     -0.2088046973
H       0.1516442320      1.7070387675      3.5901767394      0.2060386900      0.2081959510      0.0667512852      0.0964509504
H      -1.4203825947      1.8776169370      2.7957450618     -0.1398947997      0.2386896536     -0.1056555348      0.0866194917
C      -1.3450956515      0.3190788231      4.2837372120      0.1537887095      0.3607347052     -0.2567097412     -0.0458070854
H      -0.6303043856     -0.3953736620      4.6939536558      0.1842107455     -0.2399905921      0.1666529218      0.0314803064
H      -2.2031174057     -0.2313749855      3.8953910658     -0.2654369174     -0.1956421197     -0.0625408161      0.0299545504
H      -1.6852379384      0.9713101125      5.0878813293     -0.1450799749      0.1007815515      0.3210041163      0.0380727955
C       3.3420395605      1.7596506749     -1.1152053704     -1.0906797415      1.5740973699     -0.6877835817      0.9126232408
O       3.3119323215      1.6544113253      0.1042274987      0.3028669968      0.0106888436      1.8894610968     -0.7832794743
O       3.8181081343      1.0698018880     -2.0079830503      1.0622676228     -0.8955471579     -1.3209175619     -0.7825307696
C       2.4319720647      3.0075228379     -1.6813921265      0.5581867586     -1.3485814287      0.5092538246      1.2498315614
F       3.0545786267      4.1809506149     -1.8176882542      0.6696372127      0.8597150027     -0.0732848236     -0.4539732556
F       1.3580305251      3.2243755906     -0.8724115064     -0.7408192255      0.4447551913      0.5946366508     -0.4847437940
F       1.8963072603      2.6977363075     -2.8930147495     -0.3302936223      0.0198468611     -1.0162431242     -0.4827813886
