32
Properties=species:S:1:pos:R:3:forces:R:3:charge:R:1 energy=-186.75720990641 homo_lumo=2.8502308183059184 dipole="-0.020640665693665246 -2.1377674336475763 0.8340820067637899" free_energy=-186.75720990641
H       0.4169182158     -0.3393012488     -5.2521555242      0.0000125911      0.0043439262      0.0007568397      0.0972699943
H      -0.9737816783     -1.3054866732     -4.6404270448     -0.0031205773      0.0057558633     -0.0011305405      0.0602037079
H       0.4930915545     -2.1492885182     -5.2195846351      0.0015718367      0.0078261480      0.0014762438      0.0557717104
C       0.1189532099     -1.2514616264     -4.7150483084      0.0022478986     -0.0032276759     -0.0020534635      0.1056222251
H       3.0515301695     -1.3939316539     -1.1153665077      0.0155422830     -0.0014085782     -0.0047814161      0.0334157598
H       2.3779381482     -2.5317336769     -3.5660868185      0.0061299845      0.0129168899     -0.0067706911      0.0349921649
H      -0.5490174481      0.3501444204     -2.5218605408     -0.0104200943     -0.0016615642     -0.0009328538      0.1517250334
N       0.6961960919     -1.1868586689     -3.3790066185      0.0019581370      0.0058141398     -0.0057245407     -0.5404529794
C       0.3454651491     -0.2521145178     -2.4799863433     -0.0035508770     -0.0072851092      0.0027162128      0.6001220343
N       1.2283692426     -0.2942988261     -1.4703766508      0.0062466491      0.0033658901     -0.0097145844     -0.5100686601
C       2.2141556466     -1.2154346626     -1.7770600500      0.0050721641     -0.0043165474     -0.0034942479      0.2024988729
C       1.8841888236     -1.7713679287     -2.9747131169     -0.0011170511     -0.0035657967      0.0008165942      0.2076678200
C       1.2521177101      0.6671948340     -0.3650019993      0.0015477914     -0.0103920228      0.0010527244     -0.0085892711
H       2.1582220760      0.4512203012      0.2206482344     -0.0026911384      0.0058810505     -0.0051002234      0.0999908861
H       1.3615585256      1.6671180602     -0.8147437142      0.0004674520      0.0046609713      0.0015616189      0.1713844410
C       0.0069154895      0.5766083189      0.5049444292      0.0016862345      0.0063256976     -0.0021526915     -0.2021688207
H      -0.0683296673     -0.4405394220      0.9308582067      0.0000572682      0.0039899034     -0.0044041557      0.0952179573
H      -0.8868748469      0.7384765695     -0.1219790094     -0.0010536686      0.0049537804      0.0099791762      0.1258905777
C       0.0281892520      1.6219449848      1.6174799363      0.0034914000      0.0066153482      0.0036366380     -0.2169128745
H       0.9352416709      1.4850473826      2.2345244883      0.0011667058      0.0027615764     -0.0006252963      0.0850897716
H       0.1036702475      2.6247497767      1.1606154185      0.0022130041     -0.0004767478      0.0101099940      0.1102405096
C      -1.2133476970      1.5478359587      2.5016004953     -0.0068948039     -0.0123363190     -0.0076049666     -0.0678710425
H      -1.2965879794      0.5615790196      2.9863801902      0.0054532572      0.0047089718     -0.0060595867      0.0338503628
H      -2.1262215272      1.7099284585      1.9064904605      0.0035638030     -0.0010623973      0.0017276603      0.0427815105
H      -1.1869979228      2.3121272234      3.2922170238      0.0096202167      0.0079144173      0.0039373018      0.0450821380
C       0.8400712180      2.7793364956     -3.6270311572     -0.0233914341      0.0094728547      0.0041637175      0.8931105812
O       1.1972908491      1.5633174039     -3.7166419775      0.0106483563     -0.0100356186      0.0000646100     -0.8062029708
O       1.4764809311      3.8280667273     -3.7669992741     -0.0148008281      0.0147716644      0.0025903479     -0.7141684133
C      -0.6716134321      2.9669342548     -3.2173552264     -0.0110063793     -0.0108381202      0.0045347562      1.2239918207
F      -1.1907893230      4.1764699523     -3.5164301377      0.0009265598     -0.0177427322      0.0024930246     -0.4436039295
F      -0.8190576297      2.7980120342     -1.8404977249      0.0049253419     -0.0086123793      0.0081446635     -0.4858263420
F      -1.5167116732      2.0221154335     -3.7803658070     -0.0065020828     -0.0191174845      0.0007871346     -0.4800545754
