37
Properties=species:S:1:pos:R:3:forces:R:3:charge:R:1 energy=-198.20278775907647 homo_lumo=3.422618453371056 dipole="-2.449638102512829 -0.9023390361729405 -0.6805608493329778" free_energy=-198.20278775907647
N       2.0593882023      0.2975372905     -0.0549183252      0.0051821526      0.0006528931      0.0019547079     -0.5121716782
C       2.2831044220     -1.0497684681      0.6319261302      0.0092811526     -0.0085100379     -0.0060995858      0.0066952714
C       3.1909182099      0.4024845874     -1.1118663600      0.0040355803     -0.0113667764     -0.0043623612      0.0141702381
C       0.7095209642      0.3486058384     -0.7274103602     -0.0040044545     -0.0030055980      0.0211201834      0.0007916228
C       3.7509398282     -1.3561848453      0.4116184979     -0.0109139904      0.0034978313     -0.0104686000     -0.1391228024
C       3.9663430868     -0.9080145688     -1.0362501572     -0.0025240739     -0.0012804605     -0.0011261974     -0.1407536987
C       2.2163389461      1.4187666621      0.9346490209     -0.0083603339      0.0113680089      0.0015050370      0.0236504047
C      -0.4780695177      0.2107218579      0.2142071005      0.0032400579      0.0026555736     -0.0219515237     -0.1915251628
C      -1.7958848143      0.1485101282     -0.5636603807      0.0022197138     -0.0028393204      0.0199760418     -0.1598153735
C      -3.0161870873      0.0324440521      0.3507284285     -0.0014695663      0.0000317546     -0.0176479270     -0.1654333721
C      -4.3380598989     -0.0402379403     -0.4145732802      0.0143470991      0.0008501145      0.0055045467     -0.2052427833
C      -5.5508818138     -0.1598326052      0.5063813558      0.0023195390      0.0024616982     -0.0168593653     -0.0675115043
H       1.6411584165     -1.7786846052      0.1121295602     -0.0063185006      0.0082290246      0.0131260894      0.1146259305
H       1.9739822590     -0.9674213431      1.6814716164      0.0068296531      0.0048627137      0.0115130825      0.1140018000
H       3.8624117840      1.2144190232     -0.7655575804     -0.0022073652     -0.0061281727     -0.0030950358      0.1757581881
H       2.7295357125      0.6147301757     -2.0857470060     -0.0001771893      0.0037184124      0.0176079517      0.0772777706
H       0.7090531449     -0.4585953710     -1.4781526162      0.0080490989     -0.0154577437     -0.0025166862      0.1190259457
H       0.6688883831      1.3110052523     -1.2609915133      0.0032115363      0.0070074131     -0.0063482387      0.1296362256
H       3.9710856755     -2.4211001307      0.5797684975     -0.0038316410      0.0131504008      0.0060872711      0.0611825581
H       4.3887103270     -0.7232660853      1.0606099551     -0.0060551333     -0.0004269606     -0.0161597832      0.1528955582
H       5.0312566556     -0.7041817639     -1.2283673199     -0.0098090115     -0.0101668178     -0.0109621251      0.1094053873
H       3.5896008425     -1.6572042610     -1.7535232690     -0.0152619705      0.0012946080     -0.0071497579      0.0604189085
H       1.5258142184      1.2595771582      1.7706460191     -0.0146013525      0.0006642276      0.0029343677      0.0584250314
H       3.2883716720      1.4452810421      1.2521854899     -0.0033228434      0.0025523288      0.0078736873      0.1649754264
H       1.9845595698      2.3583001533      0.4143795324     -0.0009922420      0.0009194500      0.0029153887      0.0716747141
H      -0.3774098290     -0.7013140536      0.8260289138     -0.0011587512     -0.0214381952      0.0099483941      0.1096477816
H      -0.5098665208      1.0661220695      0.9075801662     -0.0042804265      0.0096305029      0.0134472232      0.1133859655
H      -1.7753169959     -0.7137701464     -1.2545001964     -0.0001651439     -0.0150553219     -0.0145099239      0.0879961117
H      -1.8959025972      1.0518646756     -1.1925258815      0.0003600178      0.0150557375     -0.0122987669      0.0906795432
H      -3.0415861892      0.8971171818      1.0394432815      0.0057679006      0.0100437350      0.0051817596      0.0903226594
H      -2.9141261658     -0.8676537023      0.9854421545      0.0055672425     -0.0067630974      0.0062020344      0.0883027954
H      -4.4395273428      0.8604912654     -1.0473163851      0.0032265630     -0.0010219509     -0.0001559017      0.0868905471
H      -4.3099530563     -0.9032682079     -1.1046732314      0.0027299402      0.0017040447      0.0007283484      0.0856621162
H      -5.6171292917      0.7049684646      1.1859832679      0.0071592217      0.0007158809      0.0003279759      0.0367934900
H      -6.4890649906     -0.2080135802     -0.0677190273      0.0217855564      0.0017883748      0.0014337072      0.0420589656
H      -5.4889464203     -1.0687481896      1.1259733201      0.0072555358      0.0014696949      0.0015261147      0.0357740810
Cl      5.4785217135      1.5065473638      0.9474916867     -0.0171135716     -0.0008639703      0.0007978671     -0.7405486630
