38
Properties=species:S:1:pos:R:3:forces:R:3:charge:R:1 energy=-207.95814909108122 homo_lumo=4.401224920756565 dipole="1.1947946651980055 -1.5724531550730176 -2.09659759343825" free_energy=-207.95814909108122
N      -1.2494644510     -0.2496823548     -0.5911336440     -0.0025667547      0.0003100876      0.0003818428     -0.5237852297
C      -2.2897079651      0.6524889014     -1.2497571513     -0.0036959677     -0.0016771764     -0.0056656167     -0.0416749901
C      -0.5725214796     -1.0814383753     -1.6572531008     -0.0085900906     -0.0004271834      0.0019182410     -0.0042928054
C      -0.2294131445      0.6763278320      0.0698808933      0.0013594128     -0.0004666644      0.0019556465     -0.0536008345
C      -3.2841604769     -0.1095209903     -2.1076836332      0.0175001763     -0.0122463812     -0.0008041177     -0.1722632424
C      -1.5614698629     -1.8994799699     -2.4749366861      0.0002828325      0.0161957233      0.0073645195     -0.1615794130
C      -2.5915694770     -0.9900921583     -3.1481393836      0.0073985264     -0.0000666888      0.0180088335     -0.1647107581
C      -1.8914367178     -1.1366143001      0.4411320361     -0.0019674357     -0.0028008875      0.0036461798      0.0127670393
C       0.7551102753      0.0070423931      1.0112280261     -0.0041518663     -0.0069260676     -0.0026164915     -0.2432567115
C       1.5946650208      1.0876326981      1.6974434450     -0.0051921169      0.0004125309     -0.0115216311     -0.0681546704
H      -1.7058027279      1.3607411596     -1.8599876978     -0.0060662663      0.0028596666      0.0002076788      0.1160350725
H      -2.7848474450      1.2092490063     -0.4408278337     -0.0066072776     -0.0092485406     -0.0047659085      0.2316714221
H       0.1724729238     -1.7110626175     -1.1512825135     -0.0117236939     -0.0090486719      0.0094112090      0.1362872523
H      -0.0414490158     -0.3664239908     -2.3066340701     -0.0052673877      0.0039276571      0.0028916757      0.1244199959
H      -0.8197568022      1.4326172744      0.6103738494      0.0018561369     -0.0071547938      0.0198048926      0.2413738183
H       0.2951247972      1.1759413391     -0.7611478293     -0.0066725250      0.0058438118     -0.0040828213      0.1037697292
H      -3.9262690470      0.6452476817     -2.5904885612      0.0080064717      0.0013612404     -0.0164085628      0.1155933972
H      -3.9601273231     -0.7063609592     -1.4728420883      0.0166664450     -0.0058616944      0.0097888718      0.1087099144
H      -2.0614119540     -2.6480825712     -1.8373418418     -0.0019923924      0.0125174171      0.0128165461      0.1043864823
H      -0.9850630478     -2.4683290358     -3.2231199870      0.0096363261      0.0169045432     -0.0152029872      0.1042592135
H      -3.3301282647     -1.5890175987     -3.7038778928     -0.0046799594     -0.0108031162      0.0074384274      0.0880462662
H      -2.0770054257     -0.3493174657     -3.8877894875      0.0088617160      0.0066671267      0.0027543989      0.0878411551
H      -1.2062187953     -1.9634317920      0.6620044637      0.0129718050      0.0078674463      0.0113562261      0.0660994323
H      -2.0938435448     -0.5425123915      1.3424764691     -0.0134646187      0.0131268092     -0.0133144657      0.1878817704
H      -2.8332848664     -1.5266380389      0.0465635744      0.0031303986     -0.0024646101     -0.0042604362      0.1179174143
H       0.2107358842     -0.5456040638      1.7912312983     -0.0059523172      0.0039499515      0.0099227141      0.1336641067
H       1.4113165082     -0.6993138122      0.4743029713     -0.0001905706     -0.0143820945     -0.0016553743      0.0803842517
H       2.1313943035      1.7101379520      0.9645946210      0.0024731738      0.0031478343     -0.0034541859      0.0293478872
H       0.9426276380      1.7368644798      2.3014949742     -0.0037264888      0.0023976111     -0.0117852042      0.0843752018
H       2.3387698686      0.6290650081      2.3638595278      0.0033816240     -0.0016571716      0.0042316120      0.0435905001
S      -2.9627531563      1.8487907169      2.1697003381      0.0014062697     -0.0046530149     -0.0108498364      1.7010036549
O      -1.9121283746      1.0942149679      2.8902593747     -0.0056601311     -0.0094929763     -0.0075140869     -0.8010200258
O      -4.0283630971      1.0067866033      1.5879314900     -0.0071511731      0.0057004559     -0.0078184235     -0.7932683412
O      -2.4423060711      2.8918805346      1.2603341740      0.0028169368     -0.0005968686     -0.0034702748     -0.7916289627
C      -3.8363092992      2.8118835470      3.5190152942     -0.0035439503      0.0057818015      0.0075400024      1.1257557422
F      -2.9892755360      3.6896042494      4.1180232762      0.0036465197     -0.0066583434      0.0016497115     -0.4420786014
F      -4.3198417936      1.9751056392      4.4745597734      0.0012984020     -0.0041701174     -0.0073346778     -0.4420740517
F      -4.8805909203      3.5162994254      3.0091950274      0.0061698108      0.0018313486     -0.0005641270     -0.4417920821
