43
Properties=species:S:1:pos:R:3:forces:R:3:charge:R:1 energy=-242.5507256866788 homo_lumo=4.318928107239305 dipole="-1.7934534057160736 0.29961324668674194 1.8777514034726004" free_energy=-242.5507256866788
N       0.7790052429      1.5234841981      1.0285562234      0.2149863665      0.3712021261      0.1712061411     -0.5048446994
N      -0.5494831338      0.4997012870     -0.3199296373     -0.2202657362     -0.3216841816     -0.2005210076     -0.5143657771
C       2.8215775204      1.0153423282      2.2804865623     -0.0352087005      0.0303175620     -0.6490484004     -0.1685530960
C       3.3640147051     -0.0007349036      1.2732358761      0.0336227516      0.1178580901      0.8367524913     -0.2351337059
C       1.9954772854      2.1057864287      1.5886480765      0.2868814455     -0.2898385568      0.3822949206     -0.0219531421
C       4.1802936844     -1.1059130907      1.9463379354     -0.2082953487      0.0654124913     -0.8349132086     -0.1485793165
C       4.7022033976     -2.0886145237      0.8926532428      0.1722742484     -0.1095535964      0.7247221530     -0.2094320931
C       0.6557098798      1.0552364527     -0.2104580524      0.1114619767      0.1023317946     -0.1429514306      0.5474453351
C      -0.3657291823      1.2525614376      1.7281190488     -0.1910946638      0.0191222134      0.2709024288      0.2034697576
C      -1.2079223388      0.6130983947      0.8727024829     -0.2050647535     -0.0610233107      0.2399802755      0.2211189999
C      -1.0627723427     -0.1273777053     -1.5382391442     -0.0273308533      0.3166291242     -0.4429257431     -0.0666823394
C       5.5192976484     -3.2091527064      1.5314879687     -0.2091955170      0.2597436298     -0.3184892996     -0.0415431423
C      -1.2065352307      0.9069667892     -2.6474287207     -0.0286889504     -0.2470782638      0.2902012535     -0.0861346013
H       3.6512315754      1.5076279809      2.7956049025      0.2150593558      0.1417416120      0.1950488011      0.0887310386
H       2.2024981701      0.5163524792      3.0332685308     -0.1365498038     -0.1193805848      0.2778342890      0.0835125457
H       3.9964588000      0.5187213116      0.5495101337      0.0918822956      0.0709899697     -0.2276177906      0.1597591681
H       2.5310868448     -0.4531813410      0.7258244183     -0.0895631873     -0.1542985219     -0.1350653768      0.1458271729
H       1.6990705422      2.8802252792      2.3002549975     -0.1582094548      0.2264071501      0.0686311739      0.0903507981
H       2.5565914321      2.5591108740      0.7675937653      0.0516881885      0.1076791689     -0.1820400254      0.1773698765
H       3.5567138524     -1.6365887104      2.6751616623     -0.1314043878     -0.1554157094      0.2379238454      0.0615681811
H       5.0227762230     -0.6608930336      2.4871858856      0.2246061168      0.0933135458      0.1861851344      0.0704458319
H       5.3241892514     -1.5470877842      0.1731918694      0.0554055332      0.1479773359     -0.2554259888      0.1115076111
H       3.8562236904     -2.5162516754      0.3450804377     -0.1935093275     -0.0370507237     -0.2031836445      0.0959498929
H       1.3870713382      1.1147692226     -1.0042694125      0.0416424853      0.1290347283     -0.1831503262      0.2225480712
H      -0.4889743600      1.5389597499      2.7578571476     -0.0201710360      0.0653697961      0.2426695670      0.0327990827
H      -2.2035216780      0.2313355371      1.0166397040     -0.2283835134     -0.0798950559      0.0201513024      0.0310906525
H      -0.3575970725     -0.9087029752     -1.8345059782      0.0614393520     -0.1551287915     -0.0308412074      0.1697027273
H      -2.0254224315     -0.5825512229     -1.2944953188     -0.1508779891     -0.0992143002      0.1611060345      0.0920742040
H       4.9114708212     -3.7730258477      2.2412460438     -0.1415443102     -0.2033568191      0.2387631729      0.0173266186
H       6.3800648619     -2.7980988845      2.0614241394      0.2807688060      0.0639863806      0.1850901373      0.0222696704
H       5.8790964148     -3.8930957283      0.7626886820      0.1791930415     -0.2900726527     -0.1597904524      0.0319775633
H      -1.9023271104      1.6926557659     -2.3543802690     -0.2618680546      0.2461107725      0.1117978490      0.0419749085
H      -1.5794861242      0.4101318045     -3.5414380812     -0.0584341907     -0.1089688376     -0.3028470107      0.0591442174
H      -0.2392845866      1.3516145736     -2.8776370261      0.2700551987      0.0916916153     -0.1513052934      0.1101884296
N       2.3009183612      1.0162110813     -2.8148556102      0.0010902695      0.1391450361      0.1064471650     -0.9330748766
S       3.6209350230      1.6720041791     -2.1927394838     -0.1338314876      0.4375285345     -0.2958555495      1.9875251378
S       2.3148478169     -0.5499446838     -3.0679882885     -0.4262137175     -0.0481670005     -0.2002288291      1.9583178352
F       4.2826528602      2.3560902417     -3.4822547830      0.3176282109      0.2987062505     -0.7034176702     -0.4511155593
F       2.0894688145     -1.1100013831     -1.5233394719      0.0064939744     -0.3411184661      0.5890166386     -0.4948268923
O       3.1941011272      2.7795305256     -1.3848969624     -0.5285376582      1.1730662453      0.7516758555     -0.7749076577
O       4.6200554897      0.7996441690     -1.6703865356      1.0238625124     -1.0643464990      0.3751044055     -0.7277171452
O       3.5180614215     -1.1713172976     -3.4937762863      1.5124486993     -0.5262485230     -0.3996609046     -0.6973980529
O       1.0763186098     -0.8872062200     -3.6959932513     -1.3682481866     -0.3035247785     -0.6442258759     -0.7577332308
