43
Properties=species:S:1:pos:R:3:forces:R:3:charge:R:1 energy=-231.4610732366961 homo_lumo=3.38773497677001 dipole="-0.9858919226742235 0.5103026557751945 -2.115193606152353" free_energy=-231.4610732366961
N      -1.5370732469      0.1499536350     -0.1172139144     -0.0015072005     -0.0000631952     -0.0068713305     -0.4857562744
C      -2.5681349121      0.3947993036     -1.1976144156      0.0100858618      0.0047361469     -0.0054967107      0.0017222578
C      -1.7505863941     -1.2347438545      0.4877308297      0.0148753760     -0.0037816403      0.0044764543     -0.0470574172
C      -0.1761371647      0.1869883317     -0.7882212532     -0.0013197296     -0.0006280633     -0.0033915299     -0.0101926942
C      -1.6255229402      1.1894273934      0.9952608032     -0.0002853183     -0.0147228908      0.0138196805     -0.1155833079
C      -3.9992054577      0.2174426921     -0.7164594100     -0.0137921826      0.0047049989     -0.0102677278     -0.1685265126
C      -3.1721707195     -1.4403999782      0.9754354605     -0.0044622929     -0.0060739493      0.0152487291     -0.1555741891
C      -4.2082801354     -1.1719884684     -0.1132168492     -0.0178004217     -0.0058248198     -0.0005685293     -0.1610533727
C       1.0130858231     -0.0137886267      0.1292216377      0.0018495757     -0.0026310324      0.0074585044     -0.2122367367
C      -1.2296025592      2.5906353582      0.5828336812     -0.0005777213      0.0156486158      0.0040632125     -0.1023615885
C       2.3159847743      0.1010095574     -0.6608722346      0.0028395557      0.0037150955     -0.0171494818     -0.1562376700
C       3.5408625668     -0.1017947949      0.2294565604     -0.0022885235     -0.0019537624      0.0172638203     -0.1652167618
C       4.8596719901      0.0054998790     -0.5312515558      0.0006389824      0.0028366938     -0.0177446261     -0.2020436751
C       6.0778405563     -0.1934558449      0.3671103767      0.0102232669      0.0004539171      0.0027807213     -0.0647990788
H      -2.3443728766     -0.3350427445     -1.9931121880     -0.0041658658     -0.0030444935      0.0022220025      0.1219441420
H      -2.3881394436      1.4022125336     -1.5991436478     -0.0049908705     -0.0009985104      0.0041870993      0.1313194906
H      -1.0453570934     -1.3101552327      1.3509866540     -0.0036118448     -0.0039560734     -0.0038306819      0.2064044681
H      -1.4976898933     -1.9473361999     -0.3151830142      0.0019528189     -0.0061297581     -0.0077373760      0.0910289732
H      -0.1181527372      1.1556646147     -1.3099890409     -0.0020393491      0.0046975554      0.0067006496      0.1260740644
H      -0.2111310052     -0.5996584806     -1.5607092006      0.0026342944     -0.0094561382      0.0116254479      0.1142061068
H      -2.6660041303      1.1707654764      1.3397732482     -0.0053325252      0.0107659947     -0.0096029972      0.1550720530
H      -1.0058126223      0.7813401941      1.8336573044     -0.0014029591      0.0111958319     -0.0110705591      0.2038080500
H      -4.6593241521      0.3763349523     -1.5862933916      0.0063794278     -0.0097734274      0.0048262723      0.0987880653
H      -4.2596798404      1.0008517126      0.0148596311      0.0071397646     -0.0068220231      0.0074544715      0.1013117405
H      -3.3460583933     -0.8147868810      1.8675157752     -0.0041863346     -0.0007498102     -0.0121160478      0.1101128725
H      -3.2339754389     -2.4814178921      1.3343080931      0.0039563235      0.0079887420     -0.0121386755      0.1104304789
H      -5.2310129313     -1.2649833478      0.2862608921     -0.0023205069      0.0011378099      0.0016680173      0.0816210061
H      -4.1047754629     -1.9291102521     -0.9135015935      0.0012571092      0.0044297055      0.0088724411      0.0812490399
H       1.0060794703      0.7129913455      0.9566156956      0.0047181884      0.0111288646     -0.0146338813      0.1478188738
H       0.9582469553     -0.9893036942      0.6376211177      0.0060963258      0.0070212641     -0.0078070716      0.1445834995
H      -0.1620250616      2.6739983735      0.3340115469     -0.0033227147     -0.0100533124      0.0087995649      0.0560113187
H      -1.8235630906      2.9951162671     -0.2519466604      0.0004750191      0.0011844936     -0.0008163995      0.0285734422
H      -1.4077325289      3.2437539827      1.4510992704      0.0150420538     -0.0034210998      0.0056816380      0.0759690313
H       2.3783539426      1.0943136516     -1.1471668218      0.0011860413     -0.0001654925      0.0073510033      0.0711223406
H       2.3316619389     -0.6452806756     -1.4790687664     -0.0019680969     -0.0062345528      0.0100688162      0.0696548714
H       3.4724828331     -1.0897822261      0.7209671422      0.0016041360      0.0055171144     -0.0076801768      0.1019146847
H       3.5210425702      0.6410360994      1.0484495268      0.0019216903     -0.0002752729     -0.0102893905      0.0997629271
H       4.8722356328     -0.7435616294     -1.3454435169      0.0010591730     -0.0001008923      0.0088526661      0.0775537312
H       4.9179031294      0.9952164492     -1.0221603202      0.0008018543     -0.0040397499      0.0063396568      0.0771064117
H       6.0542892159     -1.1850902761      0.8471495261     -0.0015676029     -0.0014257609     -0.0019345365      0.0374183743
H       7.0170715746     -0.1140413310     -0.2016557177     -0.0030036251     -0.0003967989      0.0036659552      0.0321652900
H       6.1017785395      0.5609792111      1.1700964661     -0.0014280228      0.0054171903     -0.0030103499      0.0365678772
Cl     -0.1067985590     -0.6599198107      3.2569336173     -0.0153631301      0.0001424857      0.0007312552     -0.7446762038
