46
Properties=species:S:1:pos:R:3:forces:R:3:charge:R:1 energy=-243.46756268490944 homo_lumo=3.0722387637707174 dipole="-5.219350325125932 4.861990092912955 -1.6989533365774923" free_energy=-243.46756268490944
N       0.5898015909     -0.0045267704     -0.0051732807      0.7174041236      0.0492550073     -0.0316401787     -0.5821944003
C      -0.3003768469      1.0704277817     -0.5235107365     -1.1080989895      1.8417610373     -1.1066192154      0.0145594365
C      -0.3036437982     -1.0742867826      0.5181222756     -1.1498398267     -1.9332312296      1.1254723558      0.0006906973
C      -1.7165567753      0.7534266300     -0.0781690752     -0.4401134089      0.5528522648      0.4667191293     -0.1581934104
C      -1.7220772527     -0.7440037547      0.0895248621     -0.4069236539     -0.5164547352     -0.4734350274     -0.1537453374
C       1.4560918389      0.5194008169      1.0771834153      0.9273818664      0.5220749061      1.2081221466      0.0018188408
C       1.4469889214     -0.5331018219     -1.0924164727      0.9487526609     -0.6334112134     -1.1736419019     -0.0024497738
H      -0.2970971072      1.1137930946     -1.6380286711      0.4362498971     -0.3374846057      0.4655187476      0.1484531411
H      -0.0101113099      2.0866205966     -0.1696528996      0.3053927117     -0.6045530892     -0.0853938918      0.1432377411
H      -0.2876796831     -1.1238749046      1.6322563378      0.4655396867      0.2971331076     -0.4856681097      0.1585862668
H      -0.0267936879     -2.0906776814      0.1551736379      0.3652798401      0.5959668088      0.1467587891      0.1747096180
H      -2.4704254019      1.0838703981     -0.8258079674      0.2827579590      0.0895914899      0.3856592611      0.1107614936
H      -1.9217298948      1.2417851308      0.9002696064     -0.0662508535     -0.0497946569     -0.3271805854      0.1096548639
H      -2.4701610662     -1.0681019451      0.8455987279      0.2844285762     -0.0903962420     -0.3926701770      0.1147682778
H      -1.9428434612     -1.2301553784     -0.8866717691     -0.0673950699      0.0471635020      0.3343705048      0.1100997332
H       2.1381215282      1.3110030880      0.6931723903     -0.3526985223     -0.3904811375     -0.0706468696      0.1177014744
H       0.8450321305      0.9635060090      1.8952186509      0.0411141330     -0.2669174535     -0.4787335730      0.1067676662
H       2.0794116976     -0.2929246197      1.5140219777     -0.3252853085      0.1529874312     -0.3378155968      0.1648981419
H       0.8290292504     -0.9724196057     -1.9077319929      0.0469936977      0.2562569720      0.4826960867      0.1075132824
H       2.0736970676      0.2755065200     -1.5312703527     -0.3650079677     -0.1846886975      0.3310641441      0.1162034405
H       2.1254524407     -1.3292736433     -0.7132896324     -0.3276138007      0.3290164705      0.1018962445      0.1737776803
P       5.9000248360     -5.1550581037      1.8767702556      0.9597982138     -2.6205657224     -1.1324613263      1.6472155297
F       5.5814886646     -6.5632893677      0.9383832114     -0.8293474571     -1.2794356344      0.6137565182     -0.5230358949
F       5.0978859571     -5.2106872151      3.4016595342     -0.5233986704      0.5811839461     -0.6948179157     -0.5178547731
F       7.0175688111     -5.0148701173      0.5764157061     -0.2188213167      0.7220039113      0.0078493511     -0.5160776400
C       6.9342201148     -6.4818623051      2.8425520758      0.5144189642      0.3635337889      0.0260118864      0.5388033705
C       4.1560574140     -4.8928169236      1.0761237637      0.0715529711      0.7176564809     -0.0859065855      0.5631763795
C       6.5423284920     -3.3460516873      2.1029244395     -0.5157107934     -0.0507075155      0.6092554307      0.5301683318
C       8.0508928927     -7.2294424764      2.0641784561      0.3318932512     -0.5287810312     -0.5763471288      1.3340541116
C       3.3637570776     -3.6392636745      1.5050235929     -0.1663603783     -0.2868110488      0.5179685805      1.3167669144
C       7.9657739329     -3.1673162130      2.6669852605      1.0026477343      0.0296840669      0.2151469076      1.3655637723
F       6.0734803824     -7.4615212841      3.3226502309      0.4992838904      0.2373969028     -0.2311809904     -0.4385574340
F       7.5233879865     -5.8966601379      3.9454221101      0.2855474574     -0.4931670984      0.0469347721     -0.4534421682
F       3.3361119523     -5.9765756605      1.3776607234      0.1470346793      0.9294078949     -0.0231648804     -0.4330558961
F       4.3013827037     -4.8286564057     -0.3026536209     -0.4742284398      0.2775377194      0.2986824329     -0.4420817707
F       5.7046196637     -2.6866632331      2.9842583127      0.2604715701      0.5504898836      0.0860878436     -0.4571653615
F       6.4789352706     -2.6709501733      0.8913951334      0.1469654901     -0.0021855219      0.5128052198     -0.4460614783
F       8.7601186746     -8.0163925931      2.9546931812     -0.2060394809      0.2836760225     -0.5047175642     -0.4550337146
F       8.9443181513     -6.3663138096      1.4673901911     -0.4940684569     -1.1300301785      0.5485628947     -0.4429878812
F       7.5234777489     -8.0670879879      1.0977770413      0.8918614737      0.5720648911      0.8611411890     -0.4379665800
F       2.0910924210     -3.7139835766      0.9659909602     -0.0826786432      0.5393668348      0.1387664673     -0.4827643920
F       3.2338577538     -3.5654742388      2.8790785676     -0.3187901378      0.3711166246     -1.5386723959     -0.4315265413
F       3.9455635182     -2.4826701213      1.0262310078     -0.8694003327     -0.4558273654      0.3400337979     -0.4677303655
F       8.0040295810     -3.4792770382      4.0125210264      0.1279022258      0.4996869615     -1.2136020622     -0.4385912754
F       8.3316733859     -1.8386816421      2.5408636406     -0.0550118241     -0.5721583002      0.1375591494     -0.4554093834
F       8.8932467970     -3.9235764419      1.9857131814     -0.6975897411      1.0182175503      0.9554761252     -0.4340247334
