31
Properties=species:S:1:pos:R:3:forces:R:3:charge:R:1 energy=-181.1644548254046 homo_lumo=0.01071340942216517 dipole="1.0908631434772957 -2.2938354193053847 -1.2384771128455578" free_energy=-181.1644548254046
N       1.1140676887     -0.0140594056      0.4971030641      0.0125422339      0.0354416343      0.4141646283     -0.5366534021
C      -1.2569180158      0.0304164676     -0.1567958899     -0.1025216007      0.0090521175      0.1372197637     -0.1948272960
C      -0.2627364491     -0.0218469326      1.0071477526     -0.6956267587      0.0777216357      0.1231227669     -0.0212707975
C      -2.7029399540      0.0169172843      0.3497286934      0.0341773460      0.0682612306     -0.0470860149     -0.2389805357
C      -3.6930003114      0.0502545273     -0.8108173601     -0.1920909387     -0.0117864937     -0.0085965988     -0.0914555091
C       1.7488537770      1.1768217411      0.2705709786      1.1933191693      0.1369711083     -0.5491640227      0.2375576135
C       1.7461348777     -1.1980291649      0.2312239986      1.2569143679     -0.1314836489     -0.5004154971      0.2256443489
C       3.0534862004      1.2015354840     -0.2285012887     -0.9978120893     -0.4231587011      0.3856394521     -0.0253738573
C       3.0501564273     -1.2089507501     -0.2698232579     -0.9140100452      0.4273760381      0.3534187148     -0.0220562983
C       3.7054037958     -0.0003034964     -0.4994101312      0.2306647125     -0.1049796360     -0.1000872469      0.0120925761
H      -1.0876976919     -0.8482721982     -0.8175542508      0.0004402971      0.2179871028      0.0399387121      0.0976047655
H      -1.0798274830      0.9562363604     -0.7473277862     -0.0013895004     -0.2237237479      0.1243477035      0.1298482480
H      -0.4430282579     -0.9373847638      1.6141821846      0.3507221194      0.1779064630     -0.2598721594      0.1035555655
H      -0.4260698121      0.8454865045      1.6840652676      0.2593625091      0.0281623904     -0.2946459892      0.1726105878
H      -2.8824846787     -0.9028909328      0.9480697737      0.0763963847      0.2294768981      0.0030766688      0.0784053610
H      -2.8799678038      0.9004989945      1.0004626720      0.1466643574     -0.2499187225     -0.0476185766      0.1497570360
H      -4.7300069483      0.0419002104     -0.4141152703      0.2365346921      0.0157541615     -0.2502736138      0.0518951618
H      -3.5502705263      0.9719797298     -1.4143669017     -0.0986322983     -0.2903567155      0.1064536499      0.0551799672
H      -3.5548041516     -0.8398325718     -1.4613745511     -0.1018336396      0.2908251190      0.0843890722      0.0363117853
H       1.2473420262      2.1154722271      0.4714737706     -0.6282672271      0.0128605581      0.3042648717      0.1472128960
H       1.2416307979     -2.1418513837      0.4008826671     -0.4417318045      0.1150246304      0.1976018448      0.0873496132
H       3.5535145996      2.1453522203     -0.4041609075     -0.0394960748      0.3051213063      0.0364275232      0.0538330172
H       3.5470946835     -2.1475151598     -0.4786585512     -0.0111230346     -0.2958810042      0.0038458811      0.0494582838
H       4.7158116518      0.0049148255     -0.8870559087      0.2673765720     -0.0094373161     -0.1141005299      0.0445111140
C      -2.7350740794      4.3952759757      0.8407940209     -0.8493453164      0.1997909649     -0.6050273722     -0.2280562193
C      -1.6560590385      4.3473797208      1.8759858976     -1.4163991996      0.4149049979     -0.8810313967      0.9384452915
O      -0.7562778970      3.5294869540      1.7803300779      2.9865855544     -3.4590500418     -1.0676109697     -0.7865627084
O      -1.6692195103      5.1255544406      2.8161621227     -0.6960104169      2.6027574343      2.4507886023     -0.6767868971
H      -2.2889284194      4.6118664605     -0.1525266123     -0.1778183611     -0.1493530543      0.2045514492      0.0384721176
H      -3.2585650226      3.4173445622      0.7997812853      0.1309021806      0.2401613527     -0.1121945398      0.0660405475
H      -3.4750239018      5.1879648244      1.0833015015      0.1815058097     -0.2564280620     -0.1315267770      0.0462376234
