29
Properties=species:S:1:pos:R:3:forces:R:3:charge:R:1 energy=-170.1597019711499 homo_lumo=2.1368124857179422 dipole="-2.5889199815318102 1.7998031673431734 0.11274229891889377" free_energy=-170.1597019711499
N       0.7290910515     -0.2447045211     -0.5061331953      0.3466794615      0.2059846990     -0.2373513645     -0.5083031550
N      -1.3497001275     -0.6627349100     -0.1405639307     -0.6323404199      0.0262549078     -0.1130865511     -0.5661247474
C       1.9509113461      0.2883448249     -1.1040256969      0.5487558573      0.0868721083      0.1741137822     -0.0086891038
C       2.9371866410      0.7531376881     -0.0346444621     -0.5455545496      0.3398482449      0.0860476728     -0.2467044769
C      -0.5081787964      0.1102844232     -0.8341220479     -0.1576694482      0.1072239084     -0.0502418297      0.5926271963
C       0.6887495728     -1.2635493574      0.4023527166      0.1065395496     -0.2562332440      0.2544143784      0.2436751795
C      -0.6229195980     -1.5296889561      0.6354512617     -0.0461413766     -0.0005955682      0.1434039594      0.2106708237
C       2.3519887807      1.8454388994      0.8567079428      0.1901617883     -0.2730381394     -0.2944430806     -0.0527372143
C      -2.7988781485     -0.6227636677     -0.2151420057      0.1086301522     -0.0308331449      0.0269922439      0.1183483883
H       1.6647736737      1.1087985886     -1.7682239171     -0.1603125282      0.2139084566     -0.0884167776      0.0730941148
H       2.3865976880     -0.5311850276     -1.6870340866     -0.0362401941     -0.2720225892     -0.0881534763      0.1800398093
H       3.2430271878     -0.1056919656      0.5689912985      0.1599535426     -0.3024759490     -0.0143058693      0.1668790144
H       3.8226541790      1.1316774577     -0.5521769159      0.2603587066     -0.0037918090     -0.1649784825      0.0913299321
H      -0.7876849846      0.8791314828     -1.5336571660     -0.0468120552      0.1392315955     -0.1355886148      0.0801082591
H       1.5981216342     -1.7205807678      0.7783098334      0.5066547194     -0.1602073347      0.0493510696      0.1201648240
H      -1.0968898480     -2.2548349239      1.2728333191     -0.1053529764     -0.1771474826      0.1595695024      0.0237255018
H       1.4780011016      1.4749328876      1.3949104080     -0.2616351179     -0.0485749325      0.2225909345      0.0433867948
H       2.0527635662      2.7114131087      0.2632033371     -0.1122123011      0.3305408892     -0.1255862215      0.0134217588
H       3.0967368760      2.1639763362      1.5852524883      0.1473074253      0.1588991036      0.2818654455      0.0439005919
H      -3.0999715944      0.1765772411     -0.8900633690     -0.1029268429      0.1611113445     -0.1267724890      0.0608634145
H      -3.1660706367     -1.5794233052     -0.5889806242     -0.1019526836     -0.1882863512     -0.1301565880      0.0723501950
H      -3.2069436744     -0.4402424705      0.7795423220     -0.1117123957      0.0953573341      0.2007934049      0.0665510205
C       3.2252344573     -2.8696685289     -0.5470068699      0.9818008373     -1.1789507050     -0.4666315077      0.8997662585
O       3.4087129395     -2.3696524298      0.5668160855      0.3632391475      0.5669992727      1.6292363640     -0.8260292225
O       2.3629394975     -2.6251597552     -1.3927312562     -1.0793208302      0.2182760348     -1.3240305527     -0.8097897358
C       4.2821817455     -4.0040132660     -0.9529890636     -0.9426418409      0.8301820905      0.3125462837      1.3050668687
F       4.5342671139     -4.8514837364      0.0586879108      0.1507931217     -0.6246800520      0.8976091030     -0.4611876384
F       5.4625179927     -3.4570662866     -1.3094962683      0.9566066289      0.5735532673     -0.2691337722     -0.4654771655
F       3.8695714372     -4.7473237213     -1.9914926559     -0.3846553776     -0.5374059553     -0.8096569668     -0.4609274861
