22
Properties=species:S:1:pos:R:3:forces:R:3:charge:R:1 energy=-133.02423105120891 homo_lumo=3.766242695851972 dipole="-0.8099538408123518 0.30043376066304767 -0.3295588704965673" free_energy=-133.02423105120891
N      -0.2373076623      0.0901310129     -0.3556982610     -0.3561708566     -0.0298815887      0.0027099663     -0.6098025690
C       0.3746960870      1.2107172123      0.1619477166     -0.3248583335     -0.2509959252     -0.1631215328      0.2500565634
C       0.4657618408     -1.0971967867     -0.4048496166     -0.3947592096      0.3216381992     -0.0344289235      0.2490631447
C      -1.5920448091      0.1629239174     -0.8799249412      0.4138465238      0.0136938992     -0.0316849036      0.1340334862
C       1.6351722952      1.1959889520      0.6090776378      0.8096840635     -0.3569380402      0.0231023967     -0.0757626515
C       1.7281273623     -1.1973015965      0.0208237817      0.7371525537      0.3075155408      0.2859247380     -0.0955871944
C       2.5159296385     -0.0081611164      0.4853187759     -0.7765051625     -0.3038075456      0.3840257994      0.1075998224
H      -0.2483341195      2.0967763527      0.2218628673     -0.1156536166      0.1278860077     -0.0105932823      0.0487924748
H      -0.0913283191     -1.9524366025     -0.7721667563     -0.1044996047     -0.1185328451     -0.0881886353      0.0470465990
H      -2.0958439115     -0.7915993598     -0.7223673497     -0.1511701546     -0.1917897342      0.0742883200      0.0418179673
H      -2.1419235305      0.9478441003     -0.3597156207     -0.1545402760      0.1352639762      0.1393776228      0.0422539030
H      -1.5762144067      0.3865839018     -1.9512107708     -0.0881810251      0.0605248733     -0.2817133588      0.0367141626
H       2.0757119981      2.0925748406      1.0256138153      0.0153499530      0.2616505758      0.1620115116      0.0378321817
H       2.2444675717     -2.1475074216     -0.0098952117      0.0652105417     -0.2837449311      0.0380011949      0.0583185641
H       3.0574343171     -0.2275031909      1.4196767990      0.0825701175      0.0009974966     -0.0454911213      0.0987642813
C       5.6280616333     -0.0324538010     -1.5777320548     -0.3251156107      0.0042676300      0.3263397813     -0.0970546872
C       4.6514421185     -0.4450626241     -0.4971788553      0.7627761608      0.3496509758     -0.6958145340      0.9121481846
O       3.5619459399      0.3105593158     -0.5106008834     -0.5465858411      1.0853058801     -0.6658966767     -0.6625128269
O       4.8455066312     -1.3549090913      0.2662088632      0.2561411331     -1.1876487369      0.9427523645     -0.7038161414
H       5.4044608332     -0.6101746134     -2.4741898170     -0.0452985109     -0.1486237054     -0.3164887256      0.0671862022
H       5.5253556721      1.0260615519     -1.8039795894     -0.0154880252      0.3095750589     -0.1509221765      0.0501792034
H       6.6419710068     -0.2596759750     -1.2569405950      0.2560951801     -0.1060070613      0.1058101750      0.0627293299
