44
Properties=species:S:1:pos:R:3:forces:R:3:charge:R:1 energy=-240.9898158329691 homo_lumo=4.220190405859453 dipole="-1.17592444151999 -0.7178243140108377 -2.833956688786065" free_energy=-240.9898158329691
N      -0.0136637546      0.4913590446     -0.0283647497     -0.0036446815      0.0043083583      0.0039396126     -0.4853758843
C      -0.6149105386      1.6206846605      0.8048650619     -0.0070502841      0.0044864849      0.0046895016     -0.0510225353
C      -1.1250871931     -0.2052158146     -0.7856566961     -0.0034451151      0.0050040508     -0.0005317944     -0.0048659823
C       0.7325055766     -0.4623284511      0.8970972145     -0.0058688669      0.0051227110     -0.0014731558     -0.1045666248
C       0.9240061771      1.0871328249     -1.0647865879     -0.0008210577      0.0044430404      0.0028456885     -0.0180686463
C      -1.7467250129      1.1559882027      1.7055544226      0.0026083719     -0.0007935067     -0.0017227323     -0.1840142382
C      -2.2269935688     -0.7261488015      0.1202501508     -0.0011563163      0.0086937377      0.0020868433     -0.1717771764
C      -2.8367110403      0.4141066376      0.9357648052      0.0078825485     -0.0002685687      0.0016886874     -0.1590487354
C       1.3874663666     -1.6464972301      0.2098347872     -0.0034063610      0.0024053782      0.0045478470     -0.2620764407
C       2.1471591762      1.7996112618     -0.5155741333      0.0007312415     -0.0010515019     -0.0009206721     -0.2571592492
C       2.0953229444     -2.5088461053      1.2583244820     -0.0074109599      0.0086308500     -0.0038951352     -0.0733960099
C       2.9808074396      2.3643666942     -1.6652434127     -0.0073082051     -0.0020837751      0.0022054296     -0.0650721675
H       0.2092215752      2.0351339837      1.4056186340      0.0035569350      0.0053998605      0.0053215847      0.2263855641
H      -0.9704373043      2.3623716178      0.0694749300     -0.0008403956      0.0079472953      0.0038877266      0.0979216572
H      -1.5315306662      0.5518399387     -1.4770950008      0.0005105651      0.0002465113      0.0008498951      0.1261897333
H      -0.6620838281     -1.0013208262     -1.3843200266      0.0011172898      0.0034941897      0.0011279637      0.1315941254
H       1.4560541044      0.1637766103      1.4405644186     -0.0070768018     -0.0027105094     -0.0001088205      0.2573829384
H       0.0137999297     -0.7966973378      1.6537039512      0.0001236090      0.0035885199     -0.0003377992      0.2002335255
H       1.2167880770      0.2585779381     -1.7285529591     -0.0045894960      0.0043165379      0.0048712661      0.1335307794
H       0.3040920700      1.7827307703     -1.6548542383      0.0063633539     -0.0014970271      0.0050168465      0.1231459783
H      -1.3346570200      0.5508963168      2.5297458513      0.0000441036      0.0038010048      0.0021088235      0.1567862455
H      -2.1520250370      2.0625132138      2.1850553837     -0.0043289719      0.0024174155      0.0077657822      0.1124815140
H      -2.9841497437     -1.2035210492     -0.5242296173     -0.0028204187      0.0027759854      0.0004139246      0.0996181558
H      -1.8381487243     -1.5149843958      0.7856628916     -0.0015334516      0.0012677967     -0.0022672804      0.1123081424
H      -3.5992966664      0.0243097408      1.6280189614     -0.0049155107     -0.0000834180      0.0056679816      0.0881492036
H      -3.3513522252      1.1102942212      0.2468198950      0.0003273337      0.0020020869      0.0024379368      0.0779508406
H       0.6417467780     -2.2641411987     -0.3199418058      0.0026829961      0.0063854026     -0.0035070471      0.0910220401
H       2.1260079914     -1.3097269158     -0.5376685678     -0.0051950002      0.0003557508      0.0042969392      0.1009171946
H       1.8528124882      2.6096280909      0.1673171991      0.0065392847     -0.0032445903      0.0073435839      0.1471977149
H       2.7617033417      1.1116349505      0.0837059588      0.0017123026     -0.0034871780     -0.0012441142      0.1403011362
H       2.5799113481     -3.3741149838      0.7830989653     -0.0049157355      0.0026730553      0.0015311457      0.0362575117
H       1.3821807913     -2.8811084272      2.0095784966     -0.0043947352      0.0000295668     -0.0020975418      0.0461919197
H       2.8591097494     -1.9278199282      1.7929652393      0.0003461754      0.0044154016      0.0018357210      0.0880106376
H       3.8610607361      2.8880186796     -1.2662356638     -0.0007650913     -0.0005124095     -0.0066956840      0.0634300084
H       2.4061091425      3.0857629170     -2.2677991183     -0.0111506886     -0.0032007807      0.0005009635      0.0330945914
H       3.3391221426      1.5671858494     -2.3361057779     -0.0118713358     -0.0020891730     -0.0073411443      0.0339661935
S       1.5632254801      1.4427510140      3.9981401589      0.0052497861     -0.0071821503     -0.0069363188      1.7375726255
O       1.3813514656      2.4866079513      5.0050433838     -0.0025199692     -0.0119495148     -0.0059116029     -0.7538400668
O       1.9598005347      1.9188114455      2.6424255117      0.0161227421     -0.0036872204     -0.0065287266     -0.8305843456
O       0.5497727637      0.3667205588      3.9626086637      0.0128171175     -0.0215470574     -0.0135990486     -0.8091909968
C       3.1123230588      0.5409973105      4.5553364101      0.0171251489     -0.0122116037     -0.0020189972      1.1246280145
F       3.4947115199     -0.4005610529      3.6313182708      0.0103476276     -0.0065118219      0.0025892636     -0.4710642368
F       2.9137844789     -0.1054819188      5.7322041913      0.0052339515     -0.0010320707     -0.0036899240     -0.4424992030
F       4.1561985092      1.3949922466      4.7136041539      0.0055869653     -0.0090671148     -0.0087434189     -0.4426454520
