44
Properties=species:S:1:pos:R:3:forces:R:3:charge:R:1 energy=-240.72127124211616 homo_lumo=4.280017630991469 dipole="-0.4082012169358654 0.417470997233755 -2.8725604365354274" free_energy=-240.72127124211616
N      -0.2958579834      0.1284975095      0.0072425958      0.0389115126      0.2116312130     -0.2535595083     -0.4966316623
C      -1.0568367693      1.0277751061      0.9462389171     -0.4493200966     -0.0174792516      0.4449371073     -0.0580426220
C      -1.0787648059     -0.0229810888     -1.2631728843     -0.4901975176     -0.3784710844     -0.0905838144      0.0009990973
C      -0.0419180127     -1.1921956049      0.6816226507      0.3086930633     -0.5447504574     -0.4022829699     -0.1029119618
C       0.9975958549      0.8078945722     -0.3678667060      0.5309436228      0.0557089700      0.4598913479     -0.0146737699
C      -2.4936103526      0.5821906819      1.1886673520      0.0634143657      0.0134593328     -0.5584650689     -0.1587773986
C      -2.4884583467     -0.5506719835     -1.0310654749      0.1021215915      0.5005315159      0.0789494258     -0.1607229224
C      -3.2604588149      0.3988594321     -0.1171266409      0.3000807810     -0.2785217149      0.1622256467     -0.1461804122
C       0.6598449908     -2.2420457734     -0.1736146973     -0.2215006253      0.1352834011      0.3318366641     -0.2508151573
C       1.9917639696      1.0149982261      0.7741822434     -0.0808927762      0.1405461473     -0.5922015330     -0.2598339467
C       0.9794200751     -3.4480333649      0.7120691247     -0.0311053226      0.2958245837     -0.3056899393     -0.0459475758
C       3.1598475880      1.8629011423      0.2758085955     -0.3317281955     -0.2380443916      0.0845242504     -0.0426049628
H      -0.5189074207      1.0404389431      1.8939400114      0.0981733760     -0.0518365190      0.0625926139      0.2563908769
H      -1.0415285680      2.0293910946      0.5070621792      0.0619424835      0.2218402146     -0.2264954052      0.0948652398
H      -1.1291377341      0.9682319349     -1.7236408982      0.0378478207      0.2455037979     -0.0746158718      0.1222152702
H      -0.5171657692     -0.6842758621     -1.9254186007      0.2119564850     -0.0916273392     -0.1254803806      0.1311655552
H       0.5609792195     -0.9753229308      1.5638252011      0.0190016848      0.1392417957      0.2654744833      0.2809272460
H      -1.0018098202     -1.5755453079      1.0267739248     -0.1277718877      0.0194904703      0.1343189703      0.1789598456
H       1.4570213851      0.2089683336     -1.1587339196      0.0335867917     -0.1409815101     -0.2071251551      0.1279459296
H       0.7219566503      1.7763314362     -0.7962394075     -0.1503363100      0.1785042473     -0.1222419228      0.1207814474
H      -2.5086224707     -0.3414276718      1.7693271389      0.0498795699     -0.1076677157      0.2620377763      0.1381904705
H      -2.9671978202      1.3570305491      1.7965406373     -0.0535367851      0.1381213513      0.2788721587      0.1022436565
H      -2.9792556013     -0.6200347671     -2.0055816025     -0.0891913308     -0.1184969117     -0.2920533980      0.0922794849
H      -2.4584615955     -1.5539628104     -0.5991817227     -0.0000964720     -0.3064355238      0.0686863293      0.1068046705
H      -4.2512363646     -0.0115931378      0.0901564126     -0.3136404024     -0.0307469144      0.0187402021      0.0810030913
H      -3.3881761005      1.3644566062     -0.6181864421     -0.0872669075      0.2578253058     -0.1873201169      0.0703895959
H       0.0235629170     -2.5625638158     -1.0042639753     -0.1157473878     -0.0933976113     -0.2749779568      0.0825691085
H       1.5908070477     -1.8475731829     -0.5897363068      0.2508488729      0.0882105926     -0.1452594211      0.0983463485
H       1.5130961138      1.5164821336      1.6168851107     -0.0660012383     -0.0184482346      0.2261336894      0.1558335407
H       2.3708239252      0.0559327920      1.1306933032     -0.0058212040     -0.1794637105      0.1800652536      0.1395468700
H       1.4938499512     -4.2097552523      0.1273232384      0.1406585452     -0.2850502019     -0.1275059181      0.0331702459
H       0.0624123114     -3.8759640276      1.1171015856     -0.2426264225     -0.1707752233      0.1778220107      0.0410891417
H       1.6192602445     -3.1490663012      1.5420524981      0.1564542456      0.0436143090      0.2930268450      0.0641055656
H       3.8748484119      2.0018893556      1.0855369182      0.2482677252      0.0680209119      0.1908155195      0.0565424055
H       2.8141187200      2.8432844740     -0.0551299855     -0.0352531218      0.3301774133     -0.1190007476      0.0218745456
H       3.6670551037      1.3721210378     -0.5561555505      0.2275609386     -0.0977901356     -0.2748002280      0.0230766078
S       0.2096562990     -0.5148345688      4.1815340795     -0.1414457548      0.1220949932      0.1417064915      1.7605391441
O       1.3714816923     -0.3028616938      3.3219804995      1.0900345683      0.2831171854     -0.6634185089     -0.8299610321
O       0.4189280269     -1.3834782317      5.3062091486      0.2142838425     -0.7819412042      1.4043429465     -0.7635668355
O      -1.0164282881     -0.7461909207      3.4227494652     -1.1009513231     -0.0792527357     -0.3739029068     -0.8292635808
C      -0.0679049633      1.1769292736      4.8922808546      0.1900895217     -1.0374346588     -0.5087862764      1.1441189496
F      -0.1998783797      2.0500802647      3.8753956703     -0.1562497246      1.1084699458     -0.9767182660     -0.4784903071
F       0.9507479844      1.5810270143      5.6371180701      1.1058602251      0.4017169837      0.8284746518     -0.4432349349
F      -1.1753827118      1.2405453914      5.6186811375     -1.1899308276      0.0496783683      0.8070109301     -0.4443148694
