37
Properties=species:S:1:pos:R:3:forces:R:3:charge:R:1 energy=-206.49988732399297 homo_lumo=3.6511121617123385 dipole="-1.4454698519804436 -1.4011405546821445 2.1553508694857526" free_energy=-206.49988732399297
C       2.6643439719      0.5601453932      1.3089437214     -0.0003722695     -0.0042555025      0.0044161391     -0.1576014781
C       1.5750471847      1.5232425589      0.8836709850      0.0081726748     -0.0046605028      0.0006424798     -0.0421018245
H       1.0581515318     -0.3835761384     -1.3148029117      0.0054262557      0.0055028902     -0.0088206722      0.1945268553
H       0.5870901155     -1.4735242224      0.0498626641      0.0017230913     -0.0030951882     -0.0150104720      0.0976473315
H       3.1983263435     -0.2163178260     -0.6408764664      0.0002088318      0.0021127664     -0.0070660267      0.1407638922
H       2.9345284923     -1.5073026787      0.5768661214      0.0068334348      0.0025184976      0.0051751915      0.0681097194
H       2.4891637583      0.1507457409      2.3171949223     -0.0004057563     -0.0080636059      0.0040298260      0.0673782213
H       3.6402106571      1.0659551775      1.3213868802      0.0096477882      0.0097888148     -0.0058939264      0.1058915447
H       1.2098413752      2.2220690270      1.6482900205     -0.0015816360     -0.0049938449      0.0139106078      0.0768713399
H       1.8788062256      2.0405604549     -0.0411454469     -0.0023695130      0.0085702343      0.0074058357      0.2670031348
H      -1.0892160246     -0.5731601447      1.3436617736     -0.0070647916     -0.0141996234     -0.0107319352      0.0983351469
C      -0.3248177070      0.1487933691      1.6518433124     -0.0023128713     -0.0130746072      0.0082737897      0.0639023339
H       0.3742086073     -0.3314309816      2.3460936403      0.0117563965     -0.0103750651     -0.0042529442      0.1100414946
H      -0.7990582548      1.0136110755      2.1343851688     -0.0089526004      0.0017965272      0.0036954222      0.0793496172
C      -0.4840187740      1.4136902462     -0.4802854452      0.0057406392     -0.0032779384     -0.0171682895     -0.0506854917
H      -0.6893847953      2.3524623954      0.0589157680     -0.0118739999      0.0031229729      0.0037242381      0.1202787949
H       0.1669879137      1.6492304308     -1.3420513418     -0.0032375177      0.0005653235      0.0116892897      0.2278035007
H      -2.4425406243      0.5629716417     -0.0185694498      0.0006886063      0.0048565549     -0.0013535485      0.0781675539
H      -3.0004464011     -1.7939773147     -2.9459149209      0.0149553563     -0.0014747307      0.0043413390      0.0452305594
C      -1.6983192914     -0.5002477113     -1.7618901691      0.0170969083      0.0030733014     -0.0040510679     -0.2538498253
H      -0.9852358310     -0.3176418146     -2.5847498059     -0.0024183233     -0.0029487014      0.0010962318      0.1131649077
H      -1.2992910979     -1.3495538091     -1.1823788543      0.0059350925     -0.0053448442      0.0007261992      0.1108821289
C      -3.0622477783     -0.8845502839     -2.3301424079     -0.0024121477     -0.0034063811     -0.0012793605     -0.0612360244
H      -3.4619482898     -0.0762919197     -2.9623529053     -0.0068550478      0.0007441597     -0.0044583109      0.0426194295
N       0.4221791471      0.6206844653      0.4530161653     -0.0083701572     -0.0032635690      0.0075087943     -0.5141171235
C       1.1233091633     -0.5602372739     -0.2358464696      0.0035160831      0.0061740705     -0.0108719961     -0.0068310146
C       2.5901930888     -0.5257590667      0.2219652815      0.0095882860      0.0048730571     -0.0107199749     -0.1359970640
H      -3.7894249345     -1.0707425097     -1.5235695252     -0.0041396270     -0.0036988183      0.0030152891      0.0316975324
C      -1.7891917101      0.7534027951     -0.8896123293     -0.0138684722      0.0024405442      0.0105856835     -0.1906639811
H      -2.3102113080      1.5352849841     -1.4734088422     -0.0005121970      0.0054947357      0.0054057546      0.1289342107
C       2.5265348620      2.4794462687     -2.7773831133     -0.0037078213      0.0145003196     -0.0031112346      0.9037150098
O       3.1410725288      2.4386080108     -3.8454266051     -0.0140023473      0.0198683781      0.0061293063     -0.7176557504
O       2.0292734553      1.5575071841     -2.0527014188      0.0108421131      0.0062688517      0.0019535461     -0.8657316467
C       2.3179443267      3.9089742280     -2.1435643604     -0.0095198068     -0.0008523253      0.0088959210      1.2294664903
F       1.0012951879      4.1320309743     -1.7724548608     -0.0159104178      0.0003535325     -0.0071995632     -0.4801770522
F       2.6695863025      4.9383415044     -2.9491725493      0.0050027387     -0.0179051176     -0.0034321793     -0.4492089740
F       3.0549236983      4.0443430707     -0.9778131867      0.0027530243      0.0022648334      0.0028006180     -0.4759234994
