40
Properties=species:S:1:pos:R:3:forces:R:3:charge:R:1 energy=-220.45231297556194 homo_lumo=0.017108584134375625 dipole="-5.517643421354182 2.4972042616364813 -2.6866318887371" free_energy=-220.45231297556194
N      -1.4558226532      0.3999135707     -0.0660594786      0.0871815289      0.4920617920      0.0902930794     -0.5465882961
C      -1.7733514401     -0.8613189677     -0.7989337841     -0.1470732650     -1.8498559372     -1.4487067600      0.0030146373
C      -2.5365506256      0.5568939244      0.9479174474     -1.4358788063      0.4078807637      1.8906553740      0.0067500347
C      -0.1358054341      0.3126905110      0.6325767173      1.8863920159     -0.0806442312      0.3480942911     -0.0431791999
C      -3.0042556628     -1.4874017568     -0.1622922680     -0.0269585246     -0.7737148977      0.2541902163     -0.1399554867
C      -3.6837122186     -0.3462814880      0.5442660334     -0.7392288291      0.3626033077     -0.1809522556     -0.1492024621
C      -1.4910916609      1.5617100901     -0.9927350392      0.0404806674      1.0711774693     -0.9801817939      0.0106314713
C       1.0912337819      0.3120372778     -0.3088245022     -0.3953607195      0.1638084265      0.1036176410     -0.2064932923
C       2.3684821034     -0.0725597634      0.4493236098     -0.1487020324     -0.0488619905     -0.1318239624     -0.1802233490
C       3.5933648561      0.0048459981     -0.4698844653      0.0976927367      0.0364442738      0.1260590127     -0.2036106445
C       4.8656438953     -0.4057138778      0.2635472885      0.1777781050     -0.1124162427     -0.0718049276     -0.1096109263
H      -0.9449093775     -1.6030385971     -0.7720261007      0.0211340566      0.6848008110      0.0719705612      0.1615163119
H      -1.9977263020     -0.6762984270     -1.8753637601      0.3083398952      0.4040235518      0.4812503586      0.1314265031
H      -2.8920359648      1.6082820967      1.0513660339      0.5700943349     -0.2743291160     -0.2198623476      0.1303982808
H      -2.2049792171      0.2354090460      1.9633021598      0.4146954000      0.1078269244     -0.5942228349      0.1542069553
H      -0.1078870253     -0.6112694317      1.2564976153     -0.3523645000      0.2508235202     -0.3229072723      0.1580756419
H      -0.0217676593      1.1719159534      1.3335688682     -0.4026750012     -0.2195641086     -0.2925230732      0.1508068963
H      -2.6924645458     -2.2533015386      0.5826832291     -0.1393416083      0.1211064402     -0.3038121777      0.1126936276
H      -3.6712815687     -1.9554235489     -0.9185162210      0.3513886194     -0.0138705047      0.2598973117      0.0978217503
H      -4.3572363410      0.1883423342     -0.1612187627      0.0301731095     -0.1461972313      0.2606052525      0.0930118747
H      -4.2637734880     -0.6975194981      1.4255935410      0.0857831103      0.3263947494     -0.3270620934      0.1065979690
H      -0.8204423662      1.4049744366     -1.8656981732     -0.1529504296     -0.1436937170      0.5096092693      0.1289256356
H      -2.5164364097      1.7174580584     -1.3975680844      0.2870089226     -0.3035942271      0.3525704187      0.1127471714
H      -1.1791661495      2.4948717067     -0.4724446757     -0.0815271213     -0.5257577916     -0.0108642093      0.1130339037
H       0.9440910338     -0.3985190726     -1.1487361329      0.0054278110      0.1421330534      0.1099784967      0.1091065833
H       1.2272328801      1.3304313789     -0.7328693514     -0.0435601686     -0.2765712781     -0.0205405244      0.1102144303
H       2.2661979853     -1.1084662267      0.8424792931      0.1370481359      0.2696869155      0.0845932784      0.1350300895
H       2.5096564506      0.6191395808      1.3092351382      0.0083792024     -0.2777442328     -0.1073216808      0.1057087941
H       3.7153615530      1.0449954270     -0.8427078003     -0.1701581011     -0.1775492345     -0.0659022293      0.0678536710
H       3.4510608261     -0.6686140749     -1.3431328867     -0.0776142420      0.2150458652      0.0893607018      0.0753783194
H       5.0220191819      0.2336270141      1.1582847270      0.0372835560     -0.3330499819     -0.2001086934      0.0598350167
H       5.7382820720     -0.2894954576     -0.4129760477     -0.1599348591     -0.0662935319      0.2748174427      0.0328085236
H       4.8000130508     -1.4690388310      0.5736236181      0.1588743353      0.2973710961      0.1462209626      0.1244705469
C       5.0522425782     -2.5909982765      3.2292742198      0.4351390725     -1.0289423668     -1.0813866724      0.8139392664
O       4.1077401120     -3.2016106266      2.7542145290     -4.3485252268     -0.7362294574     -0.4188995172     -0.7885446189
O       6.1819609363     -2.8200539829      2.8279429513      3.9106543051      0.9436061542      0.2234905933     -0.7629853253
C       4.8331745657     -1.5616059326      4.2966653316      0.0941414273     -0.4238086224     -0.0667773035      1.2319430727
F       5.5215712959     -1.9286733623      5.4382746078     -0.5036033995      0.7440895392     -0.0114659950     -0.4617025356
F       3.4862661222     -1.4519211142      4.5965855384      0.5444455808      0.6392231992      0.4784470592     -0.4717514839
F       5.2988116285     -0.3355154030      3.8589753740     -0.3640790942      0.1325808487      0.7014050026     -0.4740993582
