40
Properties=species:S:1:pos:R:3:forces:R:3:charge:R:1 energy=-221.1509083354192 homo_lumo=0.9810845283213416 dipole="-0.4281354028569219 4.010171773124869 2.6145825190410203" free_energy=-221.1509083354192
N      -1.4526832594      0.4335917693     -0.0348504753      0.1247420212      0.6037780908      0.1961865141     -0.5404047452
C      -1.7798357237     -0.8315788711     -0.7555141888     -0.1449062735     -2.0133476734     -1.5643404437     -0.0394015785
C      -2.5262330778      0.6026184342      0.9843184421     -1.4300476769      0.5347366098      1.9082179558      0.0053856506
C      -0.1288152205      0.3464981604      0.6555529747      1.6739756076     -0.0745134522      0.2923829045     -0.0311337382
C      -3.0279418835     -1.4340736918     -0.1288117093     -0.0744387168     -0.7639257636      0.2541651906     -0.1346211465
C      -3.6875694631     -0.2841157774      0.5833687900     -0.6987963486      0.3699639483     -0.2053557768     -0.1509048784
C      -1.4874638443      1.5884512605     -0.9695165346      0.0506368596      1.0351168023     -0.9142185920      0.0080729488
C       1.0936460543      0.3109181866     -0.2929289699     -0.4007843840      0.0739411693      0.0414531578     -0.2159912805
C       2.3622479016     -0.0888392483      0.4714115898     -0.1538807713      0.0491294806     -0.1576776171     -0.1709681453
C       3.5928034785     -0.0676795959     -0.4421718718      0.0423672140     -0.0538062253      0.1185490096     -0.2135176813
C       4.8519708090     -0.4625746766      0.3245496142      0.1983818441     -0.0151730704     -0.0747918241     -0.0876851617
H      -0.9622963950     -1.5839006455     -0.7062102918     -0.0806867259      0.4177000802     -0.2227486464      0.1916490557
H      -1.9867877170     -0.6557820972     -1.8362590820      0.4244571476      0.2457950388      0.4918924965      0.1685067866
H      -2.8660928341      1.6588934870      1.0919918294      0.5718788327     -0.2918249799     -0.1931188197      0.1260288773
H      -2.1941509450      0.2742206898      1.9974369752      0.3939001830      0.0989182428     -0.5867849124      0.1410183427
H      -0.1075938715     -0.5645873633      1.2983026473     -0.3722995438      0.2514994707     -0.3815106079      0.1507361061
H      -0.0009534451      1.2183019994      1.3382189402     -0.3930846688     -0.1976291414     -0.2666181280      0.1357366364
H      -2.7377237115     -2.2136374941      0.6107490838     -0.1371276515      0.0916136807     -0.3914953241      0.1103370058
H      -3.7008518698     -1.8816840602     -0.8922614236      0.4891388260     -0.0819994092      0.3122202106      0.1212181189
H      -4.3572028184      0.2612262113     -0.1176099027      0.0335694435     -0.1324827390      0.2907422883      0.0965680064
H      -4.2687970195     -0.6291557314      1.4664072956      0.0857409609      0.3509403602     -0.3358260139      0.1013504073
H      -0.8140261800      1.4272266568     -1.8394952701     -0.2033749417     -0.1754025798      0.4842881270      0.1362628003
H      -2.5123258406      1.7396157350     -1.3774290185      0.3368609533     -0.3126731631      0.3506271024      0.1238861513
H      -1.1784119832      2.5259068811     -0.4552284359     -0.0913146768     -0.4928985561     -0.0030678783      0.1008952574
H       0.9319481912     -0.4077151609     -1.1233951748     -0.0240116697      0.1438671129      0.1520877795      0.1528739879
H       1.2484598255      1.3207750111     -0.7307790659     -0.0388032668     -0.2827800038      0.0214676197      0.1103765964
H       2.2331556039     -1.1130617276      0.8861915012      0.0413727532      0.2535061657     -0.0135716689      0.1079427266
H       2.5197349031      0.6172434456      1.3164793129      0.0055773400     -0.2252095112     -0.0814972944      0.0869964410
H       3.7324682504      0.9528857492     -0.8605295887     -0.1249630799     -0.2438710338     -0.0140379358      0.0885143186
H       3.4467351204     -0.7777163121     -1.2852734902     -0.0584997251      0.2608933604      0.1307636747      0.1134186091
H       5.0315845554      0.2448406354      1.1621850323      0.0287027674     -0.2671780804     -0.1784610363      0.0372336238
H       5.7277394764     -0.4345947953     -0.3573763234     -0.1565922819     -0.0638209396      0.3089947035      0.0548707921
H       4.7499775681     -1.4918374541      0.7299696980      0.1135962412      0.3021769718     -0.0574034566      0.0503667593
C      -0.7883443665     -4.2630110466     -3.2176119845     -0.0989581818     -1.6883896775      0.6501834036      0.8267115822
O      -1.1438946994     -3.9487545666     -2.0930410996     -1.2005235320      3.4759999590      3.5660123366     -0.8189645931
O      -0.6470124405     -5.4422095447     -3.4977472313      0.9618782714     -2.3326653046     -2.8412265408     -0.7564137897
C      -0.5279349314     -3.2127506201     -4.2558023298      0.0263621002     -0.7652800582     -0.0598677726      1.2284934127
F       0.7709578986     -3.3290856828     -4.7147522982     -0.4988909382      0.7314165369     -0.2643895172     -0.4622950165
F      -0.7048509779     -1.9475154330     -3.7254019939      0.2317578726      0.4443015677     -0.8005063848     -0.4919489017
F      -1.4019512801     -3.3844722805     -5.3131645139      0.5470878158      0.7395767136      0.0382817168     -0.4612003445
