31
Properties=species:S:1:pos:R:3:forces:R:3:charge:R:1 energy=-165.21727140555646 homo_lumo=3.377600045359877 dipole="-1.1064174135757163 0.11245852000117651 2.1226760246057026" free_energy=-165.21727140555646
N      -0.2215403373     -0.1549648168      0.1690316570     -0.0004772270     -0.0021041927      0.0098735711     -0.4938931225
C      -0.8096587924     -1.0764939395     -0.8910027383     -0.0087956803     -0.0106221983     -0.0074285214     -0.0194263449
C      -1.3880091223      0.0816074342      1.0990839612     -0.0108657175     -0.0064475473      0.0134106771      0.0200205788
C      -2.2359806682     -0.5725950437     -1.0984948181      0.0012878127     -0.0002327819     -0.0080264792     -0.1461877571
C      -2.6112279781      0.2040013940      0.1913675304     -0.0018428814      0.0107629030      0.0025592778     -0.1544649486
C       0.9152235537     -0.8324937341      0.9023250090      0.0133423948     -0.0056937346      0.0114165116      0.0018509891
C       0.2163777792      1.1430723403     -0.4976046168     -0.0059159353      0.0113689989     -0.0044768333     -0.0948695767
C       2.0661547760     -1.2974760888      0.0052474933     -0.0058407078      0.0026340081     -0.0057639098     -0.2594854352
C       0.8230711136      2.1657650546      0.4375655899      0.0111761210      0.0031115984      0.0082321178     -0.1097747889
C       3.4118030884     -0.7075959804      0.4165909905      0.0046581028      0.0068954640      0.0024561393     -0.0840669848
H      -0.7893657823     -2.0862967666     -0.4532826661     -0.0034651785     -0.0085317726      0.0144610734      0.0995366448
H      -0.1633509330     -1.0198406359     -1.8010405130      0.0095399652     -0.0052618904      0.0034709093      0.1890355687
H      -1.1878730666      0.9577077207      1.7279526167     -0.0028014351     -0.0033075221      0.0132537463      0.1269657849
H      -1.4550676174     -0.8079680400      1.7421975599     -0.0063621887     -0.0223570492     -0.0045904363      0.1155051605
H      -2.9121431367     -1.4196185351     -1.2810663146     -0.0007580679     -0.0009158856     -0.0059634940      0.0962777001
H      -2.2848182559      0.0780496840     -1.9837129997      0.0103022823      0.0111378173     -0.0130074675      0.0952256619
H      -2.8364828025      1.2575120589     -0.0299934854      0.0053907329      0.0105738588     -0.0055078057      0.0846017084
H      -3.4938242352     -0.2163315023      0.6949523580     -0.0082741376      0.0036514059     -0.0055613690      0.0924005932
H       0.4432214144     -1.6771249940      1.4272528017     -0.0009874480     -0.0041765336      0.0014096869      0.1056525226
H       1.2533514646     -0.1201608598      1.6699693453     -0.0042434350      0.0078873268      0.0085481840      0.1297604818
H       0.8925765650      0.8458472518     -1.3318605560     -0.0060647860     -0.0100200821     -0.0129435042      0.2046707369
H      -0.6877449042      1.5432462427     -0.9775222896     -0.0232381929      0.0015487010      0.0027123495      0.1526911423
H       2.1145729998     -2.3983925958      0.0434308914     -0.0019005751      0.0015234704     -0.0040344131      0.0818370320
H       1.8765566048     -1.0393254935     -1.0599436391     -0.0029204480      0.0171613794     -0.0066556990      0.1950927036
H       0.1524840844      2.4820377301      1.2518305881      0.0018702711      0.0044774893      0.0057619730      0.0236303571
H       1.7731221128      1.8298199049      0.8731598755      0.0136386689     -0.0124088543     -0.0023048248      0.0683367432
H       1.0472264938      3.0614520197     -0.1619096778      0.0020018188     -0.0052930730     -0.0176238060      0.0770601137
H       3.4181764998      0.3843891103      0.2793297308      0.0100662390      0.0194983911     -0.0042075065      0.0609193024
H       3.6576743292     -0.9285556913      1.4681702654      0.0084800706     -0.0027465137      0.0104387129      0.0110321406
H       4.2139118472     -1.1151411180     -0.2153670859      0.0038329467     -0.0070336883     -0.0130293841      0.0567682647
Cl      1.3576706949     -0.2617164464     -3.2297857068     -0.0008333849     -0.0050794928      0.0131205237     -0.7267029726
