35
Properties=species:S:1:pos:R:3:forces:R:3:charge:R:1 energy=-190.60769692267476 homo_lumo=3.5556400427629633 dipole="-1.712994368068728 -0.9033653227804185 4.084768841721751" free_energy=-190.60769692267476
C       2.6990528801      0.3434300367      1.5499511799      0.3653512021      0.2911718245      0.7579419885     -0.1444691437
C       1.6484147226      1.2838887426      0.9800900163      1.6703355889      1.6716710267      0.2635670682     -0.0141860730
H       1.3368038950     -0.8714746238     -0.8855887719     -0.3578299160      0.4939543473      0.2925446254      0.2063833231
H       0.3843110836     -1.6920768784      0.3931048498     -0.0851061947      0.6516694546     -0.1737346060      0.1310278107
H       3.1681620338     -1.4203463519      0.3630423683     -0.4383842790      0.0058460688      0.2101796416      0.1246546912
H       2.1752100051     -1.7361030856      1.8429914473      0.1864817234      0.1267331690     -0.3606825633      0.0858209083
H       2.6472784291      0.3400917662      2.6608012217      0.2013056217      0.0449604414     -0.3339321958      0.0854513563
H       3.7209053794      0.6522719267      1.2372011055     -0.4332861670      0.0457656650      0.2345429943      0.1231806993
H       1.3774524906      2.0720247599      1.7203595495     -0.2949203840     -0.3498021224     -0.4669963663      0.1232281392
H       2.1083928122      1.8046531595      0.1069079040     -0.6577177934     -0.3598697809      0.0051319379      0.1896833213
H      -1.2293995868     -0.4397441542      1.5175825530      0.3868350595      0.3331859301     -0.1914173882      0.1211386539
C      -0.4404727050      0.3154235492      1.7231183639     -0.8336863741     -0.2244606130      0.9813626761      0.0199660590
H       0.1032484400     -0.0313115711      2.6298770161      0.0837390763      0.1647736107     -0.5172077780      0.1260484994
H      -0.9355470924      1.2814395330      1.9671026572      0.3320573789     -0.2919783784     -0.2699952332      0.1024892241
C      -0.1966424008      1.1532914600     -0.5861357044     -1.3685292778      1.0566575388     -1.3044585824     -0.0792753668
H      -0.3291078475      2.2322005823     -0.3369323906      0.3071315292     -0.4198894021      0.3001849527      0.1427479012
H       0.4548487901      1.1385704166     -1.4886305246      0.1690540303     -0.2481508484      0.4109336295      0.2435548955
H      -2.3161117984      0.7200836530     -0.1403148487      0.0983788148      0.0279730459     -0.1498350577      0.0879227750
H      -2.9755375696     -2.0995506770     -2.6423055088     -0.1181074938      0.3217263518      0.0593215575      0.0565254294
C      -1.6279053919     -0.7749589698     -1.5743173212     -0.1706817384      0.0671911854     -0.0299886241     -0.2562276233
H      -0.8115574207     -0.8981759408     -2.3180293596     -0.0832799944      0.0466210642      0.2724887658      0.1384969059
H      -1.5001081360     -1.5205186242     -0.7657868182      0.1701317761      0.0308716738     -0.1408297414      0.1002626929
C      -2.9645009820     -1.0584205085     -2.2566059981     -0.1066130211     -0.1505651646     -0.0707558665     -0.0859527092
H      -3.1189240253     -0.3637905308     -3.1091674966     -0.0224093183     -0.2203414000      0.2336166556      0.0597773006
N       0.4786791047      0.4700145075      0.5649971748     -0.4093563981      0.2525645567      0.0332055823     -0.5564613499
C       1.0688188543     -0.8392399382      0.1943910236      0.5983104849     -2.0600349318     -0.9518516763     -0.0251534448
C       2.3489291239     -1.0265037830      1.0041138685      0.2207949299     -0.7935871804      0.2715416001     -0.1340196441
H      -3.7997634279     -0.9389067319     -1.5337779313      0.1379017503     -0.0363822226     -0.2745605071      0.0350868021
C      -1.6029036409      0.6427875815     -0.9870233044      0.4764998858     -0.2769638152      0.1058370959     -0.1957010370
H      -1.9780074684      1.3433855665     -1.7659533971      0.2799743859     -0.0502852329      0.2099943767      0.1478300339
B       2.4698527211      1.3605116159     -4.1487998140      0.3961875287      0.3784777721     -0.9502992655      1.2961622942
F       2.5497501600      0.4073618994     -3.0991814207     -0.1863461909     -0.5089929776      0.8670330428     -0.5816076695
F       1.1842365055      1.9643546446     -4.1449108876     -0.4600350582      0.0352916242      0.3241009555     -0.5692238159
F       2.6843648275      0.7118979592     -5.3940438554     -0.0667963734     -0.0936258365      0.1305283165     -0.5504379998
F       3.4623043166      2.3584782937     -3.9582594548      0.0126152060      0.0378235557      0.2224879887     -0.5547238397
