35
Properties=species:S:1:pos:R:3:forces:R:3:charge:R:1 energy=-191.8764085384794 homo_lumo=5.8660709937737066 dipole="-1.4121832321004169 1.1959486971490207 1.9718905645111768" free_energy=-191.8764085384794
C       2.6913887287     -0.2543921447      1.4522892011     -0.0064944643      0.0011076267      0.0028225982     -0.1520378017
C       2.0203555170      0.6154432543      0.3929566021     -0.0002365954     -0.0063187662      0.0038551239     -0.0223117377
H       0.8367694710     -1.7614384510     -0.3501603673      0.0139218350      0.0045210366     -0.0023409931      0.2472191788
H      -0.3444111522     -1.6408790625      1.0087079692      0.0020307918     -0.0017710820     -0.0187076197      0.1009804747
H       2.3299478220     -2.4175428877      1.3162196739     -0.0008203380     -0.0018442109      0.0048208292      0.1270572972
H       1.4371824964     -1.6202593391      2.6369025060     -0.0084720979      0.0034803832      0.0022098951      0.0666232134
H       2.7992605296      0.2751993445      2.4110383766     -0.0072951195      0.0044296969      0.0045735229      0.0673452975
H       3.6929916682     -0.5313133753      1.0969538458      0.0029876800      0.0033395770      0.0049485764      0.1273242041
H       2.0664269028      1.6975381533      0.5821758679     -0.0019631052      0.0000802239     -0.0119845357      0.0831146833
H       2.4041919315      0.3879415099     -0.6122307133      0.0020027894     -0.0109186637      0.0004606418      0.2321620356
H      -1.1765325984      0.4607957371      1.5918401989      0.0011141934     -0.0019150691     -0.0017190707      0.0904536989
C      -0.1610182094      0.8651390548      1.5124490424     -0.0016961181     -0.0005414029      0.0070343682      0.0690658152
H       0.3857762018      0.6762937515      2.4443529485      0.0010074953     -0.0136784624      0.0001921001      0.1145903831
H      -0.2007167649      1.9443859471      1.3138621606      0.0045898392     -0.0062933085      0.0093336456      0.0769633495
C      -0.0559800855      0.5719152449     -0.9527412013     -0.0046309865     -0.0032667377     -0.0027851098     -0.0476793768
H       0.0926174672      1.6612370999     -1.0263852065      0.0004992994      0.0118846859      0.0042653019      0.1071668673
H       0.5787099846      0.0868891631     -1.7091672279     -0.0042033340      0.0121275965     -0.0044473642      0.2331100226
H      -2.1612295125      0.6011753420     -0.3517549860     -0.0053317403      0.0137373610     -0.0007886712      0.0788044611
H      -3.4549178600     -2.4613528448     -2.2786171570     -0.0124192550     -0.0008824518      0.0005877400      0.0467632230
C      -1.8385183087     -1.2430557222     -1.4795476547     -0.0149141122      0.0099556731      0.0000807178     -0.2576711482
H      -1.0831615235     -1.6310544478     -2.1824871198      0.0042348945      0.0014601578      0.0059079832      0.1510842092
H      -1.7594666777     -1.8605796825     -0.5708652755     -0.0008740076      0.0003938696      0.0133626198      0.1068390161
C      -3.2385858503     -1.4037745611     -2.0668063595      0.0025712518      0.0034492502      0.0092524810     -0.0644106068
H      -3.3331498459     -0.8460755232     -3.0123957645      0.0007545681      0.0008117455      0.0040078812      0.0372944931
N       0.5539149995      0.1970073392      0.3878894143     -0.0037836832      0.0042118418     -0.0080288364     -0.5265472580
C       0.6269966358     -1.3040179133      0.6268567795      0.0046842239     -0.0030325890     -0.0040430811     -0.0476998028
C       1.7884875780     -1.5056262604      1.6003902135     -0.0012763535      0.0055882003     -0.0003107297     -0.1391704595
H      -4.0129377033     -1.0305007304     -1.3764675012     -0.0035085144      0.0040942175      0.0026768068      0.0250123106
C      -1.5217868962      0.2234600409     -1.1698263858      0.0039676868     -0.0025431299      0.0042342010     -0.1901297859
H      -1.8079810976      0.8223637454     -2.0542766837     -0.0098314421     -0.0007081697     -0.0131184889      0.1220518441
B       2.5859124654     -1.6392160741     -2.3997865846      0.0134669005     -0.0101281099     -0.0113875352      1.3936286035
F       3.3100641132     -2.2791931773     -3.3974109132     -0.0001521131      0.0083206085     -0.0108548734     -0.5243124334
F       3.1391311296     -1.8880878359     -1.1003872967      0.0214001321     -0.0120119139     -0.0077659299     -0.5777800448
F       1.2152527563     -2.0874436480     -2.3823906664      0.0095304252     -0.0130589772      0.0060535361     -0.5793426611
F       2.5653427546     -0.2118899709     -2.5998973262     -0.0008606261     -0.0040807072      0.0076022687     -0.5755615650
