37
Properties=species:S:1:pos:R:3:forces:R:3:charge:R:1 energy=-205.5923441643185 homo_lumo=3.4057615800304637 dipole="-0.8377404321914307 0.6723483494758443 1.7258968064797404" free_energy=-205.5923441643185
N       0.9028188073      0.0804939025     -0.0281108443      0.0905593254      0.0351477759      0.1040021036     -0.5052734288
C       0.4113866983      0.9822869384     -1.1258454190     -0.6253084861      0.2368530244     -0.2410130268     -0.0492783790
C       0.4038990432     -1.3171792113     -0.2739425364     -0.5824567626     -0.3713188125     -0.0989534350     -0.0499839786
C      -1.0973854082      0.9455689679     -1.3106485487      0.2852694160     -0.3812722885     -0.0179498413     -0.1598365284
C      -1.1029152134     -1.3980511046     -0.4748375289      0.2377326914      0.3174772236     -0.2254105951     -0.1488687810
C       0.4473998156      0.5379033563      1.3260632398      0.0820358926      0.4797262898      0.2207252319     -0.0607286914
C       2.4071416886      0.0725027605     -0.1490325118      0.5495469327     -0.2038040205      0.3750565983     -0.1025055718
C      -1.5538374342     -0.4805134536     -1.6085808919      0.0161745076      0.1307634881      0.4276639815     -0.1525879908
C       0.9716795092      1.9008397864      1.7554766198     -0.1187637907     -0.4289485183     -0.1899631253     -0.0780994516
C       3.1313495485     -0.7587886698      0.8959266631     -0.4104804934      0.2691743203     -0.1759201288     -0.0790819718
H       0.9111912303      0.6314474212     -2.0462620987      0.3372412913     -0.1412071990     -0.1892266477      0.2444923360
H       0.7541085611      1.9944928898     -0.9057045061      0.1940114458      0.1827282127      0.0940556306      0.1048133300
H       0.6998284724     -1.9279246856      0.5812321578      0.1509327935     -0.0666409145      0.1999521370      0.1055935233
H       0.9344489034     -1.6785545357     -1.1697019740      0.3258798152     -0.0162607302     -0.1999305545      0.2412119876
H      -1.3346647431      1.5965244599     -2.1561679547     -0.0338158431      0.2583067419     -0.1708812352      0.0942011672
H      -1.6207735931      1.3373079141     -0.4319031000     -0.2304598802      0.1508948324      0.2003235834      0.0665154907
H      -1.6389128580     -1.1479264586      0.4470723015     -0.2242307608      0.0067873700      0.2361481985      0.0651667126
H      -1.3371550717     -2.4369194244     -0.7220247546     -0.0317380027     -0.3085166885      0.0367214153      0.0957096806
H      -0.6438460372      0.5592555812      1.3120187493     -0.1712695793     -0.0930915193     -0.0350836640      0.1585745176
H       0.7614433916     -0.2224078860      2.0450531548      0.0300554670     -0.2309488217      0.0785803575      0.1297654027
H       2.6234070137     -0.3360974183     -1.1418240182     -0.1291915549     -0.0614383555     -0.2930767098      0.2617482549
H       2.7405140839      1.1115391515     -0.1121061893     -0.0430952075      0.2796361020     -0.0209151800      0.1037775454
H      -2.6416262102     -0.5151257354     -1.7067766455     -0.2976681017     -0.0389789271     -0.0971846087      0.0652734314
H      -1.1100764900     -0.8156232401     -2.5505423249      0.1405646749     -0.0762795532     -0.2596183423      0.1166050860
H       0.5542787429      2.1208314953      2.7382067516     -0.1080911946      0.1097358498      0.2905556858      0.0579362001
H       2.0568028370      1.9107137063      1.8369111480      0.3303862342      0.0385538041      0.0529400115      0.0547554290
H       0.6608546036      2.6874112315      1.0703882959     -0.0966870976      0.2797729633     -0.1584110590      0.0525184593
H       4.1982516986     -0.6751480316      0.6890251389      0.3105314351     -0.0133848019     -0.0457560649      0.0650432711
H       2.9526130090     -0.4087101186      1.9122406966      0.0313432848      0.0865493925      0.3688236834      0.0209319779
H       2.8582686782     -1.8100528592      0.8248416554      0.0111159582     -0.3305937892     -0.0571899914      0.0590903076
C       2.7561804772     -1.8558582838     -4.7403556517     -0.2173900537      0.2666905535      0.4273978155     -0.0795727569
C       2.3482820774     -1.2541167765     -3.3772719592      0.2190172073     -0.4824154026     -1.0687096967      0.9085182002
O       2.0610314535     -0.0385176701     -3.3544296866     -0.3198948384      1.3492433140     -0.1447609840     -0.8346928705
O       2.3472304948     -2.0335243779     -2.3976664646      0.0559941993     -0.9816392521      0.9587103270     -0.8461508006
H       2.4475414453     -1.1998904753     -5.5519442949     -0.0415287091      0.1933538003     -0.2747618105      0.0203497316
H       3.8404739740     -1.9642617440     -4.7575156855      0.3487581797     -0.0930914131     -0.0581335640      0.0322750517
H       2.3058758044     -2.8400994810     -4.8572000177     -0.0650803958     -0.3515640510     -0.0488064960      0.0217941068
