55
Properties=species:S:1:pos:R:3:forces:R:3:charge:R:1 energy=-292.7246627124421 homo_lumo=2.66882589375464 dipole="-9.481230155803443 0.014346823160150578 -1.028377919512675" free_energy=-292.7246627124421
N      -0.3984737508      0.1616864413     -0.0707430012      0.0776192201      0.1084981773      0.0051612021     -0.5245641381
C      -0.9645587071     -0.8958477041     -0.9638007975     -0.3722023522     -1.7749843955     -1.5892288001     -0.0097565071
C      -1.4601616490      0.4114781906      0.9521061837     -1.4318550627      0.8992313801      1.7020101882     -0.0102539329
C      -2.4299565487     -1.0773794080     -0.6167561099     -0.6002183516      0.1164355185     -0.5932805852     -0.1428609125
C      -2.5020964210     -0.6829164729      0.8305161212     -0.1672095507     -0.5340683609      0.6752377750     -0.1427964422
C       0.8397388333     -0.3413116745      0.6094947193      1.7138207276     -0.4788312112      0.3108007864     -0.0574962615
C      -0.1455981232      1.4054618653     -0.8682181275      0.4876273499      1.6801555038     -0.7126586761     -0.0925723050
C       2.0295469826     -0.6127853973     -0.3424904612     -0.2730313806      0.1465838293     -0.0840732790     -0.2632348182
C       0.4580796493      2.5696880388     -0.0618621391      0.0313139777     -0.3203362382      0.1152309447     -0.1260055999
C       3.1711258288     -1.3095476087      0.3933414014      0.0340962559     -0.0745217864      0.2134249603     -0.1044952853
H      -0.4733513822     -1.8841951080     -0.8104396485      0.2532428986      0.6855487000      0.2022064071      0.1607999871
H      -0.8611044521     -0.6592101499     -2.0478789345      0.3227488391      0.1773313253      0.6002280477      0.1470401843
H      -1.9891801812      1.3779801406      0.7821998222      0.6401958912     -0.2264925088     -0.2706808106      0.1535240018
H      -1.0690692726      0.4471518567      1.9946615011      0.2629461385      0.0872436767     -0.6307940904      0.1493659257
H      -2.7686977410     -2.1251474474     -0.7725874514      0.1042635049      0.4584553257     -0.1860299204      0.1095866269
H      -3.0520850263     -0.3869472088     -1.2286058585      0.0753467105     -0.3042520115      0.1113039977      0.1060825293
H      -3.5176008922     -0.3241255317      1.1074216601      0.4469790789     -0.1785071740      0.1385980472      0.1082385859
H      -2.2201877205     -1.5464944532      1.4731324715     -0.2207432249      0.2432104343     -0.0993641664      0.1110307067
H       0.6037626776     -1.2823213077      1.1593846362     -0.3055012351      0.3461223770     -0.3321109613      0.1577208353
H       1.1769794834      0.3787415220      1.3880581280     -0.3815510277     -0.0137226479     -0.3667946659      0.1718750152
H       0.5290219769      1.1946630423     -1.7267070187     -0.2007644072     -0.3565237653      0.4424531492      0.1720999684
H      -1.0979664295      1.7635060897     -1.3230533108      0.0917623886     -0.5540218161      0.3444782308      0.1524412901
H       1.7205799104     -1.2519220239     -1.1952351060     -0.0553480113      0.2069203494      0.1091536805      0.1134682086
H       2.4235322976      0.3409707086     -0.7497562508     -0.1906388538     -0.1673996454      0.0131576646      0.1446864277
H      -0.1319023823      2.7862183392      0.8516174371      0.1856457534      0.0106266010     -0.2309437492      0.0719649078
H       1.5081442138      2.3568713419      0.2233026072     -0.2913127935      0.1158384567     -0.0213783381      0.0981711309
H       0.4633672652      3.4836993556     -0.6922129878     -0.0420509024     -0.3412879919      0.1497937086      0.0989148070
H       3.5254187546     -0.6813740767      1.2382029550      0.0560065659     -0.2872926726     -0.2576120654      0.0828542605
H       2.8354731473     -2.2941081437      0.7827180179      0.1879074972      0.2448331340     -0.0472597231      0.0460684591
H       4.0180413574     -1.4753891825     -0.3053386124     -0.2109046640      0.0906787220      0.3454643870      0.1065258806
P       9.5329195259      0.1264878184      0.9141753993      1.0805306183     -0.6238057901      2.5127909177      1.6480156986
F       9.4133155321      0.0181394223      2.6278671694      0.2086578884      1.2840315566      1.0487260070     -0.5260951094
F       9.6608538247      1.7610270209      0.3827464461     -0.9310074784     -0.3518590150     -0.0694952969     -0.5172287475
F       9.7228081507     -1.5580769551      1.2076800481     -0.4465306939     -0.0965572903     -0.5401381020     -0.5186628647
C      11.3388293464      0.5984476184      1.4404719637      0.2355839170     -0.4181561864     -0.4312712927      0.5365684618
C       7.6880967882      0.5140794837      1.3540076691     -0.3287525097     -0.2686643736     -0.7200062412      0.5435268160
C       9.4057391545     -0.6030584931     -0.8711189087     -0.1558014982      0.8352787580     -0.2262471717      0.5332977841
C      12.1402630928     -0.4387837414      2.2734933961      0.1525231289     -0.4398431036      0.6188998994      1.3330892842
C       6.7673868918      0.9604423980      0.1985755821     -0.0307330776      0.4456538317     -0.2037278209      1.3293725599
C      10.7127848032     -1.0958268636     -1.5225839959      0.8053523521     -0.4255916578     -0.3153680980      1.3639729983
F      11.2972810810      1.7586836087      2.2042395801      0.2030737003     -0.5234212742     -0.1481663230     -0.4398357669
F      12.0860720074      0.8902212331      0.3168968485      0.4619157631     -0.0002190885      0.3571603539     -0.4539645047
F       7.6372921729      1.5402338751      2.2931505483     -0.2442572949     -0.3537261683     -0.7449067632     -0.4370842303
F       7.1145875009     -0.6177811415      1.9160276889     -0.3440924755      0.3905804284     -0.2217562049     -0.4460470505
F       8.9100897226      0.3747446450     -1.7149364467      0.0885568644     -0.3104137171     -0.5095411200     -0.4533416865
F       8.5012935544     -1.6561265319     -0.8853635289      0.4030110733      0.2943016588     -0.2441401731     -0.4453690042
F      13.4410887996      0.0134758878      2.4092846827     -0.4803482657     -0.3183817269      0.0288062505     -0.4566517857
F      12.1898243057     -1.6761297611      1.6687270102      0.3602203248      1.0252379991      0.8193818310     -0.4431334849
F      11.6155689784     -0.5829603550      3.5452597243      0.8671067228     -0.0741977982     -1.0152194056     -0.4390295773
F       5.5487221560      1.3491864025      0.7275049894     -0.0808782444     -0.0060156631     -0.4404590401     -0.4787848168
F       7.2934459369      2.0420075246     -0.4827861116     -1.0556560901     -1.0377907139      0.5052157258     -0.4321625925
F       6.5216379779     -0.0735782053     -0.6820410427     -0.1972966210      0.9832638460      0.5369623179     -0.4573871992
F      11.5061715976     -0.0284831951     -1.8979133017     -0.6466631729     -1.1153445437      0.1141618326     -0.4398878425
F      10.4017865964     -1.8037116938     -2.6703026865      0.2839200355      0.3023271955      0.4444457946     -0.4555765050
F      11.4226199174     -1.9345337506     -0.6928242701     -0.4366259471      0.7978415513     -1.2126012230     -0.4360243706
