55
Properties=species:S:1:pos:R:3:forces:R:3:charge:R:1 energy=-295.6018823226359 homo_lumo=4.710620012730263 dipole="-3.83229087954336 0.4331544581135975 1.0378471629443178" free_energy=-295.6018823226359
N       0.9668286807     -0.2121288490     -0.1461531943     -0.0361525316     -0.1576757722      0.2392059900     -0.4967253844
C       0.3237898940     -0.9635682425     -1.2717350081     -0.2754923190      0.0342120329     -0.3996786622     -0.0081895387
C      -0.1785091569      0.5169665484      0.4842316536     -0.3821820194      0.2575086508     -0.0947357294      0.0175782641
C      -0.7303385733     -0.0147736016     -1.8332906034      0.0972375045     -0.0569314178      0.0670064823     -0.1328481588
C      -1.0884405770      0.9281906823     -0.6729227851      0.0636366873     -0.0024490343      0.0855401986     -0.1457342014
C       1.5882179592     -1.1540472447      0.8470786525      0.5644904274     -0.4369891789     -0.2324709973     -0.0115714632
C       1.9549904180      0.7744279476     -0.7194611569      0.4268956052      0.2824620706      0.1533791847     -0.1353191655
C       2.6745432739     -2.0437879188      0.2503438972     -0.2267172471      0.2281964479      0.5279888239     -0.3070574381
C       2.8272616319      1.4728396751      0.3094508552     -0.4049344864     -0.3195242405     -0.1676213124     -0.1083268476
C       3.2860689513     -2.9248755491      1.3372457006     -0.2743636197      0.2064574117     -0.3138457308     -0.0586107797
H      -0.1384786142     -1.8594880247     -0.8512213524     -0.0612418603     -0.1958440478      0.1932880991      0.1156310138
H       1.0806661162     -1.2511089286     -2.0000609617      0.1598142785     -0.1010969973     -0.0613098840      0.1816089805
H       0.1989015788      1.3595307775      1.0627614991      0.1243668208      0.1150023562      0.1909652578      0.1392049599
H      -0.6892789989     -0.1778983280      1.1542551440     -0.0177387600     -0.2033422918      0.1515504187      0.1190309213
H      -1.5990683876     -0.5782957917     -2.1763895494     -0.1617534685     -0.1318766402     -0.1717017285      0.0981885748
H      -0.3334526073      0.5472291333     -2.6806298883      0.0584610566      0.0816297240     -0.2334405091      0.0962617173
H      -0.9183796097      1.9694704838     -0.9521325987     -0.0395817081      0.2601375032     -0.0469884950      0.0867392757
H      -2.1343116325      0.8233386252     -0.3797913008     -0.2449514483      0.0681771564      0.0952095704      0.0996064116
H       0.7744299385     -1.7689538115      1.2430400685     -0.2738937021     -0.0551257031      0.0759525502      0.1113459859
H       1.9859219600     -0.5456253562      1.6618538843      0.0665213507      0.1582407127      0.1950820619      0.1465310353
H       2.5784747546      0.2263148857     -1.4239101181      0.0857365168     -0.0766158920     -0.0467086160      0.2677251514
H       1.3708626539      1.5083007491     -1.2779746042     -0.2249432105      0.1034755131     -0.1515254384      0.1375157586
H       2.2510848263     -2.6741270436     -0.5352516251     -0.0613898869     -0.1342163936     -0.2454827192      0.0927863253
H       3.4604001975     -1.4334150397     -0.1887883134      0.1255697704      0.0887041478     -0.1836568279      0.2599145419
H       2.2385432236      1.9719201376      1.0784136837     -0.1735660811      0.2547265485      0.2471070112      0.0248615208
H       3.5262913287      0.7830498986      0.7765699503      0.2304729473     -0.1106113540      0.0572531662      0.1102074236
H       3.4117724913      2.2224529129     -0.2232249260      0.2153345761      0.1943585020     -0.1113385173      0.0902326657
H       3.7556469957     -2.3110075326      2.1056690401      0.2089086144      0.1203259422      0.2378036311      0.0341233166
H       2.5273726788     -3.5566410038      1.8010527017     -0.2159140425     -0.2447215362      0.1961984498      0.0164446852
H       4.0478474263     -3.5573833573      0.8848936780      0.2303312905     -0.1695884800     -0.0314095375      0.0794242267
P       6.0240293925     -0.9201335620     -1.7372065539     -0.3889655105     -0.0850095817     -0.4435134995      1.6923057029
F       5.1143584913     -2.3183674254     -1.4883382538      0.0133394915     -0.0336968280     -0.0234105924     -0.5367272055
F       7.3840363078     -1.7847234683     -2.1305659776     -0.1381033486      0.1068075351      0.0002088427     -0.5116287368
F       4.6152628780      0.0093126874     -1.3722033462      0.3577384698     -0.1515063061     -0.0289960967     -0.5519399072
C       5.3647804540     -1.1274302277     -3.5835354393     -0.2844705327      0.3281757716      1.1795643403      0.5629406817
C       6.4539334340     -1.0724274949      0.2140823709      0.5478641402      0.3354539062     -0.7858688398      0.5291708364
C       6.9766593995      0.8383332732     -1.8851969240     -0.7115607947     -0.6202469764     -0.4141232313      0.5450552209
C       3.8463609773     -0.9062241459     -3.8410065609      0.5827949115     -0.0079744661      0.5172216601      1.3809456878
C       7.8571360987     -0.7510397702      0.8157506948     -0.4963339908     -0.0947358663     -0.4583950996      1.3984236483
C       6.8358067619      1.8924109638     -3.0186395380     -0.2270421492     -0.7681647946      0.3814463713      1.4114605679
F       5.6205043156     -2.3838002259     -3.9828638640      0.1638880040     -1.2651321275     -0.4832554967     -0.4402879282
F       6.0083727356     -0.3101477008     -4.4368241597      0.5141138774      0.6143213931     -0.9777274302     -0.4588955311
F       6.2524619071     -2.3576809181      0.5687197346      0.0954041808     -1.1889348153      0.3157124158     -0.4519706308
F       5.5626217530     -0.3474567902      0.9346546494     -0.7037758835      0.7193197159      0.8811919535     -0.4738019985
F       8.2952292098      0.6211616737     -1.7368243115      1.2959131643     -0.0608898122     -0.1479559774     -0.4476693130
F       6.5560738665      1.4933934564     -0.7743813233     -0.4559955387      0.9215409104      0.8309956019     -0.4585019981
F       3.5081485043     -1.2993641056     -5.0667736461     -0.1655297974     -0.3977016948     -1.2474956139     -0.4490510697
F       3.4916480715      0.3744318727     -3.7182354624     -0.2544225324      1.1505003362     -0.1081978159     -0.4656170103
F       3.0757226054     -1.5984136326     -2.9815335492     -0.5365972340     -0.7596260404      0.5035164006     -0.4858966446
F       7.9229256425     -1.2872784497      2.0410671896     -0.0142494105     -0.4936400276      1.2397592810     -0.4568901832
F       8.8349736858     -1.2817930998      0.0924074479      0.8042763998     -0.5675727305     -0.5894278719     -0.4424099959
F       8.0824831010      0.5500684119      0.9487723882      0.1889593176      1.1219435676      0.2454920421     -0.4491492141
F       7.5764437655      1.5955056961     -4.0772180978      0.8144358377     -0.2313892557     -0.9001311637     -0.4459385018
F       7.2306831253      3.0873066110     -2.5727355689      0.4819875936      1.1198391810      0.4863553388     -0.4530405140
F       5.5619725394      2.0154758270     -3.4012211123     -1.0666297201      0.2513132658     -0.1945817099     -0.4614657419
