55
Properties=species:S:1:pos:R:3:forces:R:3:charge:R:1 energy=-295.69706614890686 homo_lumo=4.316140120755436 dipole="-4.889548664043094 -0.7837703259896757 -0.2599784554094058" free_energy=-295.69706614890686
N       1.0465805758     -0.0550340043      0.2326005575     -0.0354362482     -0.2850116749     -0.0450010873     -0.5024176892
C       0.5312631244      0.6848844000     -0.9646761582     -0.2801493835      0.3545111640     -0.1543493190      0.0011056625
C      -0.1875289328     -0.2827225673      1.0499284264     -0.3975888970      0.2119710106      0.1794121660      0.0205804026
C      -0.5468356378      1.6221699099     -0.4268423689      0.0987810708     -0.0688229872     -0.0171767192     -0.1326377651
C      -1.0184798076      0.9886897507      0.8917851673      0.0749657890     -0.0866538554      0.0463821092     -0.1481399907
C       1.6720714007     -1.3663545650     -0.1612752174      0.4285230275     -0.0218564629     -0.4410053056     -0.0165009065
C       2.0078006095      0.8401916921      0.9785552400      0.3733005881     -0.0232375805      0.4368708976     -0.1196318424
C       2.6381062926     -1.2662365905     -1.3431384496     -0.0613936146     -0.2366184056      0.3266387348     -0.2888516448
C       2.6622360757      0.2171783698      2.1994330261     -0.3852215657      0.0399613289     -0.4573171805     -0.1261166190
C       3.5829722483     -2.4667415899     -1.3496269640     -0.2983060509      0.3204667652     -0.0128082737     -0.0698240521
H       0.1033309551     -0.0505532750     -1.6493188770     -0.0492298823     -0.2334264594     -0.1044828502      0.1253953985
H       1.3545082477      1.2047673362     -1.4541315813      0.1918280736     -0.0039242696     -0.1342925081      0.1631624006
H       0.0871463138     -0.5002692642      2.0810516812      0.0996474983     -0.1396682261      0.1896355168      0.1439158071
H      -0.7130351869     -1.1431250625      0.6300573540     -0.0117894777     -0.2039979362     -0.1327587787      0.1189477075
H      -1.3626883950      1.7061317251     -1.1464452546     -0.1420700623      0.0971952330     -0.2007386002      0.1014078739
H      -0.1428215803      2.6213849320     -0.2547210088      0.0553358326      0.2426220695     -0.0200302699      0.0954748482
H      -0.8556132363      1.6687190760      1.7298980425     -0.0379452962      0.1485159641      0.2134308895      0.0913785448
H      -2.0802208590      0.7387774633      0.8606435606     -0.2517430668     -0.0427994466      0.0936137615      0.1012665424
H       0.8537540538     -2.0463156481     -0.4132888513     -0.2399028163     -0.1052625657      0.0158987448      0.1126115563
H       2.1780353308     -1.7570675449      0.7228561260      0.0747496645     -0.0632507548      0.2044458593      0.1692233363
H       2.7720215987      1.1429049690      0.2653532762     -0.0060271327      0.0489059877     -0.0902104500      0.2466424374
H       1.4421799619      1.7268754226      1.2703254195     -0.1991153055      0.2016755411     -0.0315496338      0.1348381961
H       2.0711955034     -1.2372683001     -2.2783134693     -0.1410186139      0.0577625533     -0.2254508294      0.0805921121
H       3.2259982501     -0.3523306194     -1.2795729573      0.1173266000      0.1200145706     -0.0111012430      0.2147793491
H       1.9327117163     -0.1651912072      2.9116972926     -0.2169017532     -0.0896513669      0.3140257478      0.0298928434
H       3.3556901193     -0.5750216826      1.9264765424      0.2062889374     -0.1063447270      0.0237158987      0.1118988061
H       3.2417077649      1.0030817606      2.6831981768      0.1552382191      0.1484571353      0.1398582897      0.1036443315
H       4.1980645340     -2.4693991046     -0.4510048658      0.2221175469     -0.0241829267      0.1712034370      0.0945472734
H       3.0220319461     -3.4008202083     -1.3983987653     -0.1247243365     -0.3343129387     -0.0418712612      0.0157626590
H       4.2379855598     -2.4045470256     -2.2173120933      0.2414072584     -0.0551028296     -0.2180563218      0.0540678446
P       7.3018203499      1.1499112882      0.4427083798     -0.2709735418      0.3114861438     -0.4336761571      1.7107833541
F       7.6931768400      2.1025261174     -0.8753794276      0.0493025641      0.0493955083     -0.0220412633     -0.5280140436
F       7.2985111812      2.5059505520      1.4263230599     -0.0795140090     -0.1737077235      0.0275394860     -0.5189544025
F       7.2092115081     -0.2232017707     -0.5326391169      0.1050312195      0.0710981712      0.0502090608     -0.5276630604
C       5.4156122680      1.4876798367     -0.0450527212      1.0215262852     -0.2063367325     -0.2901533322      0.4898621573
C       9.2161977789      0.8436026646      0.6599806885     -0.8258516764      0.7880176302      0.3522379674      0.5529735936
C       6.7551992756      0.0895458237      2.0601607156      0.4206922428     -0.0298007490     -0.9995040036      0.5869792895
C       5.0653708417      1.9729834427     -1.4721175978      0.5367146609     -0.2193571721      0.5382974085      1.4072533945
C      10.0640135201      1.9643057686      1.3171050642     -0.7401703343     -0.3893299278     -0.3376056149      1.3775299434
C       6.5640349097     -1.4532323715      2.0333168527      0.2051075294      0.7241278661     -0.4027419168      1.4098923591
F       4.7624331727      2.3346703946      0.7783257434     -0.5291542252      1.1067462611      0.7094345824     -0.4657694347
F       4.7639697685      0.2928643015      0.0665618537     -0.5835628545     -1.0388743789     -0.1437953242     -0.4859344527
F       9.7415855978      0.6300416251     -0.5568406739      0.6643185202     -0.1627129517     -1.1918218677     -0.4410938162
F       9.4234212818     -0.2792108568      1.3744159083      0.5272258699     -1.1012878063      0.6982176711     -0.4570393339
F       5.5651596356      0.5682600337      2.5118218538     -0.9341123702      0.3856454158      0.6362066671     -0.4748061882
F       7.6494364074      0.3490370310      3.0306271126      0.6948147141      0.1200458383      0.9879993576     -0.4454490123
F       3.7063499230      1.9138928141     -1.6142219061     -1.2019104677      0.0756895238     -0.1797505192     -0.5039152290
F       5.5718157689      1.1988653626     -2.4178147037      0.4329201189     -0.7441913353     -0.7603567239     -0.4411463554
F       5.4139638368      3.2270289350     -1.6936584569      0.2750535324      1.1332512341     -0.0790925906     -0.4360944869
F      11.3616132183      1.6515594166      1.2640686762      1.2533222938     -0.4457227667     -0.0983838706     -0.4566197679
F       9.8992591302      3.1222090698      0.6844145317     -0.1127927389      0.9959181448     -0.6431865705     -0.4465750706
F       9.7402022044      2.1318082669      2.5955608941     -0.2425459149      0.0810554465      1.1864071976     -0.4481939306
F       6.4963367746     -1.9340852493      3.2778097477     -0.0455837135     -0.3334311699      1.2605257206     -0.4545413075
F       7.5289249793     -2.0982848106      1.3979736606      0.8403456112     -0.5046852637     -0.4360809815     -0.4408338533
F       5.4000440581     -1.7699753139      1.4356480593     -0.9211499189     -0.3609731159     -0.4458158044     -0.4896457697
