58
Properties=species:S:1:pos:R:3:forces:R:3:charge:R:1 energy=-319.565298793996 homo_lumo=0.09229808767875061 dipole="-1.3254349827829575 -6.650942276556496 -1.5694235429120893" free_energy=-319.565298793996
N      -0.0209641607      1.9757445412      0.0071944339      0.0132297762     -0.2990905273     -0.0248798102     -0.5211648010
C      -0.6994203941      2.8896104123     -0.9633878422     -1.3841501442      1.0955606123     -1.7074109437     -0.0084020791
C       0.6406878121      2.8831026199      0.9934248753      1.3748084981      1.1375823076      1.7128300840     -0.0215599889
C      -1.0347964500      1.1292601997      0.7170943130     -1.0706406803     -1.1763743020      0.3564022357     -0.0436829209
C       1.0081547961      1.1576363516     -0.7135508669      1.0879914957     -1.1415268080     -0.3861175644     -0.0439094936
C      -0.2436081284      4.3085697560     -0.6796528156      0.4465327179      0.4184976834     -0.5924933480     -0.1492481744
C       0.1010452881      4.2827461318      0.7820352080     -0.4237077987      0.3738650697      0.6493368255     -0.1533190807
C      -1.7717556512      0.1112416718     -0.1858919796      0.2837116351      0.3142423843      0.1646885967     -0.2137563179
C       1.7696584332      0.1495836658      0.1802992457     -0.2916122900      0.3160602324     -0.1441216382     -0.2141996648
C      -2.8802926953     -0.6031785244      0.5970506306      0.1503113178      0.1070812580     -0.1812059649     -0.1682974631
C       2.8903879976     -0.5386727116     -0.6087235773     -0.1489539745      0.1065137410      0.1774566719     -0.1685633218
C      -3.6262300938     -1.6109607569     -0.2857044624     -0.0549817854      0.0870267748      0.4436930683     -0.1698946663
C       3.6557761371     -1.5373153040      0.2681748413      0.0535479728      0.0937763866     -0.4326862535     -0.1706088560
C      -4.6943772760     -2.3574310476      0.5224120996      0.0004280184     -0.0783448369     -0.2435516269     -0.2093689456
C       4.7347545565     -2.2631723943     -0.5442445588      0.0003838469     -0.0780435355      0.2415536500     -0.2092750042
C      -5.4486774653     -3.3589212208     -0.3469418344     -0.1985417740     -0.1532450550      0.1193243590     -0.0860317938
C       5.5033787740     -3.2583986498      0.3199634445      0.1987640498     -0.1478882067     -0.1152251219     -0.0861870932
H      -0.4937532965      2.6342006522     -2.0282853471      0.0297391403     -0.3507432073      0.6001427105      0.1343193933
H      -1.8077692619      2.8797464712     -0.8488543566      0.4769136791     -0.4969076082      0.2753093378      0.1467574253
H       0.4856855061      2.5742779493      2.0526444670     -0.0276215269     -0.3077007875     -0.6078100176      0.1398873647
H       1.7435900336      2.9375757380      0.8410197752     -0.4699469134     -0.4682500244     -0.2719992272      0.1543757712
H      -0.5604872166      0.5713599697      1.5548230176      0.1852640200      0.3275125494     -0.4075347239      0.1558932877
H      -1.7949568791      1.7875748609      1.1990825812      0.4798813624      0.1091183074     -0.3418535807      0.1596290023
H       0.5428371788      0.5981523242     -1.5551748404     -0.1898918454      0.3027277274      0.4080800149      0.1528796709
H       1.7530123371      1.8359455847     -1.1917460764     -0.4798079582      0.0988425372      0.3585127387      0.1601041156
H       0.6648430701      4.5415710071     -1.2788853207     -0.3375781100      0.1274055930      0.1436246325      0.1133926975
H      -1.0389538507      5.0534508245     -0.9000108687      0.4162300712     -0.2354403873     -0.1156691715      0.1173305534
H      -0.8177977295      4.4321878897      1.3913004365      0.3191336370      0.1186095323     -0.0862406158      0.0974235695
H       0.8522234376      5.0568861274      1.0425495607     -0.3403074136     -0.1565283261      0.1101013099      0.1790304445
H      -2.2197532395      0.6204001757     -1.0644595323      0.1420270351     -0.1034381730      0.1291976326      0.1177843566
H      -1.0612881421     -0.6577674228     -0.5533946488     -0.1119279877      0.2160219839     -0.0172840137      0.1250548012
H       2.2105405021      0.6641938431      1.0594462627     -0.1459906293     -0.1076086524     -0.1366004692      0.1237387987
H       1.0763068342     -0.6352961068      0.5467605962      0.1062264599      0.2121449002      0.0184852015      0.1236537050
H      -2.4286627650     -1.1359624452      1.4625380240     -0.1798310088      0.1546197830     -0.1000801053      0.0967410455
H      -3.6033624568      0.1482453433      0.9832447638      0.1625681420     -0.1985182286      0.0345953288      0.0981661378
H       3.5987166377      0.2285885587     -0.9910540114     -0.1609791860     -0.2009808561     -0.0283482203      0.1002445162
H       2.4477929789     -1.0748195871     -1.4767257663      0.1744069344      0.1514762223      0.0991401449      0.0940800024
H      -4.1108515366     -1.0722064121     -1.1293300339      0.1508094894     -0.1718812615      0.0995893940      0.0932647001
H      -2.9025322726     -2.3447678412     -0.7035499002     -0.1731478220      0.1726344514     -0.0131625863      0.0900386934
H       4.1330987244     -0.9938512075      1.1129668312     -0.1525697798     -0.1737674582     -0.1038038017      0.0968547209
H       2.9455968780     -2.2848573969      0.6848891219      0.1672714703      0.1745961491      0.0140426941      0.0892696810
H      -5.4208213865     -1.6301884714      0.9454178685      0.2410637807     -0.1244180723      0.0319350594      0.0944751659
H      -4.2132375360     -2.9038439531      1.3625566560     -0.0988938755      0.2404708337     -0.0860431350      0.0914341018
H       4.2618034761     -2.8120365589     -1.3874187831      0.0927535165      0.2394939609      0.0867488436      0.0895011959
H       5.4503841106     -1.5228978153     -0.9630322920     -0.2393343320     -0.1284696654     -0.0292157613      0.0953902289
H      -5.9675333811     -2.8354354580     -1.1777462719      0.1242932222     -0.2396044162      0.1659533132      0.0436118716
H      -6.2075034328     -3.8863427320      0.2688636879      0.1588451706      0.0560629690     -0.3137622916      0.0528720973
H      -4.7478642721     -4.1113169867     -0.7667754517     -0.2669522789      0.1736733769      0.0324205755      0.0413667033
H       4.8133089396     -4.0228423281      0.7358975509      0.2629040468      0.1779435474     -0.0306280521      0.0405871873
H       6.2696948092     -3.7719715743     -0.2982414629     -0.1603552763      0.0537675589      0.3139844271      0.0522788349
H       6.0145305789     -2.7319585412      1.1536892067     -0.1225102750     -0.2403445381     -0.1683861922      0.0455938740
C       1.4829844734      8.8570242773      1.5954603575     -0.5893237280      1.2281207478      1.5885929047      0.7907207740
O       0.2915723404      9.0347688547      1.7955741710     -4.1378664854     -0.9916944061     -1.2300209955     -0.7790234226
O       2.3030678556      9.3988073898      2.3193661604      4.1871900865      0.4114839611      0.7013896575     -0.7708731185
C       1.9439636094      7.9793267171      0.4701648184     -0.1106336883      1.0136887205      0.4006796096      1.2185923205
F       2.7418324223      8.7108015640     -0.3898802119     -0.1723052414     -0.9339959661     -0.2499763644     -0.4611988639
F       0.8605288066      7.4831579340     -0.2339497496      0.7383687368     -0.6062177389     -0.5220054381     -0.4829897991
F       2.6764273839      6.9233918736      0.9802612544      0.0147644791     -0.4995988180     -0.7896939865     -0.4847839404
