43
Properties=species:S:1:pos:R:3:forces:R:3:charge:R:1 energy=-242.89126655107998 homo_lumo=3.352204311619369 dipole="-1.6149497106523603 0.37714690497728076 2.311671442213131" free_energy=-242.89126655107998
N       1.5100132255      0.2722334372      0.3270046431      0.0013049131     -0.0029186639     -0.0053415704     -0.5040304183
N       0.2888580487     -0.1168368360     -1.4278581765      0.0058520114      0.0009442503      0.0037596851     -0.5117356865
C       2.4780619734      0.1188813380      1.4236571071     -0.0031059245     -0.0033769922      0.0036487352     -0.0073419201
C      -0.3954721680     -0.8038829316     -2.5335986229      0.0010788509      0.0002657446      0.0027956596     -0.0745278819
C       1.1348811679     -0.6715746257     -0.5488023792      0.0027978664      0.0004026998     -0.0021489464      0.5673352170
C       3.9222917679      0.3203723862      0.9697797146      0.0025689046     -0.0136702487     -0.0074812009     -0.2227086129
C      -1.8234415230     -1.1881704262     -2.1618943219      0.0084178468     -0.0024968000      0.0128534215     -0.2059987618
C       0.9044793388      1.4619304572     -0.0206556436      0.0028464807      0.0001833408     -0.0017568598      0.2243285614
C       0.1357394408      1.2156892367     -1.1188033578      0.0022986499     -0.0017457963     -0.0029556862      0.2326310726
C       4.4827986016     -0.8699124938      0.2036399502     -0.0073246651      0.0105558877      0.0053126174     -0.1205822701
C      -1.9000044161     -2.1955971585     -1.0186871540      0.0107841004      0.0135015852     -0.0001461530     -0.0946960310
H       2.3302848264     -0.8839985561      1.8540388550     -0.0003616359      0.0015615964      0.0026859546      0.1101627835
H       2.1846039310      0.8560991351      2.1860902312      0.0000654032     -0.0005884907      0.0035438059      0.1094372348
H       0.2052918474     -1.6854962043     -2.7848250349      0.0023977875     -0.0042591342      0.0009343193      0.1990873255
H      -0.3440206134     -0.1216495837     -3.3938527928      0.0054548079      0.0005114816     -0.0055669275      0.1550764252
H       1.4782693996     -1.6971996566     -0.5669982517     -0.0010892563      0.0015149281      0.0020540546      0.1345887254
H       3.9748192453      1.2304073604      0.3488941951      0.0012819333      0.0058452778     -0.0012250880      0.1292148526
H       4.5167911701      0.5091529844      1.8807617528      0.0008288919      0.0001051453      0.0100694002      0.0920075623
H      -2.3990675637     -0.2795501225     -1.9131255518     -0.0006091972      0.0112467110     -0.0020958599      0.0959213247
H      -2.2810392347     -1.6104816836     -3.0725020263     -0.0019635542      0.0005830615     -0.0047114378      0.1081723979
H       1.0944044802      2.3784258039      0.5233006082      0.0001034477      0.0029445064      0.0033685422      0.0455270631
H      -0.4606297685      1.8770905403     -1.7335864914      0.0066722008      0.0021230216     -0.0033436798      0.0553569058
H       3.9406933695     -1.0466767283     -0.7338322478     -0.0002233900      0.0012205248      0.0052809410      0.1503644328
H       4.4644490337     -1.7829704151      0.8207807105     -0.0054320353     -0.0021883582      0.0017177881      0.0111914767
H       5.5242516572     -0.6815120468     -0.0940559486      0.0100546945      0.0000925833      0.0123176045      0.0655123460
H      -1.4859631180     -1.7792567093     -0.0861943204      0.0022039205      0.0091753400     -0.0027425879      0.0561716852
H      -1.3408015864     -3.1126158016     -1.2651272611      0.0034955852      0.0100282185      0.0028833169      0.0469711411
H      -2.9426790519     -2.4812973401     -0.8160129232     -0.0013012474      0.0077129996      0.0052756723      0.0582455166
N       2.5207339261     -0.7356525699     -4.1250442157      0.0057650674     -0.0047585853      0.0032646817     -0.8713806828
S       2.7151398995      0.7370435761     -3.5374019535     -0.0146063698     -0.0156887525      0.0076501338      1.6349420314
S       3.6115866314     -1.9285774430     -4.0220201576     -0.0105299974     -0.0046191508      0.0011106526      1.6231016850
C       3.9325241851      1.5922423358     -4.6903553870      0.0104054533     -0.0021597647      0.0082933928      1.1791630430
C       2.4502188106     -3.3431572898     -3.5465210399     -0.0135431262     -0.0139574782     -0.0034983526      1.1591708197
O       1.4615455040      1.4585580045     -3.7712293396      0.0046006624     -0.0006042770     -0.0063128072     -0.7716817516
O       3.3401957773      0.8444423094     -2.2172300369     -0.0046907330      0.0122406639     -0.0088577258     -0.7634081655
O       4.5467051927     -1.8514913261     -2.9038487037     -0.0128821412     -0.0110310424     -0.0116928734     -0.7360562666
O       4.0754888504     -2.3227230861     -5.3425722696     -0.0045549865      0.0036632421      0.0100852483     -0.7060036532
F       4.0612329943      2.8884176501     -4.3073156414      0.0053582894     -0.0252137501     -0.0151744581     -0.4397773038
F       3.4941427793      1.5593501625     -5.9659094534      0.0111607469      0.0081988483      0.0004357379     -0.4289903425
F       5.1459239771      0.9987874930     -4.6249397743     -0.0092230894      0.0023719389     -0.0202461334     -0.4347669492
F       3.1165822801     -4.5106667928     -3.6486281465     -0.0206176745      0.0120612588      0.0036465026     -0.4293330207
F       1.3430797218     -3.4061308248     -4.3242206877      0.0168977246     -0.0000898668      0.0061805449     -0.4418902442
F       2.0230071215     -3.2263378180     -2.2407324271     -0.0126372167     -0.0096877044     -0.0138700648     -0.4787716667
