25
Properties=species:S:1:pos:R:3:forces:R:3:charge:R:1 energy=-141.68627228968708 homo_lumo=3.020459450641266 dipole="-0.9996748030962402 0.12113590689601487 -2.568583060100964" free_energy=-141.68627228968708
N       0.3820143002     -0.1239297403      0.0546405408      0.0133466806      0.0016011891     -0.0065307764     -0.5005847526
C       1.6779540217     -0.0500537195     -0.6749532060     -0.0142491409      0.0017972496      0.0125670590     -0.0673973282
C      -0.2441421205      1.0215429512      0.3997002490     -0.0048121914     -0.0013893415      0.0002568394      0.2951650170
C      -0.1006198884     -1.3206726622      0.4487727715     -0.0031276418      0.0058391905      0.0046957180      0.3040946739
C       2.8452329772      0.2022515893      0.2632633844     -0.0153836571     -0.0022231245      0.0010855459     -0.0946592946
C      -1.4159404363      0.9920566779      1.1241541562     -0.0009133917     -0.0087748918     -0.0003302178      0.0038668105
C      -1.2745702525     -1.4024002114      1.1694159071      0.0011022935      0.0147787752      0.0042377248      0.0055582893
C      -1.9398076688     -0.2346274681      1.5199658313      0.0040301683      0.0020676966      0.0066763486      0.0582220749
H       1.7824115140     -1.0028863084     -1.2143281178      0.0017991946      0.0093046381     -0.0102951465      0.1140821106
H       1.5633131307      0.7487505774     -1.4234209240      0.0057536691     -0.0058689409     -0.0074252835      0.1131418523
H       0.2412860648      1.9451404191      0.0924839005     -0.0013127773     -0.0018853355     -0.0108126183      0.1007802317
H       0.4912595367     -2.1920266335      0.1799930154      0.0028536353      0.0035946815     -0.0022246794      0.1028620434
H       2.7137100695      1.1387558541      0.8223882393      0.0105478323     -0.0052269799     -0.0108118138      0.0840073522
H       3.7662726275      0.2627181891     -0.3350577772     -0.0009803883     -0.0075947263     -0.0020499197      0.0516115639
H       2.9352409967     -0.6014148685      1.0064643953      0.0017974112      0.0081368891     -0.0081343258      0.1168956672
H      -1.8875194110      1.9311941199      1.4095435727      0.0037994058      0.0009382626     -0.0025309221      0.0618879978
H      -1.6286518153     -2.3797324413      1.4939745058      0.0082641307      0.0036432448      0.0092759965      0.0650474900
H      -2.8445184689     -0.2780034659      2.1266861004      0.0007852862      0.0029015313     -0.0043512358      0.0672424959
P       1.3564280603     -0.2863886980      3.8810732306      0.0021646107     -0.0042397405      0.0105333396      2.2067455335
F       1.4167558722     -1.4128648431      2.6205657447     -0.0014990564     -0.0030369479      0.0006439284     -0.5362024610
F       1.5304550829     -1.5055435122      4.9575492903      0.0014719491      0.0047915795      0.0071094140     -0.4949909687
F       2.9889085941     -0.1072727644      3.7520238388     -0.0109070451      0.0038598110      0.0067652017     -0.5075440635
F       1.2807814022      0.8304561407      5.0736995777     -0.0040051070     -0.0085988980      0.0004537877     -0.4952785106
F       1.1581501002      0.9320091352      2.7378730077     -0.0092256846     -0.0073435436     -0.0005263377     -0.5349212470
F      -0.2988723535     -0.4697162705      3.9145199789      0.0086998143     -0.0070722686      0.0017223732     -0.5196325780
