46
Properties=species:S:1:pos:R:3:forces:R:3:charge:R:1 energy=-254.37684007694293 homo_lumo=0.8420108167478795 dipole="2.0651928098324555 -2.4685086600370867 3.62735094700237" free_energy=-254.37684007694293
N      -1.6276950658     -0.2908502163     -0.1814700165      0.3074369247     -0.4105361885      0.1330497626     -0.5454412561
C      -1.9111407282      1.1217847959      0.2166688466     -0.6542647887      1.8365824134      0.3079386170     -0.0430157641
C      -2.6355063362     -1.2142939959      0.4305917606     -1.5414479542     -0.9858601555      0.6047252548     -0.0242981999
C      -0.2896927838     -0.7109036383      0.3527379594      1.7158829816     -0.0791861443      0.2902196370     -0.0267118910
C      -3.3579736852      1.5625864334     -0.0686578850     -0.0706460459     -0.2400662596     -0.1226268159     -0.1987986652
C      -4.1011414981     -0.8168462519      0.1729214048      0.0097675434      0.0538198423     -0.0648872008     -0.1794992483
C      -4.3588654615      0.6245616791      0.5957956451     -0.2462364336      0.1350687128     -0.0180606168     -0.1673829037
C      -1.6400180552     -0.4369474830     -1.6625433465     -0.0606111564     -0.0148202713     -1.4864902643     -0.0106153373
C       0.9322480329      0.0692663590     -0.1938600065     -0.3722282713     -0.1207586062      0.0329858463     -0.2143021267
C       2.2306338020     -0.4586692639      0.4320240174     -0.1951777960      0.0830709380     -0.0888016330     -0.1636882210
C       3.4591673571      0.2684257903     -0.1296346205     -0.0391100724     -0.3110443577      0.2824159066     -0.1708624745
C       4.7497158840     -0.2813393653      0.4894642648      0.0464874565      0.1734743940     -0.1515536060     -0.2078847887
C       5.9809289113      0.4215080024     -0.0752172469      0.2379299953     -0.0736625877      0.0757312665     -0.0855392314
H      -1.2448219439      1.8268634176     -0.3254075651     -0.0026208350     -0.5837816066      0.0554932395      0.1705600768
H      -1.7186423245      1.2608849432      1.3053646715      0.1070724744     -0.4978431363     -0.3240713225      0.1300105771
H      -2.5004986848     -1.2525838714      1.5369569048      0.3429622603      0.2900005245     -0.4395397253      0.1404243071
H      -2.4878652109     -2.2535577231      0.0575868905      0.3558993638      0.4990950631     -0.0361611509      0.1403784245
H      -0.2792090711     -0.6130971522      1.4633278564     -0.3959037207      0.0665248452     -0.4174486324      0.1390456132
H      -0.1218492754     -1.7916172807      0.1349031676     -0.4159985496      0.3602746097     -0.0740163826      0.1409261733
H      -3.5093833142      2.5893912884      0.3292189501      0.2899502764     -0.2305293918     -0.2936835718      0.1295859595
H      -3.5439365036      1.6026247911     -1.1620422469      0.0251491792      0.2943815215      0.1135503113      0.2025222132
H      -4.3746546711     -0.9601647207     -0.8924364498      0.0834417982      0.0372571993      0.1845851440      0.1248522330
H      -4.7637175905     -1.4861364707      0.7634657465      0.3475194455     -0.0445082201     -0.1917342463      0.1184079598
H      -4.2768191931      0.7108112039      1.7016193315     -0.0678734537     -0.0395214395     -0.1590315047      0.0773661275
H      -5.3907133057      0.9166325652      0.3032930661      0.2818252705     -0.0464933166      0.1628210130      0.1183109312
H      -1.0048647856      0.3304725970     -2.1532747756     -0.1973921536     -0.2160891736      0.4172101581      0.1465549265
H      -1.2778628564     -1.4437058616     -1.9678590788     -0.0932678909      0.3429466256      0.4122038968      0.0982528208
H      -2.6520069736     -0.3061758648     -2.0912472444      0.2018623020      0.0524034401      0.4060065966      0.1787532223
H       1.0088456772     -0.0536269776     -1.2933713120     -0.0802587579      0.1452817543      0.2238953282      0.1286165789
H       0.8445168635      1.1488029567      0.0454625113     -0.0347983749     -0.2187775926     -0.1689624232      0.1252638864
H       2.1922297155     -0.3166086278      1.5344620914      0.0454508301     -0.1414558776     -0.2014479460      0.0914209331
H       2.3243424436     -1.5467625156      0.2208192865      0.0027231619      0.1973201223      0.1484280724      0.0929887794
H       3.3773513387      1.3554824764      0.0912332155      0.0246346855     -0.2098425498     -0.1615942163      0.0963244071
H       3.4945207039      0.1330070251     -1.2331827932     -0.0167060358      0.1415716212      0.2266101340      0.0986745286
H       4.8320763287     -1.3700447721      0.2794638749     -0.1099396111      0.1930404555      0.1566375447      0.0890748297
H       4.7276032914     -0.1370176396      1.5915721167     -0.0741537520     -0.1535334247     -0.2061152193      0.0886232564
H       6.0440051170      0.2679472109     -1.1734892965      0.0483325425      0.1347936445      0.2946212910      0.0448361181
H       5.9388799747      1.5098800958      0.1420582721      0.0872933033     -0.2729873060     -0.1430666908      0.0438539055
H       6.8954000591      0.0012205086      0.3940036450     -0.1450716567      0.2216732246     -0.2195825406      0.0490516556
C      -3.7285866202      2.6279444393     -4.3211105254     -1.6348424437     -0.1916820894      0.6493539073      0.7977125801
O      -3.8730468037      3.2914446530     -3.3067054241      1.7837755777      2.6453009447      3.3911132259     -0.8071150359
O      -4.6552232622      1.9496670938     -4.7342143266     -1.2052198074     -2.8015463363     -2.9115233463     -0.7741622278
C      -2.4247987698      2.6451565546     -5.0646290491     -0.5155589448      0.4916295275     -0.0201500658      1.2251535296
F      -1.9184163253      1.3609158484     -5.1409172456      0.6286474770      0.2618671211     -0.2398316494     -0.4804643265
F      -1.5049031113      3.4531915041     -4.4192213548      0.3734344047     -0.5045117766     -0.7603595171     -0.4688815084
F      -2.6289267800      3.1294227554     -6.3435789705      0.8218492519     -0.2683407369      0.3311441342     -0.4588833476
