40
Properties=species:S:1:pos:R:3:forces:R:3:charge:R:1 energy=-213.75167323774457 homo_lumo=1.7830430778961126 dipole="-1.6488339228728512 -1.4091677438578931 -2.958049780064272" free_energy=-213.75167323774457
N       0.9752218104     -0.3146342227     -0.0317173446     -0.2551438758     -0.0120029651     -0.1057651080     -0.5240165837
C       2.0330100906      0.0469072681     -1.0254955690      1.3632659414      0.9906979071     -1.7173097843     -0.0051832993
C       1.6576044029     -1.2234559102      0.9405016946      0.6558545726     -1.6710173662      1.7635494811     -0.0064487626
C       0.5008059457      0.9097193928      0.6930320494     -0.7668145177      1.5564329398      0.4094630533     -0.0587045651
C      -0.1332011137     -1.0404154751     -0.7346048837     -1.2791424051     -0.6758899456     -0.3327702377     -0.0349505255
C       3.2321469690     -0.8497104034     -0.7837395188      0.2408354868     -0.5814824927     -0.5785287948     -0.1372661218
C       3.1497741515     -1.1491170971      0.6852234792      0.5514791527      0.3529358593      0.5668292207     -0.1314296287
C      -0.2509042938      1.9375693916     -0.1844406265      0.1622654017     -0.4448811409      0.1274604368     -0.2122905370
C      -1.3031384105     -1.4771748591      0.1781322517      0.3302574628      0.1537386452     -0.1799102649     -0.2135595571
C      -0.5599237116      3.2048116044      0.6250248456      0.1051586092      0.0087318347      0.0649062700     -0.2093398398
C      -2.3211700937     -2.3105053077     -0.6119434727      0.0777859624      0.0309262841     -0.0422073156     -0.2100282422
C      -1.3055585194      4.2382498927     -0.2135113799     -0.0760138623      0.1230582146      0.0166917913     -0.0849416780
C      -3.4934726659     -2.7352406684      0.2674679464     -0.1549786244     -0.1015266570     -0.0228502949     -0.0885779365
H       2.3841446752      1.0970803875     -0.9040546608     -0.5919964982     -0.3302613981      0.3302148153      0.1579431258
H       1.6997718135     -0.0512450286     -2.0839087650     -0.3419093884      0.0774631479      0.5948837432      0.1217010897
H       1.3602331964     -2.2880179715      0.8014332144     -0.3521045269      0.5546618706     -0.3365979157      0.1235904444
H       1.4456086157     -0.9744969509      2.0054370494     -0.1311128623      0.3566511191     -0.4502245609      0.1567783176
H      -0.1616798470      0.6284822020      1.5406919051      0.3748191243     -0.2477447720     -0.3404302175      0.1628337776
H       1.3731908953      1.4238618795      1.1602147820      0.0772355143     -0.5337426777      0.0768461584      0.1934869417
H      -0.5461065908     -0.4169192878     -1.5580594935      0.3390231134      0.0980776171      0.4032940717      0.1485562231
H       0.2772705006     -1.9494781056     -1.2343116549      0.2204565875      0.4056662755      0.3447980639      0.1425770226
H       3.1228587847     -1.7916126117     -1.3673793261      0.1636278012      0.2801775676      0.0139011396      0.0818852092
H       4.1885366021     -0.3492755337     -1.0492035565     -0.3840618991     -0.2095949418     -0.1161024157      0.0941319787
H       3.5926064614     -0.3093234436      1.2664301710     -0.1476096303     -0.2303883861      0.1779958856      0.1384017395
H       3.6645329544     -2.1000564567      0.9431288620     -0.2133368834      0.4119558018      0.1245633834      0.0828121031
H       0.3593138009      2.2140196476     -1.0696741365     -0.1616925402     -0.0681659891      0.0965417213      0.1022988704
H      -1.2121501647      1.5086367842     -0.5377997876      0.1869246560      0.0899169493     -0.0787035813      0.1045354029
H      -0.9280505921     -2.0831587636      1.0295969661     -0.0714784137      0.2252832829     -0.1250708714      0.1265702138
H      -1.8251904086     -0.5857118955      0.5835813698      0.1926859951     -0.1877463586      0.0049522229      0.1334023838
H       0.3869669877      3.6588652321      0.9911514783     -0.2406822510     -0.2640946386      0.0879164690      0.1211478480
H      -1.1854749264      2.9397600305      1.5054201520      0.3094057143      0.0432534149     -0.1049842845      0.1047155475
H      -2.7117489040     -1.7128614137     -1.4647289490      0.1859136049     -0.1811929314      0.0907554321      0.0942881391
H      -1.8286602003     -3.2219131583     -1.0166256989     -0.0730896418      0.2624328064     -0.0368292040      0.0924560820
H      -2.2696462793      3.8206720306     -0.5743874412      0.2331068587      0.2108122065     -0.0007879407      0.0328293247
H      -0.6879472613      4.5475003754     -1.0836055372     -0.2688035156     -0.0306363877      0.1830525052      0.0388590519
H      -1.5177535938      5.1346887875      0.4075444146      0.0104306508     -0.2139676496     -0.2954092884      0.0601418250
H      -4.0178124224     -1.8423102281      0.6701374178      0.1011291492     -0.3233891702     -0.0326330654      0.0488503495
H      -3.1348999918     -3.3631314575      1.1108805802     -0.2064445667      0.2050165963     -0.1820251241      0.0503586390
H      -4.2142814258     -3.3278112927     -0.3351300287      0.1322089386      0.1621393545      0.2952475623      0.0565785666
Cl      2.9420737779      1.4836148634      3.7757369429     -0.2974543947     -0.2923038269     -0.6947231572     -0.8549929396
