29
Properties=species:S:1:pos:R:3:forces:R:3:charge:R:1 energy=-167.02268120745782 homo_lumo=0.02362272184398037 dipole="-3.638356494539896 1.8929177920759352 -1.39915515955623" free_energy=-167.02268120745782
N       0.0760849610     -0.5901330285     -0.4368919832     -0.0995757010      0.2624759748     -0.4722539142     -0.5169061578
N      -2.0038024986      0.1152407340     -0.0924747982     -0.3541097770      0.6067720227     -0.2754502119     -0.5573903854
C       1.4487996996     -0.6636785395     -0.9347018491      0.8934137205     -0.2035768488     -0.0698639022     -0.0225341068
C       2.4579674093     -0.3698105332      0.1821220923      0.0619428424      0.1842358678      0.1637447248     -0.2626978757
C      -0.8474364720      0.3416841476     -0.7451673016      0.5961616125      1.8647469938     -1.5583799258      0.5084502711
C      -0.5183362691     -1.4347483421      0.4304360443     -1.0202322366     -0.8778388314      1.1193201565      0.2242409076
C      -1.8091063100     -0.9950539292      0.6454682587      0.6267436083     -1.6981513026      1.0166222556      0.2232729395
C       2.3110552426      1.0510156111      0.7246871238     -0.0353872227      0.0188243324      0.1017901975     -0.1005248049
C      -3.2180185882      0.9189493158     -0.1468113139     -0.2130533363      0.1659201066     -0.0134318342      0.0711186427
H       1.5945753118      0.0620106400     -1.7652158230     -0.3784427957     -0.1946059353      0.2763292953      0.1046864946
H       1.6352513077     -1.6807412119     -1.3422247829     -0.2404917652      0.2288923411      0.1039875249      0.1365721422
H       2.3283435039     -1.0981956199      1.0115879821      0.2413783578      0.0376160491     -0.3014137943      0.1636643194
H       3.4857367500     -0.4932519641     -0.2222675507     -0.2973206234     -0.3098629596      0.0926453389      0.1530296656
H      -0.6759950456      1.1741819749     -1.4166580676      0.0027584262     -0.0476035192      0.0317804124      0.0762993477
H      -0.0478623209     -2.3023651465      0.8747779565      0.2394448263     -0.0142852245     -0.0686783816      0.0661423444
H      -2.5478527148     -1.4478623245      1.2940800621     -0.1608505398      0.1110510302     -0.0297752514      0.0464626270
H       1.3264833424      1.1765805290      1.2233421911      0.2517430249      0.1120238416     -0.1040351933      0.0460243459
H       2.4014291064      1.7914874459     -0.0985628933     -0.0270031912     -0.0876428089      0.2610060720      0.0235738640
H       3.1100624263      1.2486389259      1.4696386146     -0.2957894348      0.0072278482     -0.2033278951      0.0895416151
H      -3.0878091093      1.7754677169     -0.8423252561      0.0683345997     -0.4269917585      0.2833879951      0.0778360170
H      -4.0646258022      0.2939093191     -0.5005147915      0.2840576339      0.1787067308      0.0830003245      0.0780638944
H      -3.4503943627      1.3110164631      0.8656487683      0.0999115329     -0.1085599570     -0.3071951217      0.0782894497
C       6.3959359804     -1.3325683803      1.9963581778      0.8175753794      0.8056632017     -0.1753298779     -0.2041267729
C       5.3490086093     -2.4002396059      1.9447140499      0.7766836944      0.7934984541      0.1420997719      0.8739336023
O       5.0601919992     -2.9288498925      0.8830010020     -0.4458918429     -1.0576219667     -4.1710993988     -0.7479356516
O       4.7808474297     -2.7460783307      2.9677683849     -1.3273962185     -0.3368688171      3.8376951458     -0.7332426480
H       6.7972209041     -1.1257509269      0.9810536058     -0.0616038652     -0.0379727919      0.3057831869      0.0225875700
H       5.9560700200     -0.3985018740      2.4044744582      0.2235113665     -0.2014906000      0.0306420506      0.0289850708
H       7.2302409519     -1.6596838839      2.6521676523     -0.2265120752      0.2254185269     -0.0995997506      0.0525832722
