24
Properties=species:S:1:pos:R:3:forces:R:3:charge:R:1 energy=-136.23484986922097 homo_lumo=0.8448507169435104 dipole="-1.580424530426872 -2.1290823658893374 1.9643576824600182" free_energy=-136.23484986922097
N       1.0750709869     -0.0591986941      0.1852780471     -0.9065242718     -0.5961716341     -0.0284993601     -0.5450506372
N      -1.1453829507     -0.0180037474      0.1104409475      0.6600846721     -0.7629163097     -0.0713532067     -0.5610152234
C      -0.0461832099     -0.7952867244      0.0599923119      0.0986639151     -1.4615858721     -0.3185360404      0.5805692072
C       0.6728301453      1.2196570799      0.3223391375     -0.7180827944      1.5315813552      0.0702105061      0.2899612470
C      -0.7064794330      1.2455782772      0.2732934951      0.9036165625      1.5568355714      0.2965369255      0.2571026164
C       2.4508819836     -0.5351863748      0.1216863624      0.6691522943     -0.3272424068     -0.0910641103      0.0691200376
C      -2.5318082791     -0.4440056518     -0.0298624308     -0.5032767137     -0.2273351286     -0.0663308598      0.0676855333
H      -0.0609920436     -1.8683788141     -0.0869976625     -0.0052983319      0.0244280471     -0.0094005232      0.0912993998
H       1.3320948720      2.0714017542      0.4288459810      0.2581492942     -0.0237230019     -0.2351836967      0.0822087670
H      -1.3396945979      2.1210677367      0.3373830509     -0.1598771054     -0.0774288233     -0.0828981447      0.0593626656
H       2.4774839539     -1.6447717123      0.0774919542     -0.2156819657      0.4647700093      0.0709478228      0.0597816348
H       2.9428855806     -0.1310036045     -0.7871566093     -0.3165702271      0.1557191275      0.1557746757      0.1441701714
H       3.0071750013     -0.1969723369      1.0207776675     -0.3132780412     -0.0723708169     -0.3012832636      0.0751400126
H      -3.1153267652     -0.1179117565      0.8565125926      0.2777610110     -0.1019681416     -0.2770278165      0.0831729354
H      -2.9695545650      0.0095959570     -0.9438491897      0.2453997827     -0.1324937231      0.2833030707      0.1001379403
H      -2.5930687473     -1.5501742192     -0.1131665807      0.1644257672      0.4865306101      0.0490719417      0.0782995381
S       1.9999905397      2.6143765116     -2.9081213502     -2.5076418305     -2.3283277441      9.7395890756      1.5995776303
O       3.1943620732      2.3163365708     -1.9900398278      0.2994148326      0.6121882589     -2.8242134090     -0.7931692421
O       1.2078605317      3.6692306434     -2.1216133167      0.9811590758      0.2235344708     -2.9523196615     -0.7754539681
O       1.1326299141      1.3542884040     -2.7765998384      0.8730553265      0.8622577972     -2.5566868690     -0.8018681576
C       2.4283105852      3.0730907064     -4.6092910420      0.2814257653      0.3281745963     -1.0015784978      1.1229436105
F       3.0851739549      2.0212589289     -5.2178096079     -0.4761554402      0.9595363214      0.1843365554     -0.4296876926
F       3.2504631122      4.1828164282     -4.5954998070     -0.6578966747     -0.9084105492     -0.3224895733     -0.4259526732
F       1.2751216912      3.3629728346     -5.3121363805      1.0679750973     -0.1855820135      0.2890944591     -0.4283353533
