23
Properties=species:S:1:pos:R:3:forces:R:3:charge:R:1 energy=-129.13482488310405 homo_lumo=2.5835750837401172 dipole="-0.8744097585930349 -1.8342554095504249 0.9894619268445853" free_energy=-129.13482488310405
N       0.1444777313     -0.7022913730     -0.4669728379      0.2722532756     -0.2186961790     -0.2241631522     -0.5124008580
N      -1.7509920338      0.2518233036     -0.1670061104     -0.3688134665      0.1795330750      0.0953553326     -0.5579520362
C       1.5468175828     -0.8710154367     -0.8308877364      0.3567570542      0.0268208587      0.4316061803      0.0081871807
C       2.4586558511     -0.4734002934      0.3352795641     -0.2587579018      0.3438993071     -0.2133914694     -0.2117304429
C      -0.5418229499      0.4133580306     -0.6970867090     -0.0623242862     -0.0666593600     -0.1000751159      0.5295960668
C      -0.6360569972     -1.5910913366      0.2248691466     -0.0142925534     -0.3343235746      0.1708234630      0.2004196365
C      -1.8403925078     -0.9895507688      0.4105497770     -0.2174078520     -0.2587622376      0.2441824119      0.2076458413
C       2.2966744309      0.9937045187      0.7256857813      0.2042007314     -0.4948444163     -0.0431769404     -0.0722577139
C      -2.7964483782      1.2599441557     -0.2036983522     -0.0481805016     -0.0727599033      0.0061595401      0.1194232199
H       1.7378957532     -0.2331534003     -1.6978663341     -0.0319712610      0.1798606112     -0.1962228498      0.1312089272
H       1.7059308937     -1.9170855305     -1.1047376751     -0.0628240389     -0.2327387527     -0.1348730213      0.0936469469
H       2.2472372788     -1.1182181985      1.1945153728      0.0174248338     -0.2719062480      0.2102570437      0.0801294759
H       3.4881352519     -0.6590812845      0.0160627521      0.2785618588     -0.1364050709     -0.0747981451      0.0906831965
H      -0.1369594447      1.3333696662     -1.1950066030      0.2754360726      0.6781394222     -0.3467342795      0.1763546070
H      -0.2809061313     -2.5641726148      0.5162694330      0.0715393222     -0.2426592966      0.0833204047      0.0258261876
H      -2.7361784852     -1.3345615397      0.8967437225     -0.2114520611     -0.1076180544      0.1201432446      0.0258448599
H       1.3073186253      1.1712042166      1.1479424499     -0.2627337528      0.1790223502      0.1139686249      0.0521710787
H       2.4216393446      1.6404069040     -0.1430008158     -0.1001480463      0.2883249111     -0.2407770860      0.0872219237
H       3.0443196769      1.2574723023      1.4730042045      0.1843608484      0.1146147269      0.3055700689      0.0309674082
H      -2.3909011913      2.1564744109     -0.6705093776      0.1541334068      0.2240649812     -0.1212749842      0.0916195274
H      -3.6416987308      0.8879139789     -0.7836884683     -0.1817461850     -0.0653081687     -0.1615935712      0.0539362271
H      -3.1199629510      1.4833946347      0.8130891977     -0.0422294894      0.0802791798      0.2320884194      0.0520918846
Cl      0.6777244099      2.8608775720     -1.8251767922      0.0482139923      0.2081218386     -0.1563941190     -0.7026331449
