23
Properties=species:S:1:pos:R:3:forces:R:3:charge:R:1 energy=-128.1685498706831 homo_lumo=0.28174382799487435 dipole="-1.8556956087064007 -1.7848481846762418 2.5317753392529543" free_energy=-128.1685498706831
N       0.0652624634     -0.6661871428     -0.3976365671     -0.6684637338      0.6850337328     -0.5539868651     -0.5134710786
N      -1.9838721546      0.1424748576     -0.1106796269      0.6383592185      0.3290035077     -0.4916153388     -0.5572261291
C       1.4419935668     -0.8104230865     -0.8655834337      1.0283556224     -0.2094007356     -0.3032894818     -0.0290824776
C       2.4403099722     -0.4367150966      0.2363250896     -0.0370925940      0.1995452415      0.2194382435     -0.2313895730
C      -0.8152299053      0.2849504752     -0.7639151716      0.5091101189      1.2286532584     -1.0701557443      0.5824849163
C      -0.5687140288     -1.4370815136      0.5094928631     -1.0447321368     -0.7596601147      1.1466768519      0.2247150772
C      -1.8416311291     -0.9335757281      0.6878520197      0.4233383061     -1.5901664398      1.1325876098      0.2284063742
C       2.2934275697      1.0214779382      0.6716902668      0.0668197838      0.1355117572      0.0540146538     -0.1038515389
C      -3.1582774830      0.9970485671     -0.2151038721     -0.4392442778      0.3719935708     -0.1044627399      0.0651341661
H       1.6131951417     -0.1626751015     -1.7527329746     -0.3637858168      0.1436058544      0.0591374016      0.1630260564
H       1.6122957887     -1.8619999123     -1.1814614626     -0.3449619213      0.2253805271      0.0975638260      0.1129859626
H       2.2991707614     -1.1018390912      1.1158434277      0.1191989277      0.0184725813     -0.1978833577      0.0882678214
H       3.4707711244     -0.5931296804     -0.1488634253     -0.3460362978     -0.1271470390     -0.0312179719      0.1177818565
H      -0.6021748185      1.0749636008     -1.4742951341      0.3033516679      0.2076632292     -0.3603226975      0.1123340721
H      -0.1359204098     -2.2954963023      1.0073761938      0.1928579338     -0.0053891474     -0.1017280510      0.0511980085
H      -2.6017719335     -1.3155988179      1.3576540710     -0.1719949867      0.1180020195     -0.0588102453      0.0473222062
H       1.3065680321      1.1866440445      1.1537122990      0.2563910829      0.0643204680     -0.1100565955      0.0453940985
H       2.3916353571      1.6993619363     -0.2031106413     -0.0931459651     -0.1351466699      0.1850209066      0.0885328772
H       3.0865113820      1.2727124916      1.4066419721     -0.2872695622     -0.0003159611     -0.1669092757      0.0549375248
H      -2.9677513820      1.8352817814     -0.9187996674      0.0692848719     -0.4281052172      0.2729357933      0.1015904116
H      -4.0196140563      0.4032723232     -0.5863413922      0.3374261765      0.1636742908      0.1047523208      0.0843161052
H      -3.4031561485      1.4163144745      0.7835062872      0.1527862922     -0.1695925178     -0.3323441264      0.0817401650
Cl      1.5509135841      2.2921041755     -3.5657710926     -0.3005527104     -0.4659361961      0.6106548835     -0.8151469025
