34
Properties=species:S:1:pos:R:3:forces:R:3:charge:R:1 energy=-192.88090604241592 homo_lumo=3.9254596501706978 dipole="-1.4600196095777473 2.2532039910213952 -0.43308785786560167" free_energy=-192.88090604241592
N       0.6710555056     -0.9971003309     -1.0121882525     -0.2888609266      0.0411829931     -0.3285895302     -0.4981242936
N       2.4197103051     -0.6348112645      0.1870098116      0.4469020445      0.2159767746      0.2188944512     -0.5398450090
C      -0.1878028771     -1.4743808473     -2.0927247443     -0.2496148475     -0.4197581411      0.1901901147     -0.0530261590
C       1.9989593062     -1.0811566096     -0.9940463114      0.1264222584      0.0877401607     -0.2177052416      0.5899933392
C       0.2336914274     -0.5103571855      0.1900834792     -0.1247893006      0.1387003373      0.1464094193      0.2234454283
C       1.3385501325     -0.2853535334      0.9478081934     -0.1896655407      0.1221742956      0.1270542834      0.2509012004
C      -0.9834667421     -2.6931227527     -1.6387152035      0.1702602485      0.2539996290     -0.1472678389     -0.0843223066
C       3.7948586602     -0.6695563721      0.6552343639      0.0757867575     -0.0622425374      0.0668831920      0.0820943869
H      -0.8539397468     -0.6562017938     -2.3837310776     -0.0412525790      0.2187471150     -0.0968357528      0.1100733624
H       0.4592243534     -1.7291699931     -2.9352783709      0.1330688417      0.0098109809     -0.1368294322      0.1156286433
H       2.6206586191     -1.4586357866     -1.7873495401      0.0553564649     -0.0409272998     -0.0449092909      0.1274322251
H      -0.8099027037     -0.3675287518      0.4075360157     -0.2315053222      0.0066524980      0.0584159106      0.0394937818
H       1.4416579994      0.0815033879      1.9537072836      0.0383082597      0.0458397394      0.2342832765      0.0355356103
H      -0.3061391268     -3.4954716503     -1.3534885382      0.1755385218     -0.1778422604      0.0673457298      0.1343201668
H      -1.6106035313     -3.0315577041     -2.4620415970     -0.2522035861     -0.1025999288     -0.2307179200      0.0407994826
H      -1.6167353877     -2.4446200966     -0.7882709861     -0.2445647062      0.0364511348      0.2421856340      0.0401745936
H       4.4639805980     -0.4689095428     -0.1791906949      0.1249048191      0.0960751260     -0.1264292016      0.0564394956
H       3.9262870934      0.0789960907      1.4340372449      0.0011315893      0.2505609394      0.1255956737      0.0488326030
H       3.9974056262     -1.6688559428      1.0536023535      0.0155724556     -0.1564514911      0.0907354807      0.1530246352
N       3.6750434394     -3.8213672262      0.7513201589     -0.0413808669     -0.1726069377     -0.1892833785     -0.8847872026
S       2.1836308804     -4.0072202221      0.2002189250      0.0227648724      0.4029433408      0.0879533914      1.6210244818
S       4.8448563589     -4.5605540169     -0.0818965655      0.2818559048      0.2246329574      0.1939778070      1.6272219639
C       1.6450897337     -5.7923432537      0.4534566283      0.4045247479      0.7216095219     -0.0809928559      1.2143190152
C       5.4715985619     -3.2398558666     -1.2597184750     -0.4363265247     -0.4405531419      0.8549252157      1.1931101779
O       1.3278002923     -3.2363527912      1.0797978558     -0.6143037924      0.3246625311      0.7681623277     -0.7659094505
O       2.0038660476     -3.7692651549     -1.2267476230     -0.0680450320     -0.2765756208     -0.8637715182     -0.7701479251
O       4.4113872964     -5.6482858781     -0.9147967014     -0.5189931800     -0.7800160269     -0.8861966947     -0.7331098643
O       5.9563285208     -4.7466188179      0.8056927472      1.0555299694      0.0131771776      0.7404985891     -0.7234581560
F       0.4021188074     -5.7799280107      0.9170860827     -1.3530856368      0.0278596120      0.4715782192     -0.4383855525
F       2.4233610105     -6.3915140589      1.3324798485      0.8352116334     -0.6781467927      0.9871170870     -0.4302578196
F       1.6640061969     -6.4517442010     -0.6849917309      0.0024336682     -0.7368286030     -1.2351418779     -0.4232367403
F       6.3149141027     -3.7406269462     -2.1391246605      0.8674850059     -0.6185658128     -0.8747413154     -0.4295251267
F       6.0917332268     -2.2884543249     -0.5602608589      0.7655190616      0.9117472703      0.6551528544     -0.4560511423
F       4.4728023886     -2.6444406245     -1.9189772504     -0.9439852829      0.5125704596     -0.8679468087     -0.4736778453
