33
Properties=species:S:1:pos:R:3:forces:R:3:charge:R:1 energy=-189.51061361845098 homo_lumo=2.2586286712632946 dipole="-0.7299330948799083 1.322397779318178 -2.163307712787118" free_energy=-189.51061361845098
N       1.5460060717     -0.6112788617      0.6198649958      0.0141111351      0.0892787590     -0.2199733660     -0.4974328283
C       2.6142981425      0.3285568144      0.2469232984      0.2798951635      0.3889483342      0.4127231593     -0.0560670609
C       0.3208730757     -0.1301661513      0.8976731620     -0.4165962871      0.0250693451     -0.0381246249      0.2612747116
C       1.8286384786     -1.9124604122      0.7615697920     -0.0118243922     -0.3669733865     -0.1403598756      0.2795412462
C       3.1267685723      1.0509683014      1.4886153297     -0.0682860176     -0.1813240967     -0.3068975759     -0.0943638693
C      -0.6764669500     -0.9716011169      1.3395675573      0.0418379502     -0.0634626205     -0.0348480148     -0.0052964971
C       0.8619057105     -2.7942605681      1.2054788647     -0.1913895895     -0.0851749007      0.0249990956     -0.0057164167
C      -0.4075961904     -2.3253581057      1.5065953003      0.1205783561      0.1964313513     -0.1294582040      0.0651613068
H       3.4160852874     -0.2443883788     -0.2237079225      0.0632997118     -0.1622120884     -0.1369415211      0.1204856442
H       2.2037088274      1.0360878700     -0.4786011451     -0.1235057844      0.0373562897     -0.2367852767      0.1098021982
H       0.1696091231      0.9345351176      0.7689443093      0.0495708301      0.1742918900     -0.0356163330      0.0921322266
H       2.8401921731     -2.2335527558      0.5452074796      0.1269520498     -0.0207147199     -0.0359159923      0.1259598800
H       2.3294061749      1.6312684722      1.9503851296     -0.1889912430      0.2302401207      0.1433724966      0.0405286018
H       3.9351155867      1.7198597607      1.1984201995      0.2505595658      0.2521656218     -0.1004520078      0.0447075772
H       3.4998223882      0.3290588526      2.2132337343      0.1156850940     -0.1545372417      0.1505169087      0.1520274646
H      -1.6511214456     -0.5617759227      1.5713760985     -0.2151344966      0.1234489776      0.0467715077      0.0566393941
H       1.1263017102     -3.8351219845      1.3388387056      0.1162285480     -0.1879377092     -0.0060530310      0.0974784940
H      -1.1690691970     -2.9964698725      1.8840441853     -0.1645017383     -0.1720575768      0.1095102597      0.0635181908
N       1.9219293379     -3.1453195216      3.7505909657      0.3907449188      0.1701169793      0.2324847210     -0.8541625626
S       1.5122978617     -2.3191660517      5.0676162928     -0.4074957092     -0.2079996551      0.0522297705      1.6414510341
S       3.4229599279     -3.0444269388      3.2085192303     -0.2760690893     -0.1546295290     -0.3645931282      1.6114845696
C       1.6467771400     -0.4768365354      4.7176385221     -0.0232425301     -0.8995568957     -0.2354324162      1.1976314634
C       4.6725177541     -3.6968769997      4.4531708908     -0.7654312644      0.2779655086     -0.4041168233      1.2183233049
O       0.0933031265     -2.5060011591      5.2153376537     -1.3149166866     -0.0209978853     -0.0440234154     -0.7446358306
O       2.3742518754     -2.5332514112      6.1990693480      0.8532065978     -0.0020882582      0.7942007109     -0.7289498089
O       3.8520497838     -1.6812117306      2.9258788653      0.4256588481      0.7385942172      0.0710469693     -0.7814699353
O       3.4949537366     -3.9698012714      2.0952088781      0.2065611919     -0.8923037264     -0.6997213587     -0.7760725434
F       0.8433585899      0.1773410448      5.5394266823     -0.8229605005      0.6521924313      0.9596031895     -0.4334692420
F       1.2310092448     -0.2291506363      3.4629311053     -0.3990112929      0.2478484672     -0.9325447288     -0.4758030806
F       2.8686925320     -0.0012044029      4.8486386160      1.2710421582      0.5027332716      0.2830311483     -0.4373326831
F       5.7225568965     -4.1379015697      3.7793654556      1.1586748427     -0.4568260202     -0.7889289711     -0.4339708930
F       4.1529606286     -4.6929806401      5.1425374391     -0.5728151124     -1.1115088891      0.7111240414     -0.4282547609
F       5.0574531969     -2.7374862984      5.2677433176      0.4775647724      1.0336236347      0.8991726860     -0.4251492955
