40
Properties=species:S:1:pos:R:3:forces:R:3:charge:R:1 energy=-219.60382361082586 homo_lumo=0.1405048442373962 dipole="1.6073136880139889 -4.225603709926884 0.8806355216949454" free_energy=-219.60382361082586
N      -1.4352943221      0.3858579495     -0.0741509692      0.2906127214      0.3603461815      0.1257993391     -0.5463729000
C      -1.7251981418     -0.9041879059     -0.7664243587     -0.0206926222     -1.8743121967     -1.3381748647      0.0091671257
C      -2.5273705790      0.5544999992      0.9216491582     -1.4731366802      0.5607338032      1.8825179446     -0.0002911514
C      -0.1217535659      0.3484974445      0.6383078752      1.5840894007     -0.0246313892      0.3150685117     -0.0244749207
C      -3.0369422805     -1.4587575802     -0.2237326182     -0.1391506134     -0.7838998906      0.1823823999     -0.1355040434
C      -3.6963094981     -0.2899429651      0.4602066748     -0.7017302255      0.4333796930     -0.2763107119     -0.1519927076
C      -1.4837163778      1.5178507227     -1.0363776830      0.0635952026      1.1786020560     -1.0587032768     -0.0084385054
C       1.1117060129      0.2964058163     -0.2933996822     -0.3567324292      0.1662702097      0.1091175648     -0.2080019383
C       2.3722411603     -0.0810993079      0.4952154622     -0.1591353082      0.0557922428     -0.2143391429     -0.1689155525
C       3.6154977782     -0.0619298342     -0.4008352546      0.0476460147     -0.0075307245      0.1743419976     -0.2107360585
C       4.8637231066     -0.4522709971      0.3857558968      0.2139070117     -0.0180932643     -0.0979896962     -0.0874788066
H      -0.9302977554     -1.6673751683     -0.6075898236     -0.0022710573      0.6727650175      0.0416183152      0.1326424529
H      -1.8223863853     -0.7773424215     -1.8697839288      0.2607149316      0.4261422184      0.5348549769      0.1378610614
H      -2.8387886917      1.6167679344      1.0530046647      0.5090307331     -0.2407746566     -0.3090081529      0.1748237254
H      -2.2280383445      0.1819769554      1.9299036032      0.4165986280      0.0821658972     -0.5538223322      0.1296425138
H      -0.0941088336     -0.5372039292      1.3156014201     -0.3568283520      0.2062432204     -0.3409115290      0.1257697592
H      -0.0190054755      1.2469484759      1.2898720516     -0.4039266088     -0.2224853168     -0.3150986310      0.1564802763
H      -2.8262215604     -2.2549907995      0.5251519499     -0.0896064992      0.1367143342     -0.3113726319      0.0896526935
H      -3.6788604530     -1.8739644404     -1.0306928116      0.3180267852     -0.0165358160      0.2851251866      0.0953510315
H      -4.3106451539      0.2796893412     -0.2712208323      0.0447001786     -0.0919740443      0.3129046056      0.1192912376
H      -4.3332946064     -0.6162865270      1.3111797305      0.1336556043      0.3219421015     -0.3183483737      0.0987621916
H      -0.7897875918      1.3563840379     -1.8896254509     -0.1632618145     -0.1919940308      0.4861633569      0.1037384421
H      -2.5040044670      1.6326193653     -1.4662315561      0.2267065504      0.0246113745      0.4277586803      0.1474222817
H      -1.2087340133      2.4748967851     -0.5389645726     -0.3331336697     -0.3842287243     -0.0607026926      0.1450970932
H       0.9617330486     -0.4433037753     -1.1076806020      0.0000836507      0.1838177342      0.1304184023      0.1120472150
H       1.2661275737      1.2964653383     -0.7538210408     -0.0661858127     -0.3220803926      0.0222309340      0.1334546534
H       2.2444835232     -1.1008648760      0.9216172809      0.0567948014      0.2502954418      0.0261518856      0.0894681530
H       2.5115321603      0.6375540719      1.3327480488     -0.0057282567     -0.2378184443     -0.1026287379      0.1011729571
H       3.7591395456      0.9576397662     -0.8206282666     -0.1305455830     -0.2647306339     -0.0144490357      0.1007353082
H       3.4826696775     -0.7753928097     -1.2431994070     -0.0493052203      0.2577816642      0.1007326074      0.0914533831
H       5.0288910669      0.2569897019      1.2247829946      0.0276844827     -0.2719595682     -0.1935570504      0.0470941562
H       5.7495852054     -0.4237870945     -0.2830284077     -0.1535827043     -0.0517698695      0.3132310493      0.0545799831
H       4.7578880160     -1.4811886593      0.7912159270      0.1166210939      0.3025346686     -0.0392453564      0.0413594326
C      -4.4547528556      5.5412675412     -2.8687271887     -0.7136049768      0.3389497166     -1.0263606878     -0.1788329576
C      -3.5847312624      5.4157185762     -1.6579468109      0.1909449955      0.8651511745     -0.3033783166      0.8540082581
O      -3.5498821670      4.3645595199     -1.0391448555     -0.7129165562     -5.2633243866      1.4217692797     -0.8484737405
O      -2.9085840906      6.3610594788     -1.2851205614      1.5957104142      3.7292943790     -0.0104528798     -0.7693164557
H      -4.1263104572      4.8143077684     -3.6410009949     -0.2324497699      0.1066167289      0.1262765451      0.0056889792
H      -5.5097784667      5.3302301032     -2.5944493888      0.2182948481     -0.0675660214     -0.1970462267      0.0197057826
H      -4.3936148981      6.5670083607     -3.2918441234     -0.0514932888     -0.3244404871      0.0634367447      0.0223595903
