40
Properties=species:S:1:pos:R:3:forces:R:3:charge:R:1 energy=-219.54242432406537 homo_lumo=0.17521456552937145 dipole="-2.8742412278333846 2.210258907126709 -3.1150965341842576" free_energy=-219.54242432406537
N      -1.4362794084      0.3811207710     -0.0528369157      0.1686743878      0.5450587044      0.0531243342     -0.5467758164
C      -1.7259351900     -0.9124956870     -0.7390572547     -0.0076177978     -1.9229204268     -1.3438742992      0.0055160331
C      -2.5103588706      0.5364347802      0.9632198425     -1.4011898452      0.3880564232      1.9062395580      0.0029565371
C      -0.1089847528      0.3588625648      0.6335265018      1.8406158771     -0.0929061986      0.4307605949     -0.0522738364
C      -3.0420437619     -1.4613454546     -0.1985358950     -0.1578284034     -0.7836544290      0.1738655939     -0.1383766716
C      -3.6888391238     -0.2966521048      0.5054551974     -0.6839335422      0.4205864114     -0.2172976622     -0.1492297271
C      -1.5167658029      1.5123749322     -1.0141216224     -0.0395820653      0.9931086329     -0.9696016737      0.0214337360
C       1.1055311260      0.3169591439     -0.3234676022     -0.3668429496      0.1938177351      0.0945511025     -0.2045517673
C       2.3823386870     -0.0647035722      0.4357127592     -0.0510758055     -0.1117715890     -0.1722325821     -0.2070223172
C       3.6100881187     -0.0201600145     -0.4799254541     -0.0333301466      0.0679985954      0.1377313230     -0.2083332390
C       4.8739872238     -0.4134138702      0.2791831737      0.2287836451     -0.0634291947     -0.0787406262     -0.1043791279
H      -0.9328584144     -1.6758437499     -0.5707542224      0.0094167184      0.6965348980      0.1086506222      0.1619634417
H      -1.8146153076     -0.7929552784     -1.8437370337      0.2453387441      0.4199063818      0.4970575593      0.1224512026
H      -2.8147454864      1.5975654977      1.1181811129      0.5391153032     -0.2970604437     -0.2287924497      0.1246036984
H      -2.1956969205      0.1445509973      1.9593152413      0.4301067805      0.1137007003     -0.5828223591      0.1674088077
H      -0.0583750360     -0.5243727900      1.3122151396     -0.2422634997      0.0802347903     -0.2044388432      0.1890282025
H      -0.0022693730      1.2597722317      1.2809964985     -0.4061312883     -0.2362643835     -0.2717108171      0.1428315855
H      -2.8370226360     -2.2702142876      0.5383191190     -0.0595005371      0.1804468943     -0.3222591200      0.1182568251
H      -3.6912693908     -1.8582225190     -1.0090339010      0.3109132025     -0.0192618589      0.2805816784      0.0889869269
H      -4.3081572182      0.2838658406     -0.2130863217     -0.0022916558     -0.1372904174      0.2626045587      0.0868718777
H      -4.3181112669     -0.6287853046      1.3598729185      0.1329468327      0.3121687059     -0.3054823882      0.1064119896
H      -0.8361749702      1.3601706908     -1.8797235070     -0.1536480892     -0.1518395929      0.5031066817      0.1204981789
H      -2.5457540764      1.6156546603     -1.4257003760      0.2743314284     -0.2729082449      0.3362510512      0.1087527768
H      -1.2446754869      2.4728228152     -0.5217386476     -0.0586814405     -0.5331811260      0.0257815181      0.1051139820
H       0.9396677905     -0.4167709609     -1.1402242473      0.0043937442      0.1438197516      0.1174857369      0.0988915095
H       1.2473385124      1.3211160629     -0.7791550240     -0.0412944061     -0.2624713005     -0.0435112359      0.0939427509
H       2.2694826641     -1.0934435829      0.8411283337     -0.0372370731      0.3128280704      0.2413379809      0.2001495190
H       2.5308623376      0.6372243130      1.2859577131     -0.0334525513     -0.3139061183     -0.0916474800      0.0997736805
H       3.7386916569      1.0072162906     -0.8850538660     -0.0849572524     -0.2064432743     -0.0734265341      0.0678126681
H       3.4689169951     -0.7208090242     -1.3316735737     -0.0423582474      0.2244207016      0.0875073658      0.0750761889
H       5.0457471661      0.2806482892      1.1295931965      0.0065586752     -0.2985033614     -0.1873669018      0.0418718237
H       5.7487410144     -0.3640198148     -0.4027535929     -0.1350201059     -0.0430112152      0.2798545287      0.0302868560
H       4.7842187200     -1.4505123819      0.6654856851      0.0698933891      0.3366070289     -0.0023755372      0.1042051326
C       3.1347931348     -3.7183939747      2.3880927608      0.4611075244     -0.6321510233     -1.0748498000     -0.2242619340
C       2.4503448401     -2.9010510987      3.4376415018      0.6866288446     -0.3172633623      0.3813962973      0.8597242378
O       2.9226795324     -2.8330274235      4.5606648485      2.5929003518     -0.7125441028      2.9050594626     -0.7625744227
O       1.4192219405     -2.3020083289      3.1774811660     -4.1625186076      2.0781841636     -2.7446281336     -0.8251623848
H       4.1577833855     -3.3236750497      2.2168563030     -0.1515429199     -0.2451038370      0.0601767796      0.0430448597
H       3.2049294852     -4.7741567323      2.7243513496      0.1520234092      0.2456850674     -0.1372717584      0.0450897467
H       2.5705771110     -3.6827365948      1.4316166838      0.1985493714     -0.0992781560      0.1692058739     -0.0100135304
