40
Properties=species:S:1:pos:R:3:forces:R:3:charge:R:1 energy=-221.97436715723114 homo_lumo=3.4814355314386045 dipole="0.2979400852004993 -1.937797617892387 0.2583814834180756" free_energy=-221.97436715723114
N      -1.7868814979      0.1366212399     -0.4898828946     -0.0031541921     -0.0068154755      0.0000621305     -0.5072458710
C      -1.9487684620     -1.3574050017     -0.3896248080      0.0092304598     -0.0074540159     -0.0157179655      0.0161840511
C      -3.0132080552      0.6674472458      0.2374503265     -0.0043864218      0.0082697857      0.0009644325     -0.0382736588
C      -0.5357939407      0.6610692840      0.1800046261     -0.0159333755      0.0176746425      0.0104537693     -0.0345495562
C      -3.4362935154     -1.5962748596     -0.6419443664     -0.0085113107     -0.0056542887      0.0005758808     -0.1415247704
C      -4.1354279014     -0.3020123261     -0.1415881967      0.0020225373     -0.0079105722      0.0067854298     -0.1563807877
C      -1.8345933403      0.5967700458     -1.9224381299      0.0222289018      0.0013278788      0.0081178121      0.0248204770
C       0.7622530925      0.1925775391     -0.4510897088      0.0062485869     -0.0129466366     -0.0167485050     -0.1989616335
C       1.9533484955      0.7634535294      0.3224969132      0.0011601380      0.0013159377      0.0058220618     -0.1618558759
C       3.2957397814      0.3518680721     -0.2788797942      0.0028725268      0.0052081314     -0.0009204959     -0.2050418027
C       4.4862203060      0.9206421417      0.4887016341     -0.0010728556     -0.0018042397      0.0010617091     -0.0661636927
H      -1.6643849487     -1.6300128141      0.6388045995     -0.0027936637      0.0031030877      0.0078406101      0.1191255281
H      -1.2752064644     -1.8573594912     -1.0980119649     -0.0059888350      0.0139297296     -0.0010077960      0.1068428616
H      -3.1735518428      1.7262934866     -0.0968892150     -0.0032264785     -0.0047210236      0.0001663058      0.2403565491
H      -2.7698558381      0.6162276493      1.3094877847     -0.0029195133     -0.0139405637      0.0003915339      0.0891606762
H      -0.6023117128      0.3367763324      1.2320087596     -0.0028223224      0.0061682147     -0.0155617249      0.0832023962
H      -0.6336170554      1.7639647344      0.0997974555     -0.0057998914     -0.0119016782      0.0002934861      0.2251734978
H      -3.7776355738     -2.4989302753     -0.1152662907      0.0060961240      0.0042749813      0.0101340127      0.0890923568
H      -3.6251931532     -1.7556606584     -1.7141085725      0.0028188859     -0.0040789831      0.0028194012      0.0874103130
H      -4.7737675135      0.1308198712     -0.9260234715     -0.0002259955      0.0051120665     -0.0055093211      0.0905782082
H      -4.7797463244     -0.4933248079      0.7286693238      0.0070394634     -0.0007576487     -0.0017222241      0.0943012742
H      -1.0956714593      0.0252725059     -2.4977053743     -0.0118025216      0.0053586324      0.0040987673      0.0478672884
H      -2.8431708752      0.4248429491     -2.3132558030      0.0027511799     -0.0006562694     -0.0050591686      0.0954417421
H      -1.6089530260      1.6808699927     -1.8989138397     -0.0019017017      0.0010339083      0.0021324236      0.1900579633
H       0.8333792417     -0.9109330789     -0.4676999188     -0.0037359022      0.0145101025      0.0017853724      0.0819457747
H       0.8244625990      0.5509795260     -1.4922436365     -0.0038608428     -0.0102359517      0.0093445915      0.1166205764
H       1.9072098255      0.4303192261      1.3768381212     -0.0009995154      0.0052063115     -0.0113750212      0.0825394557
H       1.8737937057      1.8656660721      0.3339801017      0.0021015556     -0.0084973857     -0.0003304573      0.1154233109
H       3.3381373826      0.6900602087     -1.3304019959     -0.0043756149     -0.0021597032      0.0030582372      0.0890927300
H       3.3634285427     -0.7515334653     -0.3027101699     -0.0082105849     -0.0026130358     -0.0006531843      0.0788261688
H       4.4577843747      2.0217649301      0.4996293922     -0.0036250002      0.0055023661     -0.0037806102      0.0410857970
H       5.4385639010      0.6112655935      0.0329904690      0.0187627118      0.0035761716      0.0024227742      0.0378787461
H       4.4843597238      0.5756439314      1.5353475333     -0.0050788038     -0.0010886965     -0.0009329430      0.0324522426
C      -2.3154583818      5.4648152013     -1.0097153871     -0.0028865410     -0.0022187296     -0.0018540823     -0.0953594668
C      -2.2641681313      3.9348999571     -0.9404948158      0.0031920957     -0.0120942330      0.0037985262      0.9003860339
O      -3.3813677220      3.3346184920     -0.9174638730      0.0082093183      0.0037334866      0.0140234827     -0.8233798182
O      -1.1107052101      3.3902346851     -0.9278078497     -0.0053226781     -0.0013133244     -0.0054757519     -0.8502209411
H      -2.7155405143      5.7668755707     -1.9901982728      0.0021231498      0.0037579464     -0.0014845372      0.0406630062
H      -3.0101761248      5.8478040636     -0.2473953596      0.0024931260      0.0087040060     -0.0047129856      0.0362670824
H      -1.3204268066      5.9082886642     -0.8738617824      0.0092838011      0.0010950678     -0.0033059767      0.0261617672
