68
Properties=species:S:1:pos:R:3:forces:R:3:charge:R:1 energy=-368.9581732248224 homo_lumo=5.615331643441182 dipole="-2.069865137692468 -1.9059827092997572 -0.9240253942680664" free_energy=-368.9581732248224
N       0.5910092712      0.0340193078      0.0024520438     -0.0801022461     -0.0823789612     -0.0952473795     -0.4855112251
C       1.2787107147     -1.1088664115      0.7071808037      0.4807128147      0.0741129426      0.4153596905     -0.0337230470
C      -0.0580131997      0.9172223064      1.0392186725     -0.2613288768      0.4479426467     -0.1433080369     -0.0791886448
C      -0.4214717852     -0.5347875009     -0.9535232951     -0.4713906722     -0.2911766386      0.2700730342     -0.0302603806
C       1.5688643558      0.8687214410     -0.7894298631      0.4790270697     -0.2589540350     -0.3351571962     -0.1086406979
C       2.4406507530     -0.7127443540      1.6129528982     -0.3255370413     -0.5638304819     -0.2020321550     -0.2551618740
C      -0.8948070930      2.0663393285      0.4819954770      0.1612515534     -0.2532883271      0.5345526763     -0.2249888030
C      -1.6004316101     -1.2629287161     -0.3109343394      0.2065185060      0.1222068291     -0.6082978685     -0.2081354122
C       2.4960730763      0.1009650893     -1.7268767443     -0.2527916270      0.4735150831      0.1055044099     -0.2141595822
C       3.0119736148     -1.9588639728      2.2984972712      0.0967303027      0.5385796114     -0.0010008096     -0.1913981448
C      -1.5499973544      2.8219916680      1.6462931102     -0.0152289376      0.1513303702     -0.5059411547     -0.2102153551
C      -2.5213376922     -1.8003478676     -1.4144234264     -0.0593208704     -0.0555907224      0.6199686551     -0.1958869020
C       3.2351742677      1.1114870861     -2.6162245601      0.0966904155     -0.5631631277      0.0548630578     -0.2179904195
C       4.2221947633     -1.5823980801      3.1511336015     -0.2937837560     -0.2507123530     -0.2054231311     -0.0530674333
C      -2.3261023174      4.0341809307      1.1383002198      0.1621948643     -0.3568201030      0.2179872118     -0.0485214852
C      -3.7225409779     -2.5308812778     -0.8185117854      0.3107768038      0.1873193114     -0.2988779423     -0.0481501566
C       4.3116880346      0.4198936163     -3.4480035917     -0.2937801015      0.2783284099      0.1828102834     -0.0439932026
H       1.6289929446     -1.7953262990     -0.0677479363      0.0433060702     -0.1379991986     -0.2193256561      0.1240657253
H       0.5132340364     -1.6190877435      1.2970620828     -0.2007775137     -0.0760278345      0.0562415469      0.1422065770
H       0.7455824746      1.3314548295      1.6503032396      0.1501871877      0.0589817507      0.0941500543      0.2570809698
H      -0.6723365273      0.2729465090      1.6726180570     -0.1225430307     -0.2060942636      0.1271083197      0.1097120441
H       0.1157209026     -1.2256129361     -1.6073499298      0.1460477532     -0.0743657357     -0.1154909107      0.1552995928
H      -0.7891756226      0.2926506693     -1.5645393212     -0.0181110770      0.1886552538     -0.1159783428      0.1340788659
H       2.1651610027      1.4249403712     -0.0620976172      0.0012277979      0.0266568583      0.1344374856      0.2748452760
H       0.9738270927      1.5812265309     -1.3640198831     -0.1863609723      0.1002055339     -0.0710478349      0.1378617309
H       2.1161159480     -0.0015293858      2.3750101954     -0.0050418591      0.1923336204      0.1637014299      0.1309777963
H       3.2327332446     -0.2420547670      1.0314949836      0.1610979806      0.1496556881     -0.0612058796      0.2279119154
H      -1.6739933447      1.6989284670     -0.1915532028     -0.2507710932     -0.0750554934     -0.2013699218      0.0902038388
H      -0.2602579788      2.7582924730     -0.0758414053      0.1063232432      0.1674835051     -0.1112686104      0.1449464214
H      -2.1710577181     -0.5862449531      0.3292650545     -0.1577021391      0.1741757825      0.1900318199      0.1207757552
H      -1.2519581029     -2.0979861073      0.3020311873      0.0471890921     -0.2186288253      0.1643352373      0.1083167971
H       1.9396163339     -0.5992641379     -2.3570298384     -0.1077573832     -0.1907081981     -0.2392305268      0.0793042883
H       3.2316645753     -0.4649440127     -1.1509036860      0.2085777537     -0.1175827087      0.1370256744      0.1312909595
H       3.3107394575     -2.6894402544      1.5388831440      0.0531810859     -0.2482000775     -0.1891184058      0.0716514396
H       2.2432912045     -2.4220979648      2.9269713791     -0.2006608070     -0.1932007853      0.1362550716      0.0630309707
H      -0.7748151477      3.1538433732      2.3416192336      0.1888736719      0.0027867326      0.1616258971      0.1546289321
H      -2.2242819974      2.1472416141      2.1845610943     -0.1653001230     -0.1956917758      0.1735726453      0.0653963767
H      -1.9579713682     -2.4844020455     -2.0574827040      0.1479277479     -0.1355017990     -0.2191984897      0.0863085209
H      -2.8696202678     -0.9672301749     -2.0335747409     -0.0490612099      0.1992541946     -0.2122659603      0.0909995997
H       3.7014970412      1.8735163906     -1.9867304606      0.0705215754      0.2017732174      0.1096218707      0.1720275316
H       2.5160315557      1.6094962180     -3.2753120281     -0.2044851678      0.1689538788     -0.1457286514      0.0605891775
H       3.9371178359     -0.8649793573      3.9210492919     -0.0291414259      0.2378402603      0.2374353268      0.0388893563
H       4.9977487953     -1.1337877806      2.5300884400      0.2388924685      0.1688676685     -0.1447029137      0.0597173519
H       4.6289013187     -2.4708858534      3.6335888047      0.2004925787     -0.2295658441      0.2085656467      0.0266677646
H      -3.1063836753      3.7294210890      0.4389208096     -0.2737709877     -0.0306722446     -0.2268447452      0.0135649801
H      -1.6545186811      4.7283499698      0.6324690737      0.1663545665      0.2354264500     -0.1458407282      0.0443454927
H      -2.7917528240      4.5509268596      1.9770591443     -0.1905704201      0.2451110712      0.1905362020      0.0330327336
H      -4.3058316425     -1.8575860444     -0.1895053624     -0.2167968313      0.1643054507      0.2038504986      0.0349995233
H      -3.3942866979     -3.3764384663     -0.2130772476      0.0444120606     -0.2720627117      0.1941935766      0.0337843318
H      -4.3628244567     -2.9027094950     -1.6179213416     -0.2781762697     -0.1675115322     -0.1645467445      0.0425125528
H       3.8752201031     -0.3532794452     -4.0826086281     -0.0919562717     -0.2504906135     -0.2282338474      0.0118330010
H       5.0539283052     -0.0401231187     -2.7950929975      0.2484719361     -0.1230557565      0.1844564772      0.0437064527
H       4.8123778148      1.1510052824     -4.0821199672      0.2271148035      0.1426609493     -0.2354573843      0.0334577835
N       3.3128061997      2.2074723541      1.5009448839      0.2882526460      0.3506096643     -0.0007317886     -0.9077393697
S       4.7052433834      2.2924014989      0.6945388870     -0.2684332981     -0.4277189596     -0.0503694052      1.6136236480
S       2.7170888212      3.5633673459      2.1154777463     -0.2063839393     -0.2634382038      0.2910381499      1.6529603127
C       6.0894236484      2.5436240721      1.9349324581     -0.8140490179     -0.0874313818     -0.3935982082      1.2151714148
C       2.1263573884      4.6267648352      0.6803309121      0.3064438824     -0.7022383231      0.4299414361      1.2090646319
O       4.9253022716      0.9546179421      0.1844987318      0.3239698117     -1.0619730181     -0.1996184226     -0.7860344648
O       4.7906670624      3.3887222061     -0.2398292815      0.2058301957      0.9614305716     -0.5112291262     -0.7423929459
O       3.6463466401      4.3783203507      2.8495625693      0.8138241330      0.7479480402      0.3722821430     -0.7258844978
O       1.4793567717      3.1715456087      2.7556820475     -1.0133525345     -0.3068654831      0.3827211205     -0.7880439907
F       7.1686315986      1.9182291405      1.4923965895      1.1969313417     -0.6587906964     -0.5677308706     -0.4359792308
F       5.7393507012      2.0156345941      3.0973200494     -0.3287969998     -0.5677129659      1.2899031755     -0.4390565136
F       6.3643370072      3.8196163312      2.0916068572      0.3290747644      1.3909247505      0.1494488468     -0.4238300903
F       0.9907192237      5.2212380144      1.0248802142     -1.1469400276      0.7196823234      0.4258619445     -0.4517843885
F       1.8630843263      3.8399227946     -0.3699802817     -0.2435012550     -0.5548536685     -1.1121606274     -0.4695457796
F       2.9999945667      5.5400810635      0.3275424577      0.9152773048      0.9802944276     -0.3318809395     -0.4215583972
