22
Properties=species:S:1:pos:R:3:forces:R:3:charge:R:1 energy=-115.6949816509886 homo_lumo=3.5029468401024784 dipole="-1.1033826402035125 1.9977763148248644 -0.3689641568172792" free_energy=-115.6949816509886
N       0.4839216679     -0.0803606880      0.0809767029      0.3566982947      0.1536955400      0.1261309093     -0.5559717229
C      -0.2850515350      1.1818185734     -0.1333950079     -0.4077582840      0.1003108549     -0.1051546922      0.0472739356
C      -0.5028979478     -0.9943997115      0.7390220510     -0.7912612995     -0.1654891571     -0.0215391369      0.0294079837
C      -1.6968134235      0.7276363534     -0.5052630197      0.0443088603      0.0888046083     -0.0442698932     -0.1412086778
C      -1.8258808000     -0.7056331298      0.0409698173      0.1603023625      0.1194510290      0.0567888450     -0.1408946846
C       1.6722392284      0.1271640777      0.9471332728      0.1976230995      0.2649828162      0.1023623999      0.0897941452
C       0.9324327904     -0.6485228944     -1.2209652292     -0.0738263139      0.0992337770     -0.3537962685      0.0871154708
H       0.2009930063      1.7797667961     -0.9048673486      0.1973032468      0.1550363703     -0.1232184722      0.1022907798
H      -0.2844191859      1.7360632462      0.8082033564      0.0686390246      0.0525545507      0.2349189578      0.1157261212
H      -0.5466833469     -0.7221667364      1.7958444647      0.0971905716      0.1156367247      0.2273065448      0.1068517366
H      -0.1417981920     -2.0223458396      0.6457099398      0.3842924239     -0.3234590161      0.1035773838      0.1607696420
H      -1.8354331307      0.7438116021     -1.5881948523     -0.0824060261      0.0665237604     -0.2520806847      0.0814260007
H      -2.4355404498      1.3958369310     -0.0595513917     -0.1668641414      0.2216686238      0.0229111489      0.0903484773
H      -2.6523903182     -0.7912613227      0.7482382553     -0.2019062801     -0.1141926627      0.1310389931      0.0917091186
H      -2.0008790987     -1.4130380598     -0.7715973369     -0.0763721423     -0.2133852665     -0.1617634175      0.0829378593
H       2.3634706559      0.7993496144      0.4421089948      0.1552063563      0.2458081495     -0.1874277301      0.0509310237
H       1.3537237445      0.5574436255      1.8946691490     -0.1826265390      0.1548212689      0.2316137973      0.0381823177
H       2.1312676040     -0.8533396735      1.1072472863      0.1188498243     -0.5192279713     -0.0089598650      0.1414641304
H       0.0672611258     -0.8192537487     -1.8568620620     -0.2921424978      0.0069105383     -0.1707944387      0.0696751909
H       1.6130067729      0.0567022959     -1.6939139765      0.1506352441      0.2912996870     -0.0974751987      0.0446325982
H       1.4405648822     -1.5931843453     -1.0069326194      0.1906107244     -0.4701685317      0.2538472462      0.1354264210
Cl      1.8905421367     -3.0595820704      0.6315462016      0.1535034911     -0.3308156934      0.0359835718     -0.7278878674
