48
Properties=species:S:1:pos:R:3:forces:R:3:charge:R:1 energy=-262.4844905447756 homo_lumo=3.505534828931619 dipole="-1.6166211690701315 -0.8577111237983098 -1.0616477465216423" free_energy=-262.4844905447756
N       0.3869388142      0.5753654628     -0.4670100243      0.0029469952      0.0043142860      0.0012845455     -0.4873078349
C      -0.0624000479      1.0583783077      0.9092246754      0.0066275098     -0.0122811343      0.0040403474     -0.0897341871
C      -0.5519111544     -0.4616526211     -1.0422382272      0.0033612584      0.0042872279     -0.0020338036     -0.0315453582
C       1.7745469667     -0.0333227538     -0.3044907477     -0.0049742329     -0.0011741865     -0.0057987242     -0.1159491734
C       0.4259392501      1.7804761665     -1.3976318299     -0.0086131116     -0.0044317105      0.0014667989     -0.0214142984
C      -0.4315327377     -0.0310343068      1.9052374400      0.0005912573      0.0152905526     -0.0004536816     -0.2448075871
C      -2.0098947840     -0.0510341738     -1.1887410763      0.0005703732     -0.0008950894      0.0091355422     -0.2441031690
C       2.4097381278     -0.6192884792     -1.5546539147      0.0064411186      0.0116232609      0.0001482237     -0.2552730249
C       1.3907076576      2.9041767833     -1.0046442928     -0.0073049548      0.0095334402      0.0038192279     -0.2536778430
C      -0.4855681980      0.5935924679      3.3031300270     -0.0018512871      0.0027989522      0.0020827883     -0.0719955058
C      -2.8272795509     -1.2310191045     -1.7173926051      0.0074125824     -0.0059096067      0.0042139402     -0.0653498613
C       3.8494422160     -1.0123167787     -1.2033551258      0.0037528477     -0.0008192422     -0.0024973308     -0.0704071206
C       2.6549507928      2.9688490985     -1.8580253980      0.0132817235      0.0124399948     -0.0029131575     -0.1000379674
H      -0.9099325055      1.7407033018      0.7409308195     -0.0157731590     -0.0033876229      0.0005251132      0.0958607574
H       0.8019217896      1.6310564899      1.3168042003      0.0068072766     -0.0018901445     -0.0037485117      0.2745586829
H      -0.4687726032     -1.3420904758     -0.3864803697      0.0038135842      0.0000944032      0.0030387654      0.1457063105
H      -0.1415221158     -0.7384992925     -2.0237456710      0.0017647100     -0.0001855832     -0.0031488226      0.1527599613
H       1.6670134379     -0.8179332792      0.4581134451     -0.0054447806      0.0035527905     -0.0076397307      0.1375147644
H       2.4369993741      0.7568165186      0.1197081095      0.0045210813      0.0056698085      0.0022150765      0.2897985676
H      -0.6079413701      2.1495879799     -1.4140234595      0.0030283566     -0.0051993140      0.0036621075      0.1362452218
H       0.6554145221      1.3847384238     -2.3991478300     -0.0012091614     -0.0008595678      0.0027684736      0.1165858460
H      -1.3958105445     -0.5100438402      1.6592950477      0.0110139467     -0.0107104430     -0.0024723819      0.0813907700
H       0.3359816438     -0.8216435180      1.9120564153      0.0076618339     -0.0047145442      0.0095923379      0.1073460760
H      -2.4179276181      0.2776405617     -0.2198245819      0.0008864935      0.0033560614      0.0007836863      0.1200850652
H      -2.1068194697      0.7932567943     -1.8892557792      0.0033919429      0.0054481894      0.0044762456      0.1032908667
H       1.8638025217     -1.5024844368     -1.9279440283     -0.0077065450     -0.0050792298     -0.0103944094      0.0706590315
H       2.4303813652      0.1266517089     -2.3663068035      0.0089986351     -0.0056602384     -0.0024042425      0.1137250960
H       0.8321314398      3.8515604929     -1.1005931181      0.0117553807     -0.0098401721     -0.0010785273      0.0679739423
H       1.6824625285      2.8250758518      0.0579362826      0.0053283562      0.0084168319      0.0060657638      0.2029113424
H      -0.7261476796     -0.1650775047      4.0623176086     -0.0084583476      0.0014620271     -0.0067253232      0.0279291256
H       0.4883602574      1.0502991960      3.5400462509     -0.0107631267      0.0086218780      0.0046045019      0.0924504589
H      -1.2508289033      1.3846662317      3.3564884312     -0.0087050716     -0.0091562774     -0.0084267784      0.0283444107
H      -3.8832858357     -0.9509821109     -1.8411247030      0.0015159415      0.0041669250      0.0050495616      0.0511821252
H      -2.4514740808     -1.5663108614     -2.6970860778     -0.0003046713     -0.0005153802      0.0054887788      0.0406884993
H      -2.7835486392     -2.0882813466     -1.0273040447      0.0034902512      0.0041363996      0.0048273041      0.0438910701
H       4.3834138557     -1.3849182346     -2.0894876639     -0.0084222402      0.0013675005     -0.0062732475      0.0237308870
H       4.3870854782     -0.1483450365     -0.7841560114      0.0105750744     -0.0079640116     -0.0044114537      0.0983458267
H       3.8606232458     -1.8062858327     -0.4390829466     -0.0031098857     -0.0064148127     -0.0122617627      0.0293802438
H       3.2228580135      3.8785316839     -1.6111872251     -0.0015446201     -0.0082984494     -0.0007736427      0.0545655306
H       3.3219373906      2.1251768846     -1.6376040576      0.0013128095     -0.0049183858     -0.0038697131      0.1067303946
H       2.4180872958      2.9952244010     -2.9355279997      0.0045121914     -0.0107086756      0.0076482380      0.0003511262
C       4.5696639034      2.4650096837      2.9496514569     -0.0122892428      0.0013142058     -0.0062622872     -0.0956103847
C       3.5209749632      2.1385066927      1.8798966152      0.0115911714      0.0084569704      0.0106753786      0.9224406905
O       3.9404529543      1.7063928216      0.7646880372      0.0045948805     -0.0061444763     -0.0099613449     -0.8400612124
O       2.3048855009      2.3304973152      2.2056954338     -0.0241012501      0.0077319043      0.0013519269     -0.8517760930
H       5.5879171704      2.3221649219      2.5644092178     -0.0034467815      0.0019622572      0.0034023022      0.0298397509
H       4.4409652820      3.5025091845      3.2923047925     -0.0070787578      0.0090709957      0.0007138393      0.0381640800
H       4.4162034340      1.8178687767      3.8272154310     -0.0104483556     -0.0079585646      0.0004680618      0.0346040991
