39
Properties=species:S:1:pos:R:3:forces:R:3:charge:R:1 energy=-220.27662688621967 homo_lumo=0.021682532694535378 dipole="-0.7801213929953628 1.9058012394235357 5.208641847380567" free_energy=-220.27662688621967
N       1.1109240104      0.0002654790      0.5400417421      0.5767596606     -0.0195333086      0.2322333659     -0.5271770475
C      -1.2511861593      0.0041493044     -0.1477412840     -0.0959662417     -0.0197879268      0.0734088335     -0.2052100831
C      -0.2727136523     -0.0110796225      1.0305927256     -0.8704776764      0.0078790355      0.1067520506     -0.0162548016
C      -2.7042611391     -0.0034944314      0.3397917032      0.0412606102      0.0097250878     -0.0310675354     -0.2251352457
C      -3.6772917361      0.0118422880     -0.8352656964     -0.1874986955     -0.0087166039     -0.0410378745     -0.0916341991
C       1.7312743193      1.1930862767      0.2853965043      0.9622777933     -0.2972130510     -0.4120771901      0.2482916160
C       1.7636188806     -1.1816778925      0.3184358552      0.9913199190      0.3395923201     -0.4108712560      0.2533413569
C       3.0404476934      1.2220042323     -0.2014916201     -0.7299100066     -0.5828789059      0.2495638899      0.0002324836
C       3.0756618840     -1.1878840106     -0.1606950041     -0.7205327472      0.5355129457      0.2191415538     -0.0027242140
C       3.7142129648      0.0224565532     -0.4253063689     -0.1687309181     -0.0064338860      0.0858550764      0.0569156496
H      -1.0683247472     -0.8897761309     -0.7839722067      0.0147341510      0.2813647370      0.0393457606      0.1390299534
H      -1.0705938268      0.9147824249     -0.7602380891      0.0113827372     -0.2697370719      0.0379208628      0.1289773484
H      -0.4525499245     -0.9149429534      1.6551236971      0.3480803425      0.2597842916     -0.2307925799      0.1304861311
H      -0.4542717115      0.8718148093      1.6838751163      0.3299188197     -0.2391003177     -0.2341711866      0.1279266471
H      -2.8912394964     -0.9140168910      0.9500813823      0.0820993933      0.2494815855     -0.0080439577      0.0985767059
H      -2.8923030171      0.8901000885      0.9743053867      0.0820800651     -0.2446878611     -0.0066421243      0.0956024147
H      -4.7205904361      0.0069704961     -0.4552390883      0.2659765024      0.0050113209     -0.2343965680      0.0608870959
H      -3.5265229034      0.9259522700     -1.4482280965     -0.1065094379     -0.3157615300      0.0833154189      0.0551491489
H      -3.5265047955     -0.8859435386     -1.4718851076     -0.1062111825      0.3231355334      0.0916758028      0.0623402071
H       1.2120089014      2.1298032785      0.4503376481     -0.4624990350     -0.1064079847      0.1906153042      0.1088123725
H       1.2679978495     -2.1276805575      0.5018315245     -0.4627394361      0.0937011676      0.1792645594      0.1135727280
H       3.5249863810      2.1670979340     -0.4096478468     -0.0111655950      0.2973321026     -0.0186731024      0.0750917112
H       3.5861966630     -2.1248982359     -0.3414980117     -0.0104345606     -0.2827977834     -0.0246319993      0.0842621851
H       4.7239490765      0.0302739315     -0.8146875102      0.2786015198     -0.0082520339     -0.1329019853      0.0822144590
N       2.7756303587     -2.9976687246     -5.9857895764      0.2044716359      0.0618165445      0.2718768256     -0.8520797947
S       1.6041900343     -3.3843606646     -7.0645593634     -4.7101445009     -0.7528079476      5.0461432454      1.5722303536
S       2.9442018101     -1.4884038986     -5.3692391260      3.1598251594      1.9235607900     -6.4900452192      1.5714391236
C       2.2492269508     -3.2082282474     -8.7148997177      1.0622155203      0.4247231903     -1.9042689393      1.1609140608
C       2.1255866654     -1.4103309964     -3.7915485585     -1.1443170406     -0.2746458823      0.9762246811      1.1580916868
O       1.1901189619     -4.8127815999     -6.8535489906      1.7203668742      1.4938572817     -1.0471488863     -0.7133083307
O       0.4108693706     -2.4851380527     -6.8952883724      1.6721501228     -0.5711325353     -1.2395393285     -0.7135670976
O       2.3461762356     -0.4646779805     -6.2941285254     -0.1705458747     -1.0568321958      2.1921795231     -0.7131436087
O       4.4044723109     -1.1959326888     -5.1728674984     -1.9797604679     -1.0858081464      1.2944338994     -0.7267931598
F       1.2736718067     -3.5511725346     -9.6316596766      0.9753735199      0.3134756518      0.7029762483     -0.4260393345
F       3.3411612759     -4.0398358916     -8.8758835820     -0.8099644976      0.7200697844     -0.1664814186     -0.4285354631
F       2.6365385191     -1.8991296332     -8.9273279961     -0.2865956429     -1.2726731966     -0.0993008912     -0.4213905218
F       2.2907455393     -0.1508318291     -3.2477086158     -0.2848258981     -0.8986599147      0.0103558653     -0.4478212336
F       2.6729337487     -2.3547385564     -2.9452322689     -0.5671566701      0.6559994456     -0.0023450031     -0.4493388482
F       0.7773982927     -1.6663900029     -3.9502717502      1.1070917789      0.3178452676      0.6511542788     -0.4242324553
