31
Properties=species:S:1:pos:R:3:forces:R:3:charge:R:1 energy=-175.28612373446356 homo_lumo=0.7657738192716159 dipole="1.322247133898831 1.79036618004115 0.44014726274234767" free_energy=-175.28612373446356
N       2.3572347735      0.0253682311     -0.4485773327     -0.1547564581      0.2380350439     -0.3104944707     -0.5076872754
C      -1.4316597399      0.0153755772     -0.6148836122      0.1956848942      0.1033005107      0.7167157405     -0.1595725789
C      -0.0432922170      0.1389168102      0.0175175247     -0.1282956865     -0.0196822861     -0.6613034788     -0.1661430674
C      -2.5225187159      0.0605456509      0.4581827415     -0.1340567377     -0.0503249657     -0.8323932302     -0.1557043265
C       1.0308408874      0.0980933792     -1.0730688369     -0.4059456225      0.2350125848      0.3933425540      0.0035367588
C      -3.9122683313     -0.1061017221     -0.1636386989      0.0839415439      0.0974834423      0.7022735733     -0.1964526569
C      -5.0067413208     -0.0686091551      0.9014749290      0.1730363273     -0.0230329894     -0.4175945573     -0.0425349411
C       2.7900589882     -1.1625520718     -0.0006317721      0.3744309481     -0.4372259512      0.2788258701      0.2550391480
C       3.0846163328      1.1422780449     -0.2906007031      0.4476928777      0.3414172670      0.1263177980      0.2791226367
C       4.0156146395     -1.2591024175      0.6298068811      0.1342958874      0.2746324579      0.0072960724     -0.0237646122
C       4.3112107998      1.0935463220      0.3356548783     -0.0427862106      0.0717789723     -0.0362820674     -0.0322233187
C       4.7914204423     -0.1241423141      0.8066255404     -0.0413752344     -0.0685376715     -0.0057749673      0.0302672768
H      -1.4867775705     -0.9355563100     -1.1532211527      0.0720956858     -0.2794293601     -0.1229515228      0.1298692084
H      -1.5849713245      0.8267256161     -1.3352848729     -0.0861309897      0.2396956109     -0.2067636526      0.0596356110
H       0.0439411434      1.0684330914      0.5906230143      0.0267260892      0.3221592817      0.1557815873      0.0704533953
H       0.1188772251     -0.7029100066      0.6959427775      0.0334224857     -0.2962348073      0.0968531670      0.1262153707
H      -2.3493638743     -0.7412021189      1.1835325041      0.0637629577     -0.2139071356      0.1984775354      0.0935577644
H      -2.4716931173      1.0151012244      0.9950170410     -0.0129504415      0.2385407941      0.1977906689      0.0668800997
H       0.9927906050      0.9876198389     -1.7060644338      0.1093701200      0.2670123454     -0.0969725221      0.0780610943
H       0.8981938965     -0.8059748888     -1.6760367628     -0.0343578634     -0.4392231010     -0.0752259783      0.1474495535
H      -4.0849805262      0.6942351543     -0.8917976285     -0.0154165709      0.1609093590     -0.2362521687      0.0735531502
H      -3.9576763386     -1.0604268770     -0.6981133467      0.0354164618     -0.2150147148     -0.1979815159      0.0907959980
H      -4.9911236684      0.8836245647      1.4344653356     -0.0325868570      0.2680570655      0.1976967509      0.0204087263
H      -5.9856243348     -0.1900816490      0.4366404148     -0.3742667572     -0.0343808352     -0.0265879592      0.0265387612
H      -4.8636471591     -0.8728648921      1.6245294905      0.0077518540     -0.2275504319      0.2416550673      0.0289490748
H       2.1194412881     -2.0200302561     -0.1877039466     -0.4484875096     -0.3053351870     -0.1415762542      0.1637990375
H       2.6682389521      2.0648945234     -0.6771036537     -0.1500675511      0.1081154218     -0.0810248500      0.0816352013
H       4.3524826802     -2.2269644816      0.9783766899      0.0324670280     -0.2920950453      0.0605270251      0.0462416701
H       4.8855696548      2.0037248087      0.4524644717      0.1107563289      0.2344990527      0.0058317005      0.0464075334
H       5.7543185498     -0.1786963367      1.3000918062      0.2484675083     -0.0090388312      0.1405889417      0.0446149432
Cl      0.4948542739     -3.0045553893     -0.8823486990     -0.0878385080     -0.2896358970     -0.0707948572     -0.6789492368
