31
Properties=species:S:1:pos:R:3:forces:R:3:charge:R:1 energy=-174.51357752159575 homo_lumo=0.1695937299488009 dipole="-1.390640642387413 2.294657931832414 1.2734948211974584" free_energy=-174.51357752159575
N       2.3667708453      0.0615755207     -0.4828910764      0.3031809390     -0.1025530111     -0.1910632908     -0.5318678107
C      -1.4512118141      0.0284641933     -0.7021181545      0.1940485300     -0.0210247937      0.3044704859     -0.1789110118
C      -0.0568130601      0.0266014786     -0.0645963854     -0.0616461180      0.0114374903     -0.1564514171     -0.1925745095
C      -2.5416254054     -0.0167171824      0.3752188325     -0.0643626449      0.0130679562     -0.4669382998     -0.1673985250
C       1.0469195110      0.0795165423     -1.1267040237     -0.6611701773     -0.0634338811     -0.0966763615     -0.0085640800
C      -3.9396329549     -0.0245011935     -0.2520611514     -0.0192043447     -0.0145046136      0.2744990071     -0.2067748481
C      -5.0216857770     -0.0696115435      0.8233655364     -0.2614409584     -0.0017404539     -0.0771825728     -0.0832669655
C       2.9471054062     -1.1353364329     -0.1626790781      0.8173744954     -0.0737854737      0.2969766564      0.2528055899
C       2.9928250967      1.2393707142     -0.1775766465      1.1476954522      0.0663998946      0.5758210130      0.2275515681
C       4.1874371263     -1.1737798216      0.4782004081     -0.4712331503      0.5122604826     -0.2395615893      0.0115007443
C       4.2335370058      1.2369094500      0.4647515913     -0.9181924302     -0.3611616203     -0.4485294813     -0.0248144238
C       4.8315539677      0.0213432393      0.7952375778     -0.1154536679     -0.1765265247      0.0265568934      0.0304802652
H      -1.5543194979     -0.8567509839     -1.3680106196      0.0034947616      0.2579119545      0.0628024777      0.1004030173
H      -1.5770376172      0.9483760343     -1.3148510360     -0.0031067246     -0.2482948627      0.0353063628      0.0902438504
H       0.0440726955      0.9075015686      0.6069881979      0.0211489535     -0.2480636563     -0.0625945563      0.1086391821
H       0.0675958302     -0.8951395818      0.5451297546      0.0220993037      0.2539113703     -0.0666755692      0.1199058685
H      -2.4112294326     -0.9330877037      0.9926936154     -0.0160709686      0.2539899004     -0.0462342344      0.0942683921
H      -2.4410018593      0.8719422156      1.0370937876     -0.0116677524     -0.2498685783     -0.0483369279      0.0891414186
H       0.9310076860      0.9989649281     -1.7431658215      0.3125624759     -0.2577434904      0.2530671732      0.1173080514
H       0.9500141377     -0.7869090781     -1.8185382572      0.3144391611      0.2219484374      0.2634373185      0.1389118624
H      -4.0799665859      0.8911394583     -0.8671263672      0.0942185379     -0.2539218336      0.0098947971      0.0876137473
H      -4.0497442011     -0.9126067771     -0.9120633326      0.0899233306      0.2625609451      0.0303870802      0.0917487229
H      -4.9477874942      0.8218225384      1.4821487223     -0.0844570366     -0.2935700826     -0.1021925647      0.0389224466
H      -6.0237056208     -0.0757563763      0.3452472130      0.1858654693     -0.0039147155      0.2821819202      0.0467931492
H      -4.9158753373     -0.9886936279      1.4383655071     -0.0952643770      0.2954818381     -0.0899985780      0.0416078096
H       2.4471777293     -2.0681618457     -0.3958098038     -0.2552916961     -0.0264142860     -0.3534030359      0.1090680638
H       2.5286818496      2.1885344344     -0.4193150729     -0.3946159673     -0.1191616323     -0.2656009764      0.0865773050
H       4.6406409677     -2.1233359088      0.7334302632     -0.0470820702     -0.3541291342     -0.1874798047      0.0718842655
H       4.7228817513      2.1705837703      0.7114355927     -0.0115060499      0.2903655738     -0.0365135537      0.0508369312
H       5.7883404008      0.0055146909      1.3010039275      0.2554270160     -0.0160957017      0.1157256572      0.0510019159
Cl      4.4977960641     -3.7612115671     -2.2457538311     -0.2697122919      0.4465725025      0.4043059712     -0.6630419928
