32
Properties=species:S:1:pos:R:3:forces:R:3:charge:R:1 energy=-183.69337842712875 homo_lumo=0.0020155220150674183 dipole="-2.1279609814710803 1.5054965095428 -2.6911369006142234" free_energy=-183.69337842712875
H       0.5060639755     -0.4946285138     -4.9156378303     -0.1898456275     -0.1118632893      0.2701230762      0.0780907379
H      -1.1708690423     -0.6470585992     -4.2591885888      0.4743569755     -0.0749864255      0.1849330455      0.0757753083
H      -0.0389243741     -2.0519995065     -4.1694094143     -0.0280933451      0.3505247529      0.0597130400      0.0831401376
C      -0.1110732927     -0.9456403690     -4.1107143063     -0.1489870831     -0.0912440613     -0.2889180070      0.0725811942
H       2.4753216095     -0.1224944852     -0.3556378073     -0.0478291829     -0.0153145832      0.2800655979      0.0791425333
H       2.4005017993     -1.2290870157     -2.7878087036     -0.0792587005     -0.0688627660     -0.1608330937      0.0516703092
H      -1.3533489268      0.5071897288     -1.9936764591      0.0539645652     -0.0103341042      0.0001779310      0.0734591976
N       0.3700645461     -0.4921739201     -2.8124207181     -0.5787535250      0.0485581128     -0.2762932886     -0.5606525147
C      -0.3216738075      0.1953530033     -1.8834132792     -2.2718657968      0.7297041508     -0.1077350891      0.5186391433
N       0.4305721012      0.4272740661     -0.7900405206     -0.2532149802      0.3378368560     -0.4361229206     -0.5128592806
C       1.6345639212     -0.1285121154     -1.0374584392      1.4785485990     -0.7740850192     -0.5640531978      0.2404074020
C       1.5966272256     -0.6985691996     -2.2938131440      1.6970850747     -0.1409525425      1.0477087794      0.2295870212
C       0.0177942530      1.1203374297      0.4273343880     -0.3034365313     -0.0007377125      0.5632060495     -0.0168128083
H       0.8043382180      1.8498613981      0.7199925711     -0.1525797729     -0.2318559372     -0.2500118764      0.1202869676
H      -0.9219353603      1.6847216417      0.2374259572      0.3746022300     -0.1527573622     -0.2220575421      0.1033972550
C      -0.2163635994      0.1108092552      1.5537687696      0.1104938867      0.0493970800      0.1212371889     -0.2193918161
H       0.7184625260     -0.4621877328      1.7323072480     -0.1574714652     -0.0635907349      0.0223682869      0.1961792593
H      -1.0116157982     -0.6012930899      1.2407683144      0.2287771195      0.0997813567      0.0335333001      0.0972218847
C      -0.6378702121      0.8134940026      2.8482186288      0.0045692667     -0.0684078152     -0.0706503447     -0.2180064974
H       0.1629679542      1.5136081063      3.1715978749     -0.1942696228     -0.0665189816     -0.1356466325      0.0937465122
H      -1.5673278682      1.3977953904      2.6726344917      0.2146398929      0.0398078713     -0.0031856012      0.0725533272
C      -0.8926894981     -0.1956064856      3.9640728680      0.0170517029     -0.0241963395      0.2695998981     -0.0901042962
H       0.0303576360     -0.7754046964      4.1786335453     -0.2721207191      0.0709391854     -0.0909129500      0.0915002623
H      -1.7059462638     -0.8945442266      3.6735812631      0.2475775695      0.1290036063      0.1498092767      0.0323960570
H      -1.1985436350      0.3406902529      4.8870008175      0.0467673879     -0.2482936181     -0.1996748962      0.0385463143
C       4.2586626812     -2.5252865127      4.4988840918      0.5448484057     -0.1914854405      0.9962505337     -0.1937892422
C       3.7400094920     -2.4053961421      3.1008622528      0.7469460491     -0.2197710657      0.7756765409      0.9023359465
O       2.6022243208     -2.0108445987      2.9057725248     -4.4115545847      1.7336885234      0.3875141826     -0.8014627660
O       4.4496909727     -2.7008798015      2.1528312677      3.0724272612     -1.1292070968     -2.3749757921     -0.7398361883
H       4.2524226140     -1.5272258725      4.9853432067     -0.0687957769     -0.3066951049      0.0044202056      0.0317878431
H       3.6122197524     -3.2177580679      5.0781609027      0.1501189425      0.2792438313     -0.0330431886      0.0374984222
H       5.2977610521     -2.9189713771      4.4995881295     -0.3046982149      0.1226746734      0.0477774875      0.0329723734
