60
Properties=species:S:1:pos:R:3:forces:R:3:charge:R:1 energy=-328.08889809328133 homo_lumo=5.259399780227007 dipole="-3.138424104644196 -0.5001276330382837 1.4324867583208163" free_energy=-328.08889809328133
N       1.1716504569      1.2871014803     -0.1378685598      0.0810471663     -0.1485473297      0.0191710862     -0.4950937561
C       1.7584358166      2.1811868341      0.9159182591      0.1202299132      0.3879114310      0.3366382628     -0.0215613301
C       1.0103012422      2.2018716744     -1.3150968092     -0.1592881944      0.5140963531     -0.2516821460     -0.0449284792
C       2.1199422546      0.1772198005     -0.4873811546      0.1549717646     -0.4313512224      0.4731402656     -0.0949700602
C      -0.1593722885      0.7816173197      0.3347239523     -0.2535066857     -0.3807919430     -0.3928198380     -0.0170058847
C       1.1321870711      3.5572130369      0.6974483348     -0.0182863797     -0.0896695667      0.0456598212     -0.1292774703
C       0.5752455364      3.5410715705     -0.7339036833      0.0106827455     -0.1536527717     -0.0156295779     -0.1384116199
C       2.3968545650     -0.7872960388      0.6607191176      0.0887587542      0.1022988964     -0.6292513817     -0.2128660339
C      -0.8374783626     -0.2105631338     -0.6085334505     -0.1343801991      0.3345558768      0.5908423350     -0.2134778115
C       3.4432811432     -1.8141615601      0.2101048540     -0.2460835228      0.0612123901      0.7536789652     -0.1795286151
C      -2.2420869881     -0.5329515203     -0.0849600785      0.3492207942     -0.2638694014     -0.6446383129     -0.1540286039
C       3.7757567738     -2.7936714525      1.3383032835      0.2120681733     -0.0263432453     -0.6028415672     -0.1970261969
C      -2.9453831810     -1.5479824503     -0.9919272218     -0.2836017477      0.2645218864      0.5862413921     -0.2018785959
C       4.8368102720     -3.7990767854      0.8953062980     -0.3070153689      0.2160437734      0.2896877158     -0.0462271994
C      -4.3451709980     -1.8748669864     -0.4760131792      0.3778165210     -0.0011030059     -0.2826615668     -0.0475923615
H       2.8351986613      2.2163423218      0.7481720651      0.1242228088     -0.0204695028     -0.1427001225      0.2210921670
H       1.5557048718      1.7671040660      1.9035062704     -0.0616275927     -0.1780705902      0.1767495185      0.0926462866
H       0.3011318919      1.7777542961     -2.0239851709     -0.1110139940     -0.1820416268     -0.1428146323      0.1120707083
H       1.9861961838      2.2933906833     -1.7909286868      0.1331827025     -0.0443869815      0.0744900807      0.2455456273
H       3.0512635802      0.6554298064     -0.7934692730      0.0437140616      0.0984951100     -0.1344643936      0.2833674663
H       1.7085737051     -0.3471791001     -1.3517209906     -0.0915520936     -0.0705470844     -0.1891609557      0.1369974856
H      -0.7983185753      1.6563328623      0.4780047245     -0.1077984829      0.2318963292      0.0582091941      0.1589362372
H      -0.0013768539      0.3124241263      1.3087028241      0.0808780722     -0.0431112897      0.2059430713      0.1311017323
H       1.8954531282      4.3281024832      0.8145232645      0.1764374906      0.1541904869      0.0805039374      0.1088660905
H       0.3380989103      3.7475225236      1.4226847382     -0.1569177307      0.1068000871      0.1778280402      0.0718025327
H      -0.5131238202      3.6352347126     -0.7293408681     -0.2615435701      0.0897723175     -0.0384858975      0.0670863013
H       0.9873617722      4.3548669868     -1.3320506201      0.0359700533      0.1774287939     -0.1951255918      0.1023482807
H       1.4833198992     -1.3073961018      0.9656836389     -0.2323450119     -0.1780405693      0.1347661802      0.0863896376
H       2.7795776814     -0.2371043006      1.5249667017      0.1034843483      0.1055190492      0.2476882535      0.1037680841
H      -0.2572358911     -1.1345116808     -0.6675206689      0.1559946111     -0.2206179735     -0.0481272319      0.1216850016
H      -0.9156715251      0.2042812386     -1.6166035297     -0.0298724283      0.0673537601     -0.2762492017      0.1128740511
H       4.3509237182     -1.2906665353     -0.1004916889      0.1439284545      0.0597346297     -0.1422446054      0.1692269067
H       3.0623560886     -2.3635608223     -0.6569427539     -0.0316177352     -0.1381805547     -0.2748573581      0.0808563754
H      -2.8332440247      0.3878810843     -0.0361472384     -0.1916808357      0.2259140239      0.0571793955      0.0851374004
H      -2.1677041151     -0.9373010687      0.9302038912     -0.0325035741     -0.0904521321      0.2970877252      0.0890725334
H       2.8678644874     -3.3275031432      1.6420190342     -0.2386031193     -0.1069510046      0.1452828019      0.0660240119
H       4.1421398137     -2.2363432937      2.2072906657      0.0383721812      0.1590165060      0.2417351295      0.0782146329
H      -2.3495403491     -2.4653767852     -1.0392675698      0.1845026389     -0.2071068254     -0.0728523887      0.0883229077
H      -3.0150045938     -1.1408211060     -2.0059954533      0.0410139966      0.0759023930     -0.2860972586      0.0869011289
H       5.0707656495     -4.4808574680      1.7132033492      0.1522061371     -0.2797857697      0.1856900484      0.0279624856
H       4.4791292870     -4.3828684467      0.0461891624     -0.0528027294     -0.1938123836     -0.2667455589      0.0295785916
H       5.7502800430     -3.2817874690      0.6003087259      0.2895342648      0.1155326121     -0.1163957656      0.0406613249
H      -4.8245595972     -2.5975792968     -1.1359845240     -0.2588904003     -0.2200985407     -0.1264222963      0.0399664628
H      -4.2935344472     -2.3002924357      0.5270088399     -0.0424637030     -0.1361636420      0.3101871496      0.0317526776
H      -4.9599149691     -0.9745402076     -0.4407015504     -0.2319287757      0.2406695553      0.0308384154      0.0311587023
N       5.9816928694      2.2017940972     -2.5585191913     -0.1821433597     -0.0989345188      0.1468132921     -0.8188167154
S       5.2747483935      0.8547562433     -3.0660538258      0.4001904040     -0.0250677395     -0.1282627441      1.6249120023
S       5.3990527818      2.8305634871     -1.2133903487      0.1397168154      0.1625026086     -0.3095249250      1.6257894979
C       3.7206467382      1.3845423372     -4.0011801460      0.5942652811     -0.0850493041      0.5225524995      1.1879468765
C       5.9915621941      1.7687348243      0.2318749235     -0.2739191566      0.3204457711     -0.7461451029      1.1979782346
O       6.1073816854      0.2667289656     -4.0738147399      0.6665533619     -0.4188997964     -1.0016461454     -0.7205412303
O       4.7563473832     -0.0003011784     -2.0132423492     -0.3603166678     -0.4274035359      0.7029281645     -0.7864113552
O       3.9438592985      2.7679080521     -1.0733942916     -0.7331856478     -0.0738934482      0.0528068734     -0.8150880951
O       6.0241445785      4.1052551553     -1.0057044555      0.6465369873      1.0374379774      0.2780476136     -0.7239018463
F       3.7891188938      1.0190030414     -5.2667252259      0.0994616004     -0.4161439627     -1.3270417860     -0.4284498040
F       3.5337406039      2.6944372903     -3.9436068104     -0.2084422229      1.4184677485     -0.0415274047     -0.4442651357
F       2.6464887426      0.7974251366     -3.4553699559     -0.9947253088     -0.6295406518      0.3230706436     -0.4698414069
F       4.9484954293      1.1246893389      0.7676071546     -0.8612738239     -0.6715198858      0.6794366194     -0.4712657597
F       6.5138632651      2.5427135279      1.1684338473      0.5186968009      0.8444450558      0.9757294871     -0.4333776741
F       6.8893392073      0.8796701478     -0.1426791357      0.9856711581     -0.9205476221     -0.3742082212     -0.4322074021
