39
Properties=species:S:1:pos:R:3:forces:R:3:charge:R:1 energy=-221.04509273794451 homo_lumo=3.4710083294897407 dipole="-0.0595704946979075 -1.4119711109876318 -2.064230352662599" free_energy=-221.04509273794451
N       0.2249491024     -0.3916459007      1.1374179747      0.4603062784      0.0826005035      0.2152447698     -0.5009677269
N      -1.8306246022     -0.3248867550      0.5075820131     -0.4402874497      0.0777486017     -0.0206858535     -0.5061283325
C       1.4983713033      0.0162783714      1.7229898458      0.4310471010      0.0892209799     -0.3663410855     -0.0188319523
C       2.4280305848      0.6116898495      0.6634917237     -0.5772101494      0.2891596011      0.1764280685     -0.1661377825
C      -3.1747067970      0.1764912876      0.2486736639     -0.0196758825      0.1405451314     -0.5543410429     -0.0153291838
C      -0.8334664242      0.4019330139      1.0064181376     -0.1399252108      0.2345528913      0.0644543563      0.5884034359
C       1.8849075522      1.9208725555      0.0818445259      0.5614182791     -0.1849249040     -0.0762771585     -0.2725788930
C      -0.1007555887     -1.6517837875      0.7149846704      0.0004045348     -0.3104455977     -0.1088466114      0.2134176125
C      -1.3988671778     -1.6110447547      0.3149444222     -0.0081425773     -0.3736564210     -0.0935184247      0.2009129752
C      -3.2822259415      0.7519649321     -1.1659389187      0.2419290409      0.2491168899      0.3443851373     -0.2121769607
C       2.9051049878      2.5813972583     -0.8424840720     -0.4058719079     -0.1643156937      0.1768189166     -0.0409136150
C      -2.3929467065      1.9773015754     -1.3653524544     -0.2564851262     -0.3812843818      0.0076391419     -0.1047786744
H       1.2771346503      0.7510570240      2.5010382325     -0.0659182741      0.0755537725      0.1115880225      0.1951418994
H       1.9518982123     -0.8690921751      2.1743744731     -0.0299167141     -0.2298180385      0.1563574715      0.0854089673
H       2.5883526340     -0.1191920399     -0.1361398591      0.1269002993     -0.2137823313     -0.2228054530      0.0773274994
H       3.3908577431      0.7993548639      1.1474709935      0.2933764744      0.0339165234      0.1237094276      0.0929557352
H      -3.3912773159      0.9431825105      0.9965852856     -0.0383834298      0.0140566009      0.1699731270      0.1697930603
H      -3.8711826511     -0.6558795645      0.3752237160     -0.0949915306     -0.1887859399      0.1512666627      0.0974199427
H      -0.8676608629      1.4487101421      1.2538557407      0.1445380358      0.2854312234      0.0998708773      0.1820749275
H       0.9676494303      1.7160102611     -0.4813846215     -0.2210982247      0.0030539023     -0.1144390884      0.1381824662
H       1.6314308149      2.6020892059      0.8994670888     -0.1480498490      0.1064367753      0.1854324916      0.1372783105
H       0.6023613391     -2.4657040838      0.7418107116      0.1652243462     -0.1814473546      0.0330049936      0.0275331017
H      -2.0427485181     -2.3807191774     -0.0729491332     -0.1578304990     -0.1738684467     -0.0722692004      0.0251737283
H      -3.0200309494     -0.0221683477     -1.8937959851     -0.0206182068     -0.2401359023     -0.2047661422      0.0897336137
H      -4.3276410260      1.0290498211     -1.3271723426     -0.3109268356      0.0036957753     -0.0618465314      0.0939521331
H       3.1584316839      1.9194004209     -1.6721628188      0.1345613798     -0.1612399142     -0.2860283394      0.0189701362
H       3.8182721227      2.8188215971     -0.2956489245      0.2946868738      0.0934768684      0.1321969832      0.0295096834
H       2.4931953985      3.5055052808     -1.2476996706     -0.0308589171      0.3120104502     -0.1829016383      0.0356539928
H      -1.3394093580      1.7032456745     -1.3003821090      0.3142094324      0.0118588019     -0.0208647038      0.0889111169
H      -2.6049640020      2.7313817222     -0.6072370812     -0.0224771597      0.2829139989      0.2093542345      0.0528423525
H      -2.5759962970      2.4087276513     -2.3488291471      0.0330603924      0.1824218810     -0.2952353462      0.0447662228
S      -0.8260563898      2.1129042211      3.7501490408     -0.2086397602      0.1287232033      0.1478775675      1.7572911218
O      -0.4565901470      2.4237619394      5.1019582283      0.2440890102      0.4841181987      1.4553254310     -0.7562605846
O      -1.2047033269      0.7260468222      3.4987027317     -0.5276871836     -1.2619614315     -0.1509142997     -0.7992188192
O       0.0475201354      2.6537519291      2.7104871478      0.6535831842      0.6057828074     -1.0566487414     -0.8286394142
C      -2.4162025685      3.0150190207      3.4292442986      0.9347303387     -0.5674397067      0.1723245987      1.1505270902
F      -2.2880449596      4.3287775891      3.5253454641      0.1735862721      1.3885741732      0.1412375319     -0.4390064643
F      -3.3924175915      2.6223218953      4.2350250131     -0.9793434499     -0.4233616898      0.9096926463     -0.4422315645
F      -2.8055630108      2.7372517192      2.1638153748     -0.5033129353     -0.1185018013     -1.2954527965     -0.4899811575
