39
Properties=species:S:1:pos:R:3:forces:R:3:charge:R:1 energy=-221.18158789751138 homo_lumo=3.01999231772949 dipole="0.4975855864415269 2.6161548822914042 -0.2260997918260666" free_energy=-221.18158789751138
N       0.9168714839     -1.3063360747     -1.2816027148     -0.0024183976      0.0035256017     -0.0050138771     -0.5026859768
N      -1.2393654586     -1.0799071516     -1.2585423809     -0.0023393840     -0.0045136088     -0.0096397236     -0.5051986779
C       2.2628086101     -1.7247075613     -0.8790352071      0.0047703999      0.0069273700     -0.0122371089     -0.0080993449
C       3.2510877383     -0.5691763097     -0.9516274508     -0.0062360761      0.0021371667      0.0075087872     -0.1770467034
C      -2.6309072187     -1.1463408503     -0.7964398570      0.0005653015      0.0009009958     -0.0137766765     -0.0320471627
C      -0.1741868572     -1.4143871302     -0.5194712128      0.0026290145     -0.0137138205     -0.0118461544      0.6146072497
C       2.8768655726      0.6013586944     -0.0449625612      0.0100241496      0.0025253614     -0.0028492271     -0.2321997171
C       0.5417150662     -0.9102176832     -2.5482699864      0.0035134368      0.0167329277      0.0031571320      0.2116833540
C      -0.8138107163     -0.7605909150     -2.5308856608      0.0027705338      0.0154806545      0.0015772890      0.2161090522
C      -3.1562597346      0.2116682062     -0.3453170677      0.0031241554      0.0010155640     -0.0022881190     -0.2052590358
C       3.8711597360      1.7545595060     -0.1443592075      0.0072265830     -0.0080884661     -0.0040459702     -0.0677916606
C      -2.3846160274      0.7973983181      0.8321827121      0.0081355703     -0.0034899476      0.0020787568     -0.0994243721
H       2.1723896935     -2.1151348744      0.1444306271     -0.0016688955      0.0023461533      0.0020843675      0.1223108215
H       2.5366738189     -2.5750824393     -1.5208984141     -0.0013406436     -0.0031350792     -0.0051617049      0.1404185530
H       3.3409910489     -0.2196723847     -1.9961628069      0.0103348386      0.0022796033     -0.0078069285      0.1009138697
H       4.2445976904     -0.9619782045     -0.6738501422      0.0057846551     -0.0121015970      0.0005875986      0.1057520169
H      -2.6414651590     -1.8986629619      0.0072407181      0.0016727434     -0.0022300145     -0.0110013728      0.1654927848
H      -3.2192195161     -1.5575852295     -1.6290304629      0.0031144776     -0.0000332101     -0.0066592130      0.1259918560
H      -0.2154393054     -1.8227370147      0.4818473480     -0.0047244274     -0.0137017543     -0.0070817346      0.1141413641
H       1.8666702658      0.9606083536     -0.3103665462      0.0017831174      0.0036655184     -0.0066940058      0.1245997865
H       2.8171088146      0.2440416493      0.9994572736      0.0048113018     -0.0011317040      0.0049168789      0.0898254380
H       1.2562049713     -0.8075715439     -3.3540167628      0.0064433702      0.0109191883     -0.0029355323      0.0452481238
H      -1.5093703910     -0.4958996972     -3.3167187124     -0.0040058099      0.0063373350     -0.0033582443      0.0420050646
H      -3.1441034391      0.9132569048     -1.1983067277      0.0038341924      0.0064859490      0.0002591167      0.0912436871
H      -4.2153047724      0.0680571551     -0.0709180433      0.0016913179     -0.0012210826     -0.0057334187      0.1035953921
H       3.9159811628      2.1458736968     -1.1735687389      0.0059996161     -0.0009698878      0.0048511758      0.0366617667
H       4.8853106413      1.4257576291      0.1329924098      0.0039402905      0.0030406988      0.0052718413      0.0406817554
H       3.5908958170      2.5848887187      0.5201499938     -0.0007411624      0.0036044808      0.0068496796      0.0440562688
H      -1.3316563543      0.9840999140      0.5686175800      0.0077647166     -0.0040095826     -0.0010312613      0.0684974445
H      -2.4060788607      0.1124515252      1.6949237086      0.0083048810      0.0005393698      0.0028723620      0.0458794132
H      -2.8211538784      1.7559146785      1.1490276423      0.0076924782     -0.0020260502      0.0026349087      0.0541544354
S      -0.7183839075     -4.6763030841     -0.7022781115     -0.0130261347     -0.0050281811      0.0181297973      1.7523822052
O       0.4449430864     -4.1106935457     -1.4162424328     -0.0187312812     -0.0029147942      0.0211614314     -0.8088152744
O      -1.3290938995     -3.7459064764      0.2846100836     -0.0150104977     -0.0049668232      0.0161975242     -0.8227055595
O      -0.6137952727     -6.0678733844     -0.2714901100     -0.0150756910      0.0062066365      0.0074227386     -0.7493906426
C      -2.0295576819     -4.7403310852     -2.0591945091     -0.0149103593     -0.0029649549      0.0025971884      1.1152069305
F      -1.7942002701     -5.7456987565     -2.9365246392      0.0050908621      0.0067494969      0.0094727811     -0.4388680199
F      -2.0634617311     -3.5710119687     -2.7891137280     -0.0137298045      0.0016587856      0.0096655118     -0.4735296220
F      -3.2768622169     -4.9140006789     -1.5419984714     -0.0070634387     -0.0168382989     -0.0101365939     -0.4483968640
