25
Properties=species:S:1:pos:R:3:forces:R:3:charge:R:1 energy=-131.12537595265633 homo_lumo=0.9568854620518394 dipole="1.1231600191396767 -4.085070827123597 0.18987818701973827" free_energy=-131.12537595265633
N       0.8371428531     -0.0047594123     -0.0385532168      0.6894209374     -0.1931489823     -0.1678767514     -0.5698956317
C       0.0549043863      1.2074642158     -0.4180324879     -1.4063137548      1.6504097060     -0.2439378003     -0.0255918555
C       0.1015624726     -1.2485069878     -0.4097341520     -1.1057419956     -1.4913723771     -0.1700902589     -0.0106887112
C      -1.3764216255      1.2116023913      0.1478116290     -0.0142812779     -0.2594037309     -0.0234553716     -0.1679415391
C      -1.3268678103     -1.3041587189      0.1595764731     -0.0672948250      0.0696892398     -0.0242691264     -0.1758656950
C      -2.1220528330     -0.0633054919     -0.2410983184     -0.1302655629      0.0217877617      0.1667319556     -0.1656105283
C       1.1669076093      0.0068107638      1.4108119138      0.2433381780     -0.0199424699      1.4051685402      0.0371917594
C       2.1181597179      0.0171490435     -0.7878616162      1.3191127206      0.0011501488     -0.7404732982      0.0380308519
H      -0.0250298961      1.2829873288     -1.5275412037      0.3107862128     -0.3055919750      0.3709445832      0.1414868102
H       0.5752445126      2.1300317130     -0.0736013721     -0.0570304737     -0.1354456775     -0.0889973240      0.1564833570
H       0.6564495080     -2.1498300674     -0.0621141484      0.1512188052      0.5259944257     -0.0508246568      0.1291961555
H       0.0220866593     -1.3318559530     -1.5187238709      0.2730241897      0.4202686355      0.3663393964      0.1447141841
H      -1.9250728211      2.0854241714     -0.2642883877      0.5770649854      0.1934717014      0.2067044493      0.1567980880
H      -1.3643845692      1.3282127843      1.2517371206      0.0119841655      0.1112458816     -0.2451607307      0.1014267822
H      -1.3080042772     -1.4068236543      1.2647492199      0.0332688333     -0.0135884321     -0.2052802449      0.1032125755
H      -1.8399794452     -2.2049115372     -0.2410782374      0.3678296942      0.0662351311      0.1292503907      0.1144763819
H      -3.1124848469     -0.0800637618      0.2628092652      0.2089495379     -0.0054794676     -0.2506906998      0.1016564134
H      -2.2951388410     -0.0717095104     -1.3398832676     -0.0140281867     -0.0097811279      0.2086588976      0.0925097242
H       0.2630985707     -0.0036183589      2.0504420327      0.1421447295      0.0496222377     -0.5017288472      0.1260368112
H       1.7754335571     -0.8827604922      1.6882064842     -0.2354078606      0.2636003378     -0.3967768078      0.0962399828
H       1.7482496841      0.9168338825      1.6806295742     -0.2980860647     -0.2668958830     -0.4135912844      0.1233196575
H       1.9448344060      0.0109436784     -1.8874479774     -0.2258898163      0.0353131758      0.5333131580      0.1066653943
H       2.7094152229      0.9294340067     -0.5462699154     -0.4796163095     -0.2831860417      0.0466687028      0.1229159919
H       2.7426418284     -0.8711797434     -0.5412445705     -0.4289862705      0.2687967134      0.0747757253      0.0968770679
Cl     -0.7401712983      4.9334081394     -0.2360902402      0.1347994087     -0.6937489315      0.0145974035     -0.8736440280
