25
Properties=species:S:1:pos:R:3:forces:R:3:charge:R:1 energy=-132.42883363187653 homo_lumo=3.725031409998588 dipole="-1.4976659399274392 -1.7792320575850107 -0.37499788862668326" free_energy=-132.42883363187653
N       0.9014594104     -0.0699220633     -0.1259369513      0.2528081419     -0.2013503124     -0.1801715014     -0.5559510073
C       0.1970666082      1.1882301950     -0.5443602122     -0.7660359504      0.3576787139      0.1885928270      0.0009980483
C       0.0441414075     -1.2608331766     -0.4145696808     -0.5385767436     -0.1144636809      0.3205537419      0.0285969034
C      -1.1699709010      1.3310050733      0.1060277242      0.0527188192     -0.5212155837     -0.4097439027     -0.1597976372
C      -1.3317994460     -1.1628164259      0.2363690647      0.0966281518      0.2663089696     -0.3908742162     -0.1580503748
C      -2.0477917849      0.1168989719     -0.1956115634      0.2728349269      0.0120417871      0.4002901148     -0.1504467119
C       1.2841324837     -0.0145461648      1.3132849683     -0.2045027770     -0.1817892728      0.3032690989      0.0780751756
C       2.1576603240     -0.1796206513     -0.9222526929      0.1478893529     -0.2011951916     -0.2012137017      0.0840775782
H       0.0944920658      1.1460308466     -1.6322499752      0.0209669457     -0.1066799090     -0.2742326117      0.0981268584
H       0.8601558091      2.0192266390     -0.2724976201      0.4751107376      0.2133487576      0.0596493870      0.1852504663
H       0.5792905372     -2.1452573766     -0.0600856587      0.2154884695     -0.1786392379      0.0320733346      0.1136429991
H      -0.0608320985     -1.3234418821     -1.5016081542      0.0283774912      0.0301593049     -0.2576060901      0.1187126914
H      -1.6336648300      2.2339165367     -0.2986575709     -0.0450320214      0.3150606767     -0.0303648892      0.1027628768
H      -1.0708712772      1.4655342162      1.1860616576      0.0330835250      0.1413604940      0.2779161983      0.0983946934
H      -1.2410056016     -1.1941547201      1.3253748730      0.0053731948     -0.0762598581      0.2802587840      0.0981306651
H      -1.9088364737     -2.0378483242     -0.0742881535     -0.1092496587     -0.2939770215     -0.0028468197      0.0985718437
H      -2.9987648758      0.2017334063      0.3354209517     -0.3355638400     -0.0056538411      0.0637252930      0.0781618676
H      -2.2594069362      0.0725892017     -1.2690544376     -0.0925768725     -0.0060487350     -0.3054264548      0.0789345462
H       0.3964826758      0.0725468844      1.9330507462     -0.2493480190     -0.0231713822      0.1075460191      0.0663921226
H       1.8235488131     -0.9258882111      1.5645074742      0.1163154812     -0.3266368359      0.0035344138      0.0480498623
H       1.9260444248      0.8610635047      1.4475391961      0.3130276947      0.4856921781     -0.0893439283      0.1399836960
H       1.9069192203     -0.2164132051     -1.9806113898     -0.1720774896     -0.0430194318     -0.2943147294      0.0430035516
H       2.7662530800      0.7026524159     -0.7038905993      0.1973098794      0.4873972178      0.1965730173      0.1409217572
H       2.6816774690     -1.0877680262     -0.6300082157      0.0812037447     -0.3188743871      0.1138656009      0.0483746123
Cl      2.8724138147      2.6365781967      0.4596044184      0.2038268157      0.2899265817      0.0882910146     -0.7249170845
