25
Properties=species:S:1:pos:R:3:forces:R:3:charge:R:1 energy=-132.42596474107899 homo_lumo=3.7235074255968224 dipole="-1.4867620853452326 -1.8036028086000016 -0.2866315983185271" free_energy=-132.42596474107899
N       0.8800651929     -0.0745266801     -0.1564345635      0.2441366198     -0.2290158552     -0.1683340770     -0.5560687671
C       0.1778155629      1.1532899769     -0.6591903562     -0.7711885038      0.3679429206      0.1621331701      0.0007769958
C       0.0291626368     -1.2837025479     -0.3845701530     -0.5262937850     -0.0850408918      0.3239245353      0.0287180700
C      -1.1979171520      1.3311491974     -0.0360429954      0.0634977736     -0.5411484807     -0.3733181205     -0.1596037977
C      -1.3541304146     -1.1519609595      0.2432557611      0.0867494562      0.2522757510     -0.4029119880     -0.1581558514
C      -2.0692304331      0.0979834319     -0.2708744280      0.2731255692      0.0286362264      0.3919922747     -0.1504883537
C       1.2431928996      0.0682034653      1.2811884553     -0.1895638591     -0.1688694586      0.3257101205      0.0789005308
C       2.1470155629     -0.2280720412     -0.9288547772      0.1376105725     -0.2049917285     -0.1728772847      0.0836365919
H       0.0898701406      1.0449650011     -1.7437052625      0.0239009288     -0.1208833791     -0.2686667480      0.0981248594
H       0.8352394059      2.0013692697     -0.4293073852      0.4739705053      0.2201577470      0.0510983941      0.1853072176
H       0.5627209746     -2.1436988923      0.0278504610      0.2151497642     -0.1777773608      0.0456416922      0.1135335812
H      -0.0620472711     -1.4104253674     -1.4671493104      0.0300655178      0.0146929586     -0.2608248486      0.1184561161
H      -1.6585723720      2.2050343403     -0.5031486641     -0.0482811995      0.3139039525     -0.0493454211      0.1027638626
H      -1.1124416951      1.5345219921      1.0343057168      0.0298944804      0.1591819171      0.2679920473      0.0981468461
H      -1.2766087276     -1.1197123957      1.3332186548      0.0059138578     -0.0577207787      0.2839489046      0.0981255603
H      -1.9254854135     -2.0452630081     -0.0229077249     -0.1087498757     -0.2966863524      0.0124699828      0.0987788990
H      -3.0243025890      0.2116285918      0.2471986614     -0.3405677051     -0.0014602035      0.0580803740      0.0781612922
H      -2.2727257690     -0.0117553504     -1.3411263629     -0.0877578852     -0.0236777652     -0.3035692843      0.0791879428
H       0.3474421996      0.1929432988      1.8826541124     -0.2499843535     -0.0177339908      0.1078326576      0.0667184699
H       1.7787953054     -0.8257749027      1.5952425632      0.1131187494     -0.3235373313      0.0178139619      0.0476798739
H       1.8840355578      0.9503464936      1.3710454837      0.3077049475      0.4798569446     -0.1170433587      0.1399674252
H       1.9095148210     -0.3300763201     -1.9858492728     -0.1666080521     -0.0615670125     -0.2972445351      0.0431065870
H       2.7497783461      0.6685663941     -0.7561902446      0.1952219973      0.4924709957      0.1626676100      0.1405705186
H       2.6693795110     -1.1148734968     -0.5748957894      0.0839268060     -0.3115135501      0.1317679945      0.0482928487
Cl      2.8346653549      2.6690907810      0.2910021886      0.2050076732      0.2925047255      0.0710619466     -0.7246373190
