25
Properties=species:S:1:pos:R:3:forces:R:3:charge:R:1 energy=-131.1840086543807 homo_lumo=1.13470690474547 dipole="1.0870322596161486 3.4347138923005676 -1.7974170707014043" free_energy=-131.1840086543807
N       0.8357179603     -0.0073491508     -0.0312917640      0.7306064285      0.1012644771     -0.1993868726     -0.5752222590
C       0.1198632235      1.2449624211     -0.4137203541     -1.1321925993      1.4596107057     -0.2306483142     -0.0092386589
C       0.0466753517     -1.2126385562     -0.4196146567     -1.4422190936     -1.5747921185     -0.3302753158     -0.0202879429
C      -1.3217542903      1.3134444537      0.1216777632     -0.0491081045     -0.1031502579     -0.0125081692     -0.1757529692
C      -1.3963571394     -1.1966099091      0.1161985345      0.0172997837      0.2967107230      0.0498172479     -0.1680674383
C      -2.1186233768      0.0815058377     -0.3031443867     -0.1411066963     -0.0467919722      0.0419873958     -0.1610468846
C       1.1461003309     -0.0205801485      1.4215403479      0.2479486081      0.0059504473      1.5375522496      0.0369159844
C       2.1275776684     -0.0440649357     -0.7611020569      1.3127718410     -0.0149373498     -0.7554206009      0.0397780227
H       0.0661040651      1.3334166536     -1.5239804426      0.2588920688     -0.4142068141      0.3599868954      0.1397493759
H       0.6739786033      2.1398661945     -0.0497643013      0.1653352791     -0.5491700236     -0.0399450692      0.1317988726
H       0.5464964655     -2.1409663075     -0.0607673487     -0.0012827804      0.3299492060      0.2389801566      0.1552300353
H      -0.0112360266     -1.2928151313     -1.5303043064      0.3145312451      0.4495865383      0.3117363297      0.1244873970
H      -1.8172206580      2.2206101342     -0.2860440144      0.3691357199     -0.0728130848      0.1270049128      0.1136294804
H      -1.3271904450      1.4098268848      1.2274504107      0.0312640264     -0.0026403705     -0.2124982421      0.1111171401
H      -1.4088989110     -1.2930419741      1.2217110506      0.0801020775     -0.3906512999     -0.2265255700      0.1353412874
H      -1.9441240106     -2.0720269268     -0.2938088915      0.4649288396      0.0238756047      0.3369428530      0.1384596203
H      -3.1236800467      0.1095284777      0.1696634687      0.2209772501     -0.0094391850     -0.2199730983      0.1043499756
H      -2.2571621073      0.0874745149     -1.4066597958     -0.0376669590      0.0762464033      0.1722698755      0.0806059071
H       0.2332855242      0.0062232994      2.0486134437      0.1819402729     -0.1468784977     -0.4761491047      0.1353199035
H       1.7109537424     -0.9384135559      1.7004206377     -0.3973942536      0.2009988116     -0.3569517584      0.1272040036
H       1.7666097989      0.8591431326      1.7046176911     -0.2481782192     -0.2290280728     -0.4388595936      0.0905515916
H       1.9712200961     -0.0373337702     -1.8635347065     -0.2280281549     -0.0111641266      0.5250529926      0.0994106246
H       2.7584207015      0.8372125028     -0.5055169159     -0.4386872195     -0.2722793966      0.0676988051      0.0996968117
H       2.7055155559     -0.9618744316     -0.5089966622     -0.4679530440      0.2962061532      0.0699101906      0.1202880452
Cl     -0.7237373925     -4.1771153889      2.1924731318      0.1880836835      0.5975434998     -0.3397981958     -0.8743179263
