33
Properties=species:S:1:pos:R:3:forces:R:3:charge:R:1 energy=-187.8007175926411 homo_lumo=3.1843111868939293 dipole="-1.997296620937178 -1.0724480099075189 0.11559846736277747" free_energy=-187.8007175926411
H       2.4017115916     -0.2180913961     -4.1219434046      0.1617581659      0.1273049320     -0.0305676422      0.1071205420
H       0.6612127877     -0.5113892363     -4.3974915349     -0.2424613036      0.0308168306     -0.1346806275      0.0546573066
H       1.8031413662     -1.8847020035     -4.3695853934     -0.0070584185     -0.2180636202     -0.0841110065      0.0504031407
C       1.5723042336     -0.9078850256     -3.9505819459      0.0095939031      0.0990139192      0.0492510123      0.1091326792
H       1.9398438943     -2.2147598198      0.4631793588      0.0800801179     -0.0824544462      0.1794251957      0.0357670201
H       2.1812084373     -3.0015864367     -2.1829800365      0.1051382852     -0.1864818981     -0.0834548412      0.0306349750
H       0.7012347065      0.9403434012     -2.0394940501     -0.0116050206      0.1743646482     -0.0333857294      0.0906133827
N       1.3958742347     -1.0364670552     -2.5141063773     -0.1402166478     -0.1091168458     -0.6444896028     -0.5413316119
C       1.0530709255     -0.0235542481     -1.7183666176     -0.1529281917      0.0761167953      0.0028120306      0.6322327011
N       1.2039501033     -0.4240253137     -0.4609110641     -0.0546949364      0.3283518556      0.3192261546     -0.4958354568
C       1.6958326744     -1.7029968657     -0.4505129507      0.0293945371     -0.3031398677      0.0482369174      0.2281085898
C       1.8213814772     -2.0871139907     -1.7459847592     -0.0802301767     -0.2378869983      0.2034272302      0.2367321673
C       1.0836504133      0.4331439881      0.7118989256     -0.5044938017     -0.4104769466      0.2912248807     -0.0062431234
H       2.0587666177      0.4336918143      1.2085036442      0.2083062794      0.1085236036     -0.0442062109      0.1471480674
H       0.8678272203      1.4449330320      0.3607226421      0.0461416002      0.1956013102     -0.0789180144      0.1083796210
C      -0.0188285764     -0.0710210789      1.6425439548      0.3365308836      0.6338178952      0.0751606183     -0.1731740336
H       0.2110269465     -1.0928371570      1.9600550531      0.0146850083     -0.2794296406      0.0984755080      0.1032635638
H      -0.9695940431     -0.0938354199      1.0997486997     -0.2614988236     -0.0555736176     -0.1340420621      0.0930264691
C      -0.1390507305      0.8377589987      2.8700591119     -0.3372267982     -0.5545595823     -0.1244196771     -0.2094037387
H       0.8190510349      0.8589581526      3.3991054537      0.2658484269      0.0817855163      0.1069491597      0.0951274099
H      -0.3651150370      1.8584707268      2.5447269099      0.0115789081      0.2893990464     -0.0760991122      0.0893779334
C      -1.2339443426      0.3493947700      3.8160965881      0.3450678807      0.2523228710     -0.1967515196     -0.0457552353
H      -1.0145134116     -0.6599235566      4.1665718162      0.0171529409     -0.3033430426      0.1340678453      0.0311712426
H      -2.2005588849      0.3396524543      3.3106719447     -0.3210910442     -0.0212881062     -0.1126876761      0.0304326826
H      -1.2997066737      1.0107510924      4.6797828877     -0.1147268930      0.1381453657      0.3196644109      0.0395019070
S       4.1870187777      1.0183505440     -1.4969684275      0.1478642652     -0.2116647949      0.1336504856      1.7805865643
O       5.0598885656      2.1442773651     -1.3112629665      1.0738002788      1.1461648905      0.0432331771     -0.7593633826
O       3.0440059592      1.2593904314     -2.3819484753     -0.8272964194      0.3815193237     -0.9365127665     -0.8282160409
O       3.8395436380      0.2785953220     -0.2934784593     -0.1168461981     -0.7403601975      0.9894192620     -0.8170375332
C       5.1676737676     -0.2181221005     -2.4772908108     -0.6844296330      0.6284377680      0.5818526571      1.1485822523
F       6.2201810073     -0.6732687390     -1.8137731998      1.1167344420     -0.4218097029      0.7250893164     -0.4422710392
F       5.5806798650      0.2849578087     -3.6343106407      0.4777875847      0.5858355478     -1.2510928888     -0.4465874274
F       4.3787903132     -1.2740841682     -2.7617889238     -0.5906592014     -1.1418728117     -0.3357464847     -0.4767815947
