33
Properties=species:S:1:pos:R:3:forces:R:3:charge:R:1 energy=-187.8813993297486 homo_lumo=3.1623673695715397 dipole="0.418049159165257 -2.4104854611543516 0.4815404716407842" free_energy=-187.8813993297486
H       0.1839786019      1.0954349538     -4.5027976955      0.0218359136      0.2164637905     -0.0462857241      0.1096780296
H      -0.9758367745     -0.2027871361     -4.1132325262     -0.2223631010     -0.1141480541     -0.0291869797      0.0505633254
H       0.6529544122     -0.6201578823     -4.7152162460      0.0972859461     -0.2258288032     -0.0828995558      0.0473261966
C       0.0761232925      0.0799953159     -4.1148409511     -0.0114022101      0.1032600368     -0.0226418502      0.1177886538
H       2.7410277382     -0.2562282839     -0.3483335843      0.1666852213     -0.0208109218      0.1577816877      0.0308529309
H       2.4315150671     -0.9837012718     -3.0040483433      0.1439308547     -0.0988722434     -0.1589696225      0.0298243940
H      -0.9224709536      1.2597303373     -1.7733799710     -0.1225779358      0.2278364093      0.0499551107      0.1163641153
N       0.5807581801      0.0691057776     -2.7522304128     -0.2015832161     -0.2778223135     -0.4457370708     -0.5379070746
C       0.0142612377      0.7290462584     -1.7440935487     -0.2575690689     -0.0014597457     -0.0659350437      0.6333202496
N       0.8270634041      0.6452560595     -0.6955297618      0.0431750865      0.3225691916      0.3625004589     -0.5046549374
C       1.9396158193     -0.0713374045     -1.0418074406      0.3020820725     -0.1010213496     -0.0190409057      0.2110881710
C       1.7884744093     -0.4273845482     -2.3448625516      0.2405562582     -0.1593298842     -0.0048039224      0.2303492005
C       0.5724666612      1.2476861796      0.6076658583     -0.4994243199     -0.5000041317      0.3118227685     -0.0331075130
H       1.5385934653      1.4539551248      1.0730932197      0.2107554107      0.0705428367      0.0388946561      0.0976558675
H       0.0463800474      2.1906689415      0.4344557979     -0.0196033837      0.1876477881     -0.1368578764      0.1959341795
C      -0.2671549226      0.3026024315      1.4687492003      0.2926271588      0.6271863721      0.2566271051     -0.1651803489
H       0.2729162044     -0.6392880478      1.6119432035      0.0999559642     -0.3008144339      0.0403005897      0.0889498907
H      -1.2025163533      0.0784108736      0.9462481384     -0.2619967696     -0.0733687737     -0.1383011358      0.1022098025
C      -0.5701878183      0.9463309318      2.8252669604     -0.2064862815     -0.5907592453     -0.2206296999     -0.2125336473
H       0.3707919479      1.1741561593      3.3367743259      0.2424383332      0.1319475891      0.1218656816      0.0869144974
H      -1.1026330894      1.8892031637      2.6660772661     -0.0748174159      0.2896235162     -0.0461300796      0.1015211198
C      -1.4164167002      0.0233875477      3.6993558494      0.2628156431      0.3553201059     -0.1492073522     -0.0457744093
H      -0.8934384846     -0.9160892549      3.8838099512      0.1140493681     -0.3089830935      0.0876009466      0.0281856173
H      -2.3674990754     -0.1974908551      3.2132339945     -0.3073244358     -0.0953864104     -0.1075392806      0.0331447764
H      -1.6186378752      0.5027384653      4.6569888368     -0.1334924983      0.0515637086      0.3359532592      0.0392323790
S      -0.0195348791      3.9154160617     -2.2695491665      0.1841638190      0.0716313552     -0.0324875015      1.7768999682
O      -0.5509416808      5.0984856316     -2.8857907101     -0.4101914234      1.3556396065     -0.6104504568     -0.7561004352
O       0.4164274328      2.8670470057     -3.1894908620      0.5525280833     -0.8148942747     -0.7926428135     -0.8292059901
O      -0.7838088432      3.3931621403     -1.1396178815     -0.7585854556     -0.4514144836      1.1740651887     -0.8302446878
C       1.5740388822      4.4439762978     -1.4707415509     -0.8362485157     -0.4349232088     -0.3770230943      1.1461000690
F       1.4554658945      5.6009341153     -0.8366652940     -0.2018781586      1.2520660535      0.6684517811     -0.4408814495
F       2.5586591670      4.5452946136     -2.3555332834      1.0033605914      0.1559716582     -0.9779294714     -0.4438427287
F       1.9436682201      3.5207904954     -0.5629813267      0.5472984651     -0.8494286470      0.8588802031     -0.4744702123
