33
Properties=species:S:1:pos:R:3:forces:R:3:charge:R:1 energy=-187.8401449115641 homo_lumo=3.207096947677964 dipole="-0.979175323409306 1.9620795109884805 -0.3130451035915169" free_energy=-187.8401449115641
H       1.2895477596     -0.6661971778     -5.3227073677     -0.0327522122      0.1888980280     -0.2132178388      0.0525416200
H       0.0349623342     -1.6485352566     -4.5138807039     -0.2278491263     -0.0573972965     -0.0460821589      0.0459422276
H       1.7589057164     -2.0921441986     -4.3541584746      0.1464951918     -0.1918350739      0.1033908801      0.1073786922
C       1.0512147650     -1.2659204491     -4.4450652417      0.0267470104     -0.0004570030      0.0057340402      0.1096514315
H       2.6454468112      1.4447411307     -1.0596858925      0.1430355878      0.1238740179      0.1443722553      0.0319397531
H       3.1100115084      0.3966549408     -3.5845584553      0.1970728929     -0.0126433888     -0.1328190659      0.0368748880
H      -0.6188775883     -0.9702146338     -2.1894386192     -0.1465233439     -0.1069085327      0.0113142605      0.0884495597
N       1.1675108238     -0.4416764323     -3.2546823825     -0.0886843902     -0.1175320120     -0.5907250721     -0.5317969655
C       0.3181952272     -0.4444934556     -2.2322310421     -0.1327120634      0.1802552479     -0.0125467978      0.6337572525
N       0.8129532729      0.3532003869     -1.2861118602     -0.4439498198      0.2536952322      0.2526708213     -0.4986181008
C       2.0431255077      0.8092637673     -1.6843776345      0.1962084138      0.1778488507     -0.1230088009      0.2110417448
C       2.2653045430      0.3066615965     -2.9254903610      0.1752640269      0.1758913623      0.0460568645      0.2561517664
C       0.2234468410      0.5534601289      0.0327659514      0.3876221193     -0.5181081886      0.2494963718      0.0084810266
H       0.4007873237      1.5914691259      0.3297742454     -0.0418950851      0.2444538330     -0.0061193659      0.0958234938
H      -0.8541858043      0.3881173346     -0.0545378661     -0.2156708930      0.0247944164     -0.0332072558      0.0961591773
C       0.8471914887     -0.4223014359      1.0346012704     -0.6387825731      0.4309224345      0.2750214562     -0.2277719394
H       1.9180564532     -0.2179211695      1.1121592735      0.2370583015      0.0012181482      0.0133213746      0.1221028378
H       0.7273473993     -1.4410154280      0.6574417549      0.0451354268     -0.1730176093     -0.1485786880      0.1875905284
C       0.1896019479     -0.2933705293      2.4099826884      0.4700884949     -0.2806473475     -0.2054324238     -0.2008535958
H       0.3059922858      0.7312953809      2.7807861119     -0.0473242458      0.2866342455      0.1213431342      0.0680836345
H      -0.8830238954     -0.4985632516      2.3228656845     -0.3039069728     -0.0033725693     -0.0133328895      0.0725791059
C       0.8194228022     -1.2730186388      3.3986170799     -0.2941226080      0.3256685523     -0.1582849416     -0.0469704306
H       1.8825829729     -1.0622052083      3.5178597051      0.3299084961      0.0053644063      0.0546049885      0.0344773733
H       0.7078617659     -2.2967817729      3.0411402412      0.0061346674     -0.3208039185     -0.0772077295      0.0481885838
H       0.3342772235     -1.1859842140      4.3708156797     -0.0833151155     -0.0463554263      0.3473060830      0.0315273484
S       2.3864515479     -3.1357041527     -1.5987237860      0.2166867746      0.0095150039      0.0918217006      1.7833852567
O       2.4131859645     -4.5686741537     -1.7062708578      0.0973522166     -1.5761237893      0.0840437872     -0.7592338232
O       1.0750238021     -2.5658344275     -1.2786880051     -1.1233167551      0.2867920051      0.4479027008     -0.8292684237
O       3.0930405172     -2.4085422618     -2.6432629709      0.7945585726      0.5684349884     -0.8492957013     -0.8158587406
C       3.3797461866     -2.7299361005     -0.0820091208     -0.6261990950     -0.0596544065     -0.8304467315      1.1597410252
F       4.5504015186     -3.3472452916     -0.0646127869      1.2439556284     -0.6813503816     -0.0402751253     -0.4400589743
F       2.7212457911     -3.0444899505      1.0326012535     -0.6493302180     -0.4406213933      1.1637374071     -0.4594591843
F       3.6105108241     -1.4074099712     -0.0452639553      0.3830106955      1.3025675646      0.0684424609     -0.4719781492
