49
Properties=species:S:1:pos:R:3:forces:R:3:charge:R:1 energy=-272.6378904859366 homo_lumo=3.733386805606498 dipole="1.1177654297031283 -2.7696351478537213 0.27349435305311015" free_energy=-272.6378904859366
N      -1.3669604985      0.2614407907      0.3314893203      0.0664247763      0.1124859489     -0.0103566691     -0.4984837556
C      -2.2768615457      0.1566402735     -0.8646399315     -0.5061907293     -0.3358468835     -0.3137884750     -0.0188421819
C      -2.1253636961      0.8030642125      1.5148894903     -0.4840312758     -0.0581591268      0.5127282916     -0.0493669199
C      -0.3046358918      1.2646620178     -0.0444848371      0.5065491886      0.1565516788      0.4087345229     -0.0551373416
C      -0.7857708317     -1.0725709754      0.6964951962      0.3296803644     -0.2341110524     -0.4454964148     -0.0258265041
C      -3.5662913961     -0.6016924363     -0.5866002475      0.1064194232      0.4237098578      0.2369169146     -0.1591138876
C      -3.4204920422      0.0572255793      1.8005251485      0.0692632655      0.1742970032     -0.4573154690     -0.1476857956
C      -4.3171159166      0.0605709825      0.5655098184      0.2232330751     -0.3171079758      0.0869206563     -0.1538346852
C       0.7411134295      1.5335249533      1.0333655869     -0.0989456361      0.0768377762     -0.5851441429     -0.2224181701
C       0.1710951491     -1.6746264631     -0.3310625178     -0.2714950666     -0.1840756168      0.5968438097     -0.2127325218
C       1.8247378565      2.4577567766      0.4623524883     -0.0301699299     -0.1971923835      0.5422690489     -0.2048497313
C       0.6145630591     -3.0641355876      0.1443989205      0.1499596466      0.3010947577     -0.5279607822     -0.1957185050
C       2.8766817547      2.7839849939      1.5192642240     -0.2253679071     -0.0575890573     -0.3900151323     -0.0484542848
C       1.5852555030     -3.6998677690     -0.8483296555     -0.2767558851      0.0721754705      0.3774936255     -0.0480667074
H      -1.7098446325     -0.3126492102     -1.6703400183      0.2383635601     -0.0872051278     -0.1172752731      0.1143832159
H      -2.5243188877      1.1802200677     -1.1553409480     -0.0073740136      0.3263101773      0.0868289448      0.1972131271
H      -2.3525968845      1.8465624841      1.2852622896     -0.0447490561      0.1923498522     -0.2511493680      0.2521362421
H      -1.4599378709      0.7601137890      2.3788804356      0.2407787498     -0.0456816343      0.1097798755      0.1083357320
H      -0.8374004266      2.1904513251     -0.2779519584     -0.2600697706      0.0714020389     -0.0839313925      0.2435624434
H       0.1712869592      0.9012450035     -0.9582948139      0.0634686332     -0.1469361279     -0.2182140804      0.1086895513
H      -1.6233517144     -1.7547704198      0.8555764194     -0.1572280691     -0.0684895601      0.0598212187      0.1711590128
H      -0.2671627486     -0.9492723468      1.6503116812      0.0469757076      0.0720155905      0.2101020834      0.1289279674
H      -3.3712365028     -1.6556887217     -0.3636763210     -0.0017087789     -0.3297675211      0.0078070437      0.0701204150
H      -4.1665214833     -0.5589225626     -1.4991227929     -0.0967891233     -0.0517461698     -0.2868546667      0.0966241307
H      -3.9158044115      0.5810451656      2.6222627461     -0.0560096296      0.1114627925      0.2843601130      0.0982694827
H      -3.2236439925     -0.9690055045      2.1276143472     -0.0109679171     -0.2781559014      0.1594756021      0.0665000320
H      -4.5587381588      1.0931274662      0.2935107887     -0.0491635042      0.2711135612     -0.0785756242      0.1354598868
H      -5.2447570393     -0.4777976390      0.7717427602     -0.2920810167     -0.1267128697      0.0480387007      0.0642418508
H       1.2044389377      0.6037271141      1.3762996541      0.1935223046     -0.2530654965      0.1137884723      0.0927067921
H       0.2754933404      2.0232599752      1.8917892012     -0.0756431732      0.1124324187      0.1981765288      0.1295751708
H       1.0534241332     -1.0414432462     -0.4512485360      0.2320823034      0.1717100586     -0.0599630798      0.1208816724
H      -0.3151545592     -1.7684563499     -1.3053108546     -0.0968111471     -0.0343656971     -0.2704854816      0.1114548839
H       1.3597951563      3.3833161240      0.1131569070     -0.1044500066      0.1512215978     -0.1198337813      0.1373106861
H       2.3024167693      1.9727508354     -0.3959403916      0.1032731638     -0.1077470030     -0.2667729963      0.0683281605
H      -0.2643726679     -3.7068591339      0.2603383248     -0.2279840464     -0.1631726365      0.0962274521      0.0857213823
H       1.0974662034     -2.9758032560      1.1231427744      0.0731467405     -0.0050102237      0.2920540448      0.0881388907
H       3.3582592847      1.8730893929      1.8789414545      0.1853434044     -0.2483194999      0.1469642698      0.0175102223
H       2.4185207569      3.2939837637      2.3672039093     -0.1064323322      0.1710935304      0.2745862121      0.0366862739
H       3.6390360844      3.4356226938      1.0928048570      0.2902218050      0.2075261500     -0.0278431185      0.0360904513
H       2.4768992374     -3.0820087110     -0.9599691601      0.2939616009      0.1504035624     -0.0719659096      0.0347235942
H       1.1143065468     -3.8114265355     -1.8256026376     -0.0990925225     -0.0609159174     -0.3228310826      0.0338812417
H       1.8864567753     -4.6847874282     -0.4924890057      0.1642404870     -0.3227480618      0.0090299322      0.0414651997
C      -3.0173883295      4.1960351430     -0.1098939216      1.8186627714      0.6295661789      0.9047887951      0.9376844190
O      -2.9958076937      2.9710685518     -0.3077124914     -0.0539618735     -1.6931865767     -0.3901943548     -0.8644574924
O      -3.8312391251      5.0646256709     -0.3052060977     -1.3174061860      1.3922781842     -0.3378685545     -0.7181483362
C      -1.6057143991      4.6746316594      0.5774309748     -1.2562936149     -0.5505006215     -0.5437988235      1.2310566698
F      -1.5526546669      5.9249741182      1.0339118857     -0.1312889804      0.9503232150      0.2638645574     -0.4520703966
F      -0.5685825481      4.5238790494     -0.2888062295      0.7316792718      0.0669002192     -0.8065209442     -0.4886193278
F      -1.2979803444      3.8600038598      1.6314450143      0.2112109487     -0.4074528785      0.9565549009     -0.4950122555
