49
Properties=species:S:1:pos:R:3:forces:R:3:charge:R:1 energy=-271.6173592764268 homo_lumo=2.7610210575590397 dipole="1.077104207401458 -2.9970318092610615 2.9276971188749616" free_energy=-271.6173592764268
N      -0.9619783113      0.2458550934     -0.4790239477      0.1110673658      0.0275097864     -0.0289609970     -0.5014592362
C      -1.9010595253     -0.3387916337     -1.4987563285     -0.5623602385     -0.3892537392      0.0066772840     -0.0405706608
C      -1.6378921895      1.4203085238      0.1765882600     -0.4541646906      0.1849084526      0.3952163647     -0.0464670132
C       0.2414474031      0.7402994870     -1.2444926813      0.5198570554      0.2472620113      0.3418897402     -0.0685488681
C      -0.5696214742     -0.7507818303      0.5716369911      0.2121146698     -0.4984169836     -0.2091148890     -0.0322896485
C      -3.2468566595     -0.7409544825     -0.9111255724      0.1600724781      0.4592687004     -0.0018004719     -0.1673716190
C      -2.9911838445      1.0742756065      0.7857909902      0.0625422874     -0.1085109452     -0.4367827439     -0.1557065416
C      -3.9243034967      0.4601042887     -0.2548347005      0.2306057626     -0.2064937332      0.1949079271     -0.1607179324
C       1.3626810314      1.3314794604     -0.3959236931     -0.1589500082     -0.1261519317     -0.5717303930     -0.2160128509
C       0.1939239533     -1.9701899112      0.0587067187     -0.2303793312      0.2417716055      0.5840550407     -0.2144484637
C       2.4073186882      1.9568456769     -1.3311371564      0.0076865944      0.0125867708      0.5994145981     -0.2035360799
C       0.5021590953     -2.9049963220      1.2356110371      0.1337852054     -0.0676510485     -0.5944265524     -0.1974307086
C       3.5627853498      2.5618508384     -0.5380430882     -0.2704742363     -0.1868494311     -0.3261431677     -0.0477071364
C       1.2711261833     -4.1389122397      0.7688633780     -0.2256432101      0.3247493663      0.2699744025     -0.0494194547
H      -1.4038395823     -1.1944300172     -1.9583405236      0.2169274628     -0.1207173725     -0.1048738980      0.1173809161
H      -2.0471210949      0.4311790146     -2.2586534545      0.0498261016      0.0676544354     -0.0838667172      0.2224649478
H      -1.7624378295      2.1808898712     -0.5963319999      0.0441515437      0.0664673474     -0.0614494522      0.2186467078
H      -0.9665444934      1.8000038832      0.9487372621      0.2160371663      0.0540679231      0.0970320142      0.1192226917
H      -0.1272380421      1.4995095228     -1.9343222836     -0.0576354180     -0.0031858166     -0.0658491265      0.2502552594
H       0.6160187010     -0.1002328288     -1.8325526100      0.0095435632     -0.2149507142     -0.1434243842      0.1175017488
H      -1.4838985175     -1.0819122393      1.0669437459     -0.1519934669      0.0076843192      0.0860002534      0.1725032348
H       0.0362879241     -0.2151714217      1.3064693844      0.0843131853      0.1736900654      0.1435054187      0.1378824927
H      -3.1322681931     -1.5592813115     -0.1937459259     -0.0226486062     -0.2797010472      0.1546366851      0.0812900311
H      -3.8623309623     -1.1064577828     -1.7369895563     -0.1131089338     -0.1835306641     -0.2248829933      0.1052996988
H      -3.4199972305      2.0079071577      1.1591548042     -0.0450888382      0.2522809027      0.1775408200      0.1076152517
H      -2.8737406719      0.3999808072      1.6398541623     -0.0083217478     -0.1118449655      0.2753044426      0.0765140679
H      -4.1584649530      1.2069537867     -1.0179514687     -0.1077033093      0.1194534693     -0.1353077295      0.1403601205
H      -4.8562935837      0.1472862083      0.2211595846     -0.2888636550     -0.0361877666      0.0909687562      0.0757596639
H       1.8388517967      0.5612117163      0.2180398860      0.1670392192     -0.1741847142      0.2017514248      0.0928559406
H       0.9758909350      2.1070282895      0.2696868572     -0.0658725182      0.2299706320      0.1598870527      0.1162576341
H       1.1324571803     -1.6690162072     -0.4124521759      0.2476154239      0.0610514298     -0.1502789778      0.1199069517
H      -0.4000475936     -2.5115530449     -0.6818771336     -0.1291121002     -0.1618273529     -0.2063268120      0.1157645713
H       1.9290863956      2.7347328201     -1.9336256241     -0.1482581631      0.1412069593     -0.2132546122      0.1221271902
H       2.7902425224      1.1897392617     -2.0119531561      0.0669998332     -0.1746801048     -0.2368448452      0.0868123816
H      -0.4353136080     -3.2144724029      1.7092342008     -0.2334973432     -0.0379138952      0.1774070619      0.0875258778
H       1.0936813808     -2.3652020459      1.9823582931      0.1021472056      0.1473788781      0.2400405796      0.0903810627
H       4.0634298487      1.7967518158      0.0572316694      0.1971581213     -0.1900212238      0.2034695893      0.0228662501
H       3.1994222949      3.3421603339      0.1315677203     -0.0641909255      0.2613638367      0.2115971262      0.0346289911
H       4.2884111508      3.0012022265     -1.2218556956      0.2827201199      0.1756148916     -0.1167005356      0.0466927925
H       2.2177439588     -3.8490408778      0.3116751720      0.3029475929      0.0327913186     -0.1479773511      0.0361261313
H       0.6878028891     -4.6988375294      0.0371884572     -0.1383693325     -0.2100475253     -0.2292778280      0.0357818301
H       1.4792240241     -4.7880926622      1.6188528969      0.1194075984     -0.2802225188      0.1893496073      0.0445275398
C      -2.3586864959      4.2022930363     -4.3564106676      0.5378774921     -1.5273584866      1.5141145809      0.9525567163
O      -1.4379086377      4.9521068691     -4.5247620557      1.9305608568      1.5774946555     -0.4001781721     -0.7369422777
O      -3.4829781534      3.9998147761     -4.7220180601     -2.3228422943     -0.3933829024     -0.8103553154     -0.7366692354
C      -1.8997837658      2.9688777352     -3.1561411042     -0.4846333220      1.1472130855     -1.0759818817      1.1225016462
F      -2.9477376921      2.4302468726     -2.4551770795     -0.9744130651     -0.2183547089      0.3409986180     -0.5016148586
F      -1.0458880262      3.4043057081     -2.1783385507      0.7615463065      0.6367492470      0.6784313585     -0.4971689193
F      -1.2655974895      1.8723484437     -3.6812016490      0.4839745429     -0.7487504978     -0.7583808997     -0.4959288352
