33
Properties=species:S:1:pos:R:3:forces:R:3:charge:R:1 energy=-179.4839601229899 homo_lumo=5.483805739881103 dipole="0.5270182831533701 0.21191868766313338 -2.9524781604379693" free_energy=-179.4839601229899
N       0.2093829781     -0.0150300845      0.3604982023      0.2994029013      0.2021928786     -0.0627090367     -0.5356102264
C      -0.3561978978     -1.3947137202      0.2040135761     -0.3515571197     -0.3897256325     -0.1479364082     -0.0094171250
C      -0.8521965703      0.7276451128      1.1195837182     -0.5564179694     -0.0155446373      0.1250034138     -0.0270019441
C      -1.8586882122     -1.2015764528      0.0166958259      0.1008708375     -0.0237220201     -0.0984673589     -0.1335217921
C      -2.1810705855      0.1766370024      0.6135646645      0.0734687423      0.0973020583     -0.0392688974     -0.1492563279
C       1.4921612019     -0.0073366106      1.1415100676      0.5805863947     -0.3347014566     -0.1214708719     -0.0916781200
C       0.3963950650      0.6200536571     -0.9688853365     -0.0118759014     -0.0481624232     -0.0674243418      0.0831135504
C       2.6226750272     -0.7700937940      0.4724540216     -0.4156785253      0.2827611264      0.0125079022     -0.0730279493
H      -0.1428705303     -1.9425109118      1.1230261520      0.0867572614     -0.0120718724      0.2470164565      0.1996744277
H       0.1233938770     -1.8917713578     -0.6393471175      0.1832204277     -0.0843724503     -0.1820323641      0.0964236707
H      -0.7263599999      1.7983495505      0.9573585420      0.1377093223      0.2573176822      0.0304513910      0.0878910192
H      -0.7203852457      0.5074624348      2.1795475390      0.0690598683      0.0277052188      0.0163691471      0.2501091157
H      -2.3967994232     -1.9907727944      0.5436411894     -0.0830591910     -0.1911083732      0.0800630149      0.1269128677
H      -2.1299793948     -1.2423400396     -1.0405527279     -0.0815855635     -0.0393416308     -0.2663857993      0.0693793264
H      -2.6220578909      0.8345384899     -0.1384185753     -0.1494577997      0.1618687600     -0.1668535847      0.0692178174
H      -2.8799391018      0.0870539589      1.4467332240     -0.1288029030      0.0479444886      0.2002803264      0.1348597666
H       1.7637832421      1.0398701035      1.2934679201     -0.0153344176      0.2525677973      0.0444106943      0.1268310542
H       1.2693865682     -0.4521871679      2.1125487158     -0.1294092895     -0.0304949005      0.0730825341      0.2319923536
H       1.0700790657      0.0138907028     -1.5702932004      0.1683338088     -0.1596627564     -0.1494915721      0.0895476367
H      -0.5678710582      0.6935474732     -1.4667605926     -0.2801365747      0.0096146083     -0.1278579686      0.1122376858
H       0.8164988436      1.6144548622     -0.8282844873      0.1022849544      0.2693697586      0.0606768488      0.0783889473
H       3.4642494457     -0.7816707345      1.1644938763      0.2646763799     -0.0339411824      0.1698558674      0.0811934820
H       2.3375137795     -1.8004166688      0.2659603959     -0.0155447418     -0.3566697900     -0.0162628181      0.0546501988
H       2.9482087714     -0.2963697394     -0.4529286607      0.1942149923      0.0997001232     -0.2717361513      0.0303798962
N      -1.3522140992     -0.0572666069      4.3305073775     -0.0946220900     -0.1049823739     -0.0820829552     -0.8811761141
S      -1.1486148725     -1.5381121654      3.8065828567     -0.6363305975      0.0438813815      0.2271398741      1.9757122212
S      -0.0940847281      0.6433681119      5.0143575195     -0.2898071023      0.4997478196     -0.2083347825      1.9202653180
F      -1.2992712800     -2.4645519442      5.1092251913     -0.0116026175     -0.3379175957      0.6414472589     -0.4499369239
F       0.7856080082      1.0844867557      3.6693319128      0.3694627840      0.2221872596     -0.2762975299     -0.5003959271
O      -2.2813955510     -1.8652736399      2.9914960324     -1.1522476502     -0.3530597376     -0.6649317567     -0.7684711926
O       0.1503302139     -1.8728339169      3.2801542684      1.3434392755     -0.2558243866     -0.2694696822     -0.7782856565
O       0.8072979687     -0.1778868662      5.7452842549      1.0281619475     -1.2320681982      0.7504003011     -0.7071134011
O      -0.5196429793      1.8930661119      5.5395949693     -0.5981798438      1.5292104566      0.5403088494     -0.7138876554
