33
Properties=species:S:1:pos:R:3:forces:R:3:charge:R:1 energy=-179.68671243344417 homo_lumo=5.064173951415184 dipole="-2.838334677817629 -1.562528952269441 -0.08748847764324305" free_energy=-179.68671243344417
N       1.0677360049     -0.1146777873     -0.2299603407      0.0183881496     -0.0147466613      0.0049377998     -0.5233893071
C      -0.2125404425     -0.9147946107     -0.3094021770      0.0020030913     -0.0021605430     -0.0040838680      0.0097851845
C       0.7021061281      0.9924366724      0.7428114111     -0.0001773132     -0.0032869480     -0.0028577775     -0.0249849796
C      -1.3281042156      0.1300866478     -0.3386738892      0.0046424793     -0.0098812407     -0.0030453974     -0.1461558409
C      -0.7383088613      1.3692038609      0.3880850958      0.0141210030     -0.0052486510      0.0024828850     -0.1584252335
C       2.2289861889     -0.9289117243      0.3152926841     -0.0003334543      0.0046444758      0.0106605238     -0.0941304284
C       1.4015968592      0.4714365772     -1.5710344888      0.0130297401     -0.0022246280      0.0019060994      0.0286539504
C       2.7345175751     -1.9962928372     -0.6302875843      0.0006191084     -0.0049958415      0.0052875030     -0.1133842581
H      -0.2519029253     -1.5210905407      0.6078357814      0.0011176344     -0.0024896775     -0.0036183830      0.1299857240
H      -0.1773052981     -1.5783569720     -1.1821431700     -0.0079656184     -0.0043658981      0.0049640122      0.1203412250
H       1.4347187581      1.8046871195      0.6641897583      0.0005170594     -0.0013611985      0.0099514001      0.2183651095
H       0.7749471504      0.5481127302      1.7463925958      0.0042433704     -0.0078236040      0.0015041448      0.1268197631
H      -2.2276202362     -0.2613201544      0.1572535772      0.0015595329     -0.0030280923      0.0023913862      0.1037526704
H      -1.6107004496      0.3733542123     -1.3734383935      0.0021910509      0.0060860173      0.0025063806      0.0938339263
H      -0.7662220534      2.2582236954     -0.2574571655      0.0020294368     -0.0020150594     -0.0022391703      0.0960629026
H      -1.2962686582      1.6185183012      1.3012051878      0.0005295784     -0.0028096259      0.0072667547      0.1102057468
H       3.0176700221     -0.1983055749      0.5589011796      0.0030688689     -0.0101990709     -0.0010573195      0.2424590950
H       1.8556663390     -1.3659355883      1.2550402973      0.0033533624      0.0019848287     -0.0005724012      0.0992293883
H       1.4610046540     -0.3410221583     -2.3035537299      0.0051003702      0.0059714872      0.0000988508      0.0839801652
H       0.6100561522      1.1742334601     -1.8542537134      0.0056854371      0.0012850534      0.0048304277      0.1060575395
H       2.3617875151      0.9980087190     -1.5068887665      0.0030466606     -0.0013672744      0.0049153101      0.1871610265
H       3.5446383484     -2.5337597562     -0.1159519268     -0.0033035183     -0.0058630878      0.0098452526      0.1038309645
H       1.9573093961     -2.7262184988     -0.9044246887     -0.0020030105     -0.0030474071      0.0004383015      0.0438970342
H       3.1856366273     -1.5659690164     -1.5347018149     -0.0031185404     -0.0086073665      0.0064174204      0.0792702640
N       4.4974440011      1.4460098701      0.5169155586     -0.0117345368      0.0151677781     -0.0236673663     -0.9097707504
S       4.0637120748      2.9899878859      0.5871553165     -0.0196912513     -0.0095769513     -0.0127094023      1.9073493129
S       5.3240608490      0.8371470344     -0.7267819581      0.0031447811      0.0227161365      0.0080260763      1.9301231110
F       2.9526099178      3.1281971615     -0.6840572674     -0.0186873090      0.0049569406     -0.0061139459     -0.4918800343
F       6.7353636928      1.6609469350     -0.7439723218     -0.0082394964     -0.0107671773      0.0124277709     -0.4477444572
O       3.2092706309      3.1304836728      1.7546656105     -0.0052382981      0.0216519508     -0.0232427032     -0.7412940609
O       5.0793577824      3.9645917599      0.2599990551     -0.0210898261      0.0148272121     -0.0096301876     -0.6936349318
O       4.7211087989      1.1025135388     -2.0264617729      0.0235580486     -0.0044827846     -0.0010317960     -0.7396090164
O       5.6716432306     -0.5260120168     -0.3695364412     -0.0103665909      0.0210569085     -0.0069885820     -0.7367608053
