47
Properties=species:S:1:pos:R:3:forces:R:3:charge:R:1 energy=-261.2088191544733 homo_lumo=1.8814636272031346 dipole="1.523461240390202 -0.3778176328655461 1.2903747640369874" free_energy=-261.2088191544733
N       3.0044018551      0.9384223115     -0.1898273825      0.0080461738     -0.0086996298     -0.0037173292     -0.4879401407
N       2.8234461513     -1.2218252469     -0.0085917817      0.0066718230      0.0051699198      0.0003169545     -0.5078987639
C       1.4386690529      2.8566542318     -0.1853131303      0.0020022875     -0.0036523537      0.0075490623     -0.1743880022
C       2.8501921866      2.3671786578      0.1220080350      0.0043124494      0.0021664675      0.0009358537     -0.0010907572
C       0.9746238071     -2.6139121395      0.8545542807      0.0051128214      0.0016773154     -0.0075982383     -0.1839177280
C       2.4673919361     -2.5358314733      0.5451515220      0.0050609640     -0.0004525260      0.0069606393     -0.0005648244
C       0.3688542644      2.2035479887      0.6830685161     -0.0046409543      0.0081969654     -0.0137997950     -0.2032550258
C       0.1004126600     -2.4461604446     -0.3842627170     -0.0063002295      0.0024376828      0.0166332790     -0.2140524194
C      -1.0424046881      2.5849106429      0.2418004917     -0.0024197582     -0.0109440564      0.0198187282     -0.1627461501
C      -1.3816871378     -2.2966647690     -0.0455104722      0.0036077362      0.0022206221     -0.0202090827     -0.1810285075
C       2.7313902919     -0.0637293390      0.6647762076      0.0148606835     -0.0021929183     -0.0117501366      0.5413397998
C       3.2019883508      0.4098407918     -1.4436207495      0.0041257625      0.0018474873      0.0049468151      0.2512142034
C       3.1283809293     -0.9501999986     -1.3212812465      0.0074458454     -0.0031645946      0.0073073535      0.2365563658
C      -2.1202752881      1.9112265666      1.0871742693     -0.0051057682      0.0023060804     -0.0137274479     -0.2363956713
C      -2.2250142943     -1.9780294782     -1.2793906642     -0.0074841630     -0.0017471269      0.0144213329     -0.2235303352
C      -3.5318202537      2.2238089894      0.5973722305     -0.0036187622     -0.0130442954      0.0059391261     -0.0873502348
C      -3.6977715532     -1.7658453174     -0.9429980187      0.0019452003      0.0067239721     -0.0100038064     -0.0831526923
H       1.4374162787      3.9536906297     -0.0556808327     -0.0148595295      0.0023513807      0.0023439011      0.0697264992
H       1.2068807411      2.6164893384     -1.2402111443     -0.0100942765      0.0021921631     -0.0064294081      0.1522929985
H       0.7254281582     -1.8305275145      1.5941018199     -0.0097382828     -0.0016510230      0.0137293211      0.0972180699
H       0.7874800916     -3.5823811447      1.3536676702     -0.0121961355      0.0014000173      0.0011558457      0.0839075037
H       3.6044848620      2.9027500965     -0.4733667132      0.0079325210      0.0045414813      0.0036727568      0.1063037745
H       3.1081788547      2.4896648382      1.1865299626      0.0011184258      0.0062637058     -0.0007956345      0.0928090805
H       3.0870150329     -2.7057655361      1.4395508805      0.0110390853     -0.0072224233      0.0025585495      0.1012404149
H       2.7517160029     -3.2776962572     -0.2156206620      0.0095685596     -0.0065160352      0.0104799432      0.1121320477
H       0.5271464533      2.4540558893      1.7517257032     -0.0042599037     -0.0043268849      0.0044291788      0.0403105337
H       0.4471912120      1.1083343237      0.5644321117     -0.0054008943     -0.0045350325     -0.0154112336      0.1618251289
H       0.2459430941     -3.3155240220     -1.0539587494     -0.0031318218      0.0050700565     -0.0132839010      0.0587676347
H       0.4014234141     -1.5445758467     -0.9546976758      0.0019595161      0.0072783600     -0.0004249266      0.2054554354
H      -1.1721395002      3.6833178461      0.2756485291      0.0050861887      0.0065534894      0.0149071336      0.0558941123
H      -1.1495677454      2.2630663319     -0.8101736082      0.0092558484      0.0129362326     -0.0056916615      0.1422646003
H      -1.4943758074     -1.4665739354      0.6781649790      0.0054066238      0.0070965194      0.0023375094      0.1186241452
H      -1.7636046312     -3.2065024768      0.4582210776      0.0032055665     -0.0033894435      0.0097478199      0.0477185747
H       2.4888444285      0.0480467062      1.7120886856      0.0113605091     -0.0027102253      0.0103281123      0.0876932476
H       3.3536781100      1.0315971164     -2.3151627245     -0.0239847881      0.0043116933     -0.0047756000      0.0456303389
H       3.1673772262     -1.7258056921     -2.0741067608     -0.0170092591     -0.0029738533     -0.0003558314      0.0402106598
H      -1.9580781303      0.8185989830      1.0550024313      0.0082500221     -0.0066173151     -0.0054462258      0.1445535017
H      -2.0144306480      2.2168819113      2.1457840306      0.0085278632     -0.0139076123     -0.0017270724      0.0493488184
H      -2.1243345856     -2.7991808014     -2.0130428163      0.0082560697     -0.0077441648      0.0068725884      0.0648720799
H      -1.8039993183     -1.0763962191     -1.7604549973      0.0127773820     -0.0091046791     -0.0071126295      0.1575615480
H      -3.7236582677      3.3094387805      0.6169905831     -0.0071173304     -0.0045882841      0.0013781746      0.0332570249
H      -3.6644451676      1.8790990861     -0.4401332039     -0.0067811703     -0.0048998864     -0.0048890136      0.0546377840
H      -4.2941813100      1.7332534578      1.2222978019     -0.0112821968     -0.0012337504     -0.0125870601      0.0270807585
H      -4.2801553704     -1.5233964110     -1.8454729586     -0.0124126674      0.0029835739      0.0083803946      0.0271372172
H      -3.8194592238     -0.9318753593     -0.2325213467     -0.0044482154      0.0085631179     -0.0000774258      0.0651200321
H      -4.1406150444     -2.6666260070     -0.4843050348     -0.0052482809      0.0108480308      0.0049557637      0.0101752872
Cl      0.3968166771      0.5150515241     -2.3866510611      0.0105984598      0.0101817795     -0.0222926771     -0.7355679686
