47
Properties=species:S:1:pos:R:3:forces:R:3:charge:R:1 energy=-258.9626410746781 homo_lumo=1.6368960370464987 dipole="-6.8054816132237645 1.6144664660239556 -1.7745329955041544" free_energy=-258.9626410746781
N       1.3502156936      2.2848482673      0.0374093085     -0.9153096309      0.0303243663     -0.8749479857     -0.4962163188
N      -0.8554577510      2.4372037355     -0.2054669184      0.6473802084     -0.0221110104     -0.2412821358     -0.5096092756
C       2.7287080632      1.8768018936     -0.2241813511      1.1864365776     -0.2205751295     -0.0714505731     -0.0384551314
C      -2.1912058775      2.2380145333     -0.7654937685     -0.6947080366     -0.1267571136     -0.8649049345     -0.0247116212
C       3.0073503416      0.4793199883      0.3479595677     -0.3472221472     -0.1349281367     -0.1448206524     -0.2167000219
C      -2.4268427775      0.7593589942     -1.1111712425      0.0724028729     -0.0295591918      0.3566409154     -0.2023999947
C       2.0792409501     -0.5881549943     -0.2539963570      0.3168130468      0.1459958893      0.3326461667     -0.2224778375
C      -2.3655266682     -0.1378356775      0.1343025745      0.0160110861     -0.0460135470     -0.4438696137     -0.2077163081
C       0.3172235939      2.1935271498     -0.8218924738      0.2043408107     -0.5658299302     -1.3223748576      0.5517421495
C       0.8153517513      2.6078720408      1.2325039031     -0.8231121145      0.2901371852      1.3755350597      0.2349254962
C      -0.5524624602      2.7097217709      1.0802514168      0.6093595791      0.0972328735      1.5926099160      0.2298538685
C       2.4493526048     -1.9913335190      0.2364757781     -0.1357954720     -0.1007549592     -0.1408364811     -0.2121089493
C      -2.5620245835     -1.6121426118     -0.2333947871      0.0498617521     -0.0182887621      0.2177166024     -0.2193649687
C       1.4848614851     -3.0363629139     -0.3182932172      0.0097237170     -0.1769692607      0.0598781648     -0.1203513650
C      -2.4848936794     -2.5004632147      1.0055644536     -0.0305673530     -0.2307328445     -0.0325491712     -0.1078442891
H       3.4237226841      2.6125853363      0.2347355314     -0.3666751603     -0.0742916214     -0.1285512371      0.1578781446
H       2.9220934312      1.8710917056     -1.3194973074     -0.3354650878      0.1605655334      0.3355734098      0.1233791922
H      -2.2947544877      2.8527165195     -1.6854884028      0.1352051097     -0.0099554053      0.3460188862      0.1334423288
H      -2.9650029283      2.5777921228     -0.0426684765      0.5571970097      0.0293362999     -0.0658991242      0.1272416813
H       2.8870702437      0.5012214051      1.4532166852      0.2093110818     -0.0330767741     -0.2581324040      0.1247031874
H       4.0622779398      0.2181369687      0.1205222258     -0.0842123085      0.1877188325      0.2391493527      0.1994229808
H      -3.4280532055      0.6617658075     -1.5841201359      0.2781092928      0.1199915245      0.0258406829      0.1168694819
H      -1.6671683275      0.4273725479     -1.8522313198     -0.2329167748      0.0460391082      0.1035917333      0.1172749295
H       2.1475705807     -0.5567147622     -1.3635915382     -0.0881573460     -0.0070545268      0.1409123267      0.0719565058
H       1.0299947862     -0.3741085290      0.0419738287      0.0488279077     -0.0687068927     -0.1482236543      0.1302415349
H      -3.1561230439      0.1746504212      0.8510637249      0.2061330281     -0.0357943551     -0.0564989255      0.0886028224
H      -1.3774573375     -0.0242430459      0.6298543938     -0.2178073021     -0.0045110298     -0.0024004699      0.1453062690
H       0.4092288517      1.8722321857     -1.8522413574      0.0458515073      0.0961517068     -0.0221735084      0.1042710454
H       1.3697890949      2.6993907812      2.1574328577      0.2769908881      0.0617136383     -0.0731514940      0.0742017674
H      -1.2758496200      2.8942312235      1.8637914786     -0.2029196601      0.0939085290     -0.1445504842      0.0605684393
H       2.4120193595     -2.0229948611      1.3472416122      0.1995834467      0.0746207899     -0.2606975954      0.1032860645
H       3.4814835359     -2.2424866435     -0.0909647551     -0.1799652491      0.1728441629      0.2713414286      0.1282421533
H      -3.5536097692     -1.7509881420     -0.7161519704      0.2657149441      0.0581018057     -0.0400824415      0.0902928869
H      -1.7730017836     -1.9269335363     -0.9508894114     -0.2366155363      0.1310176949      0.0465897155      0.1153074679
H       1.5112807776     -3.0368371160     -1.4288569761     -0.0918862731     -0.0775438763      0.2731309286      0.0280666741
H       0.4501010004     -2.8238087027      0.0215085891      0.1820021207     -0.1276386007     -0.1506639827      0.0836918150
H       1.7756267963     -4.0438514629      0.0461881494     -0.1957053744      0.2075273252     -0.1898663758      0.0528514356
H      -3.3073506615     -2.2509073653      1.7090241809      0.2746386689     -0.1316492758     -0.1002124474      0.0501289407
H      -1.5105756892     -2.3640964724      1.5213821825     -0.2960854120     -0.0961662089     -0.0648342627      0.0561672605
H      -2.5812904667     -3.5654507289      0.7069587186      0.0355251921      0.2588222533      0.2496183468      0.0601038577
P       7.6102078993     -0.1713042569      1.8406823370      0.9152347885     -0.2326429291      0.3109182283      2.1001201755
F       6.3493444729     -0.7799651043      0.8459173592      0.4207087235      0.7648342574      0.6152386865     -0.5284279678
F       8.5891320317     -1.4373365759      1.2147773541     -0.9317321466      1.0824235725      0.5722379898     -0.5060867448
F       8.1151836120      0.9001796544      0.5955932783     -0.4050168883     -1.1076902537      0.9117987795     -0.5117315900
F       8.9509815498      0.2880357985      2.8124213505     -1.4515188383     -0.0701821787     -0.8431758068     -0.5043104631
F       6.6299517687      1.1139275636      2.4246633562      0.5827225315     -1.0216166050     -0.4337014190     -0.5217675872
F       7.0284865620     -1.1369932050      3.1376023510      0.5173082199      0.6617330702     -1.2571352819     -0.5098601224
