45
Properties=species:S:1:pos:R:3:forces:R:3:charge:R:1 energy=-243.20054427760354 homo_lumo=2.4755623081888203 dipole="-4.347534374573341 -5.458300752289782 -1.124061668627368" free_energy=-243.20054427760354
N      -0.4074044446      0.1745803597     -0.0716684008      0.0815878326      0.0048110916     -0.0331769582     -0.5242103575
C      -0.9773554207     -0.8806121127     -0.9649800126     -0.3677871987     -1.7496028745     -1.5462862122     -0.0056608613
C      -1.4634737986      0.4193384167      0.9581804125     -1.4153840897      0.8751209110      1.7234549896     -0.0084099249
C      -2.4421171418     -1.0597452501     -0.6135650255     -0.6037828375      0.1164293935     -0.5853426289     -0.1426033538
C      -2.5057883275     -0.6750178508      0.8368801284     -0.1455716601     -0.5309926110      0.6544790445     -0.1414034302
C       0.8335024694     -0.3290239094      0.6025740764      1.6376544436     -0.4552781420      0.3523430827     -0.0545567061
C      -0.1617410949      1.4197220980     -0.8688317515      0.5017979060      1.8785459618     -0.6905044942     -0.0909457404
C       2.0160274396     -0.6184108361     -0.3526475980     -0.2635145853      0.1915659537     -0.1079291712     -0.2598840440
C       0.4215786519      2.5938335640     -0.0625660500     -0.0172489701     -0.4113087097      0.0872269391     -0.1526845091
C       3.1649951851     -1.2930819265      0.3934281811      0.0332256300     -0.0680150552      0.2150899866     -0.0934677586
H      -0.4875655933     -1.8699429220     -0.8143127535      0.2384845407      0.6623702468      0.2061711191      0.1511191142
H      -0.8758846685     -0.6417536561     -2.0486773804      0.3217177939      0.1851443901      0.6017857774      0.1445231618
H      -1.9934305546      1.3859781188      0.7958923825      0.6668994454     -0.2127335859     -0.2661113375      0.1602307781
H      -1.0656395640      0.4495596726      1.9984839665      0.2500161679      0.1236199617     -0.6407165646      0.1509389734
H      -2.7862963808     -2.1045019210     -0.7756473236      0.1046211174      0.4476576853     -0.1853006843      0.1029028964
H      -3.0642704803     -0.3619588987     -1.2171160088      0.0849856736     -0.3012134625      0.1105701465      0.1069443344
H      -3.5196238193     -0.3191019276      1.1227390360      0.4446180307     -0.1699381945      0.1346484932      0.1065904227
H      -2.2195683875     -1.5428736647      1.4717275561     -0.2210897764      0.2331752342     -0.0941769613      0.1043983898
H       0.5956384937     -1.2649343144      1.1604283976     -0.3103037185      0.3404807294     -0.3279096927      0.1494802275
H       1.1794678931      0.3953957220      1.3730248643     -0.3758954050      0.0183142207     -0.3849169047      0.1842508800
H       0.5210362776      1.2136208107     -1.7220156250     -0.2079087101     -0.3657320089      0.4282201572      0.1632675841
H      -1.1151742906      1.7662660409     -1.3301155486      0.0746343883     -0.5799239764      0.3288781925      0.1474757640
H       1.7036595103     -1.2813271475     -1.1859853597     -0.0507713818      0.2142963514      0.1117904347      0.1128339387
H       2.4026093356      0.3266935982     -0.7867370304     -0.2146536927     -0.1688323961      0.0431135022      0.1513334384
H      -0.1945868749      2.8304239242      0.8281359318      0.2467136353      0.0269405664     -0.2111568012      0.0689227838
H       1.4593117326      2.3806732198      0.2563807477     -0.2553449612      0.2480669740     -0.0085349345      0.1386588508
H       0.4522123093      3.4976674925     -0.7069046180      0.0513873058     -0.3035594639      0.2091281251      0.1135520131
H       3.5323598193     -0.6357544588      1.2101747270     -0.0141909824     -0.2605324677     -0.2153205296      0.0767683449
H       2.8320653273     -2.2616563234      0.8241505930      0.1967964262      0.2508743991     -0.0624229560      0.0427732327
H       4.0026652602     -1.4888200635     -0.3085538719     -0.2412470258      0.0699657482      0.2949413889      0.0757396824
N       4.3823917983      6.2731828222      2.0196355858     -0.3796856812     -0.4428101723      0.3806416526     -0.8602353873
S       5.2293343736      7.2744767318      1.0359852591      5.5684406712     -4.4811630073     -0.4571395060      1.5607847451
S       3.5376738288      4.9826261630      1.4632538419     -4.5053040527      5.0589607895     -2.1271016362      1.5594604577
C       4.2035654754      8.6614071965      0.5932059804     -1.3278290228      1.3464659377     -0.3258530737      1.1523627958
C       4.5330113356      3.5167076693      1.6474196529      1.7620907976     -0.6654435943      0.4266483650      1.1564494612
O       6.4370204225      7.7817111599      1.7715884742     -2.5832194868      0.3586395250     -0.3077575965     -0.7209922964
O       5.6658652315      6.5546050851     -0.2098271725     -1.4196734679      1.5741255149      0.8733972193     -0.7316513487
O       3.1721172613      5.1654476882      0.0162204042      1.0569011371     -1.4385313165      1.2764555754     -0.7442727077
O       2.2869786523      4.8247809903      2.2803387731      2.1548304057     -0.8375193648      0.0196367655     -0.7494979480
F       4.9163993169      9.5233327051     -0.2185005318     -0.7756090161     -0.6309739021      0.6950538446     -0.4282845251
F       3.8122452733      9.3289056612      1.7383970788      0.0985582710     -0.2164356926     -1.0249604408     -0.4308808528
F       3.0832545670      8.2166382469     -0.0826326179      0.8016954798      0.7171049699      0.5085555477     -0.4285010493
F       3.8394280157      2.4197677115      1.1747677630      0.4847613572      0.1988214339      0.2628671626     -0.4671270202
F       4.8308751866      3.3274506325      2.9835399354     -0.0893795756     -0.2944933061     -1.0952961424     -0.4289267956
F       5.7068651631      3.6575484204      0.9320879288     -1.0770231588     -0.5564646852      0.7528177150     -0.4175656543
