58
Properties=species:S:1:pos:R:3:forces:R:3:charge:R:1 energy=-312.1702198236571 homo_lumo=5.094731049420593 dipole="-3.3006345805750112 0.02676240610620748 0.8958742454395882" free_energy=-312.1702198236571
N       2.7742872952      0.8459957316      0.4383355576      0.0372324541     -0.2435050389      0.0597899077     -0.5163803069
C       1.4187466466      1.2626964367      0.9130512326     -0.2884842566      0.3517409164      0.0752419282      0.0111703296
C       3.7024979861      1.5809734107      1.3602622765      0.2277308617      0.5168737430      0.2473633053     -0.0593539302
C       3.0062305812     -0.6302604226      0.5682857240     -0.2277731869     -0.4646169226     -0.5115377871     -0.0687227855
C       1.5620548948      2.7426388523      1.2608045697     -0.0288910551     -0.1173852700     -0.0406985076     -0.1285452774
C       3.0500487524      2.9393811518      1.5940878891      0.0007225588     -0.1182295144     -0.0606696174     -0.1501506992
C       2.9931564888      1.2846701317     -0.9688100012     -0.0890144408     -0.0000662179     -0.2174556515      0.0383317334
C       2.1289118697     -1.4694078841     -0.3568128574      0.1469690545     -0.0583539847      0.4374662965     -0.1913661609
C       2.2977366787     -2.9651972806     -0.0562591126      0.4313466818      0.3602740832     -0.3417421203     -0.1362055348
C       3.7032990998     -3.4797801300     -0.3854150971     -0.5174150373     -0.3302534366      0.2700110143     -0.2547009052
C       3.7846534203     -4.9974366281     -0.2388379291      0.1032795116      0.4526114501     -0.0632162248     -0.0367258743
H       1.1822442064      0.6702969716      1.8001304664      0.0245948237     -0.1912676268      0.1840811875      0.1232114122
H       0.6766956971      1.0686227428      0.1389119715     -0.1474086604     -0.1255135172     -0.1350582298      0.1142662754
H       4.6858066130      1.6497250517      0.9029869644      0.1339248793     -0.1343791548     -0.1266044858      0.2726132643
H       3.7724502462      1.0074227175      2.2865118606     -0.0373555089     -0.2364208431      0.1428208633      0.1155007064
H       2.8193327454     -0.8926508198      1.6129667462     -0.0553315514      0.0185162212      0.2752659822      0.0994265745
H       4.0613506040     -0.7938633259      0.3466474608      0.0960182057      0.0423317449      0.0148688949      0.2657206583
H       0.9204097639      2.9940104519      2.1067022493     -0.2337495758      0.0826833312      0.1274362318      0.0954553760
H       1.2687181791      3.3667660428      0.4142316011     -0.1307314345      0.1600055263     -0.1604058093      0.0871723580
H       3.4973376101      3.6992048069      0.9506041240      0.1358413574      0.1939665600     -0.0693477316      0.1013680035
H       3.1917291919      3.2485862933      2.6306100018      0.1209216564      0.1125790783      0.2052339763      0.0983842008
H       2.1409328807      0.9869495127     -1.5751555533     -0.2779474571     -0.0821117087     -0.0929322387      0.0682421807
H       3.1044101051      2.3655764361     -0.9934541790      0.0583718905      0.2893702694      0.0085059396      0.1127870001
H       3.8992144602      0.8159360951     -1.3431208381      0.2655674513      0.0058021061     -0.0301660804      0.1789151055
H       1.0773676380     -1.1983980370     -0.2229890674     -0.3084668464      0.0892365073      0.0161682478      0.0909361670
H       2.3995479001     -1.2836297275     -1.3996692209      0.0532534946      0.0198858053     -0.2673760485      0.1058237832
H       1.5630259609     -3.5102971600     -0.6576541507     -0.2110471551     -0.1830808118     -0.1001029999      0.0859217137
H       2.0691604807     -3.1540922257      0.9982381805     -0.1190067799     -0.1120390276      0.2812168399      0.0718139831
H       4.4338358500     -3.0170543288      0.2834043211      0.1844077141      0.1073332941      0.0412152688      0.1312848767
H       3.9637994274     -3.1977513869     -1.4104764094      0.1166514281      0.1381579777     -0.2118808875      0.1063945878
H       3.5451762185     -5.2969626257      0.7824701354     -0.0652153826     -0.1580654100      0.3086165817      0.0193632906
H       4.7934850316     -5.3353933808     -0.4736039747      0.2903001653     -0.2093649067     -0.0487512934      0.0478272327
H       3.0851819173     -5.4879031523     -0.9173401851     -0.2005967487     -0.1938068510     -0.1928213975      0.0196687057
P       7.4531776556      0.8543888638     -0.9507113933      0.0086557621      0.4985960805      0.1571098806      1.6718261669
F       7.4177164568      1.3888600596     -2.5221502413     -0.0495682982      0.0643094656     -0.0523840096     -0.5126253227
F       9.0164513638      0.3192433063     -1.0790588044     -0.1443599225      0.1068195997      0.0436923357     -0.5086419779
F       5.8275471208      1.4067924214     -0.7471037426      0.2880527438     -0.1257680885     -0.1329394540     -0.5520157788
C       8.0850187201      2.6637983156     -0.5401723391     -1.0195559460     -0.7027436436     -0.2850683703      0.5568630809
C       6.7423869511     -0.8785479589     -1.6747183220      0.6727963103      0.1783657637      0.7988722053      0.5335149173
C       7.3238496140      0.1405661156      0.9532179322      0.0775871735      0.8332319390     -0.6174361787      0.5409084319
C       7.0658055245      3.8313701258     -0.6560881482      0.1922494851     -0.8576469446     -0.0389764664      1.3821153706
C       7.2833317107     -2.2742453416     -1.2367763796     -0.1024322907      0.6441627681      0.0057231493      1.4052975528
C       7.3550964812      0.9113572363      2.3025952462     -0.1329506398      0.0519924498     -0.8619089678      1.4215669117
F       9.0944268424      2.9576145826     -1.3713196048      0.9871661497      0.4462782517     -0.8444743073     -0.4379830758
F       8.5802150618      2.7145388083      0.7121155082      0.6057362187      0.2830225027      1.1051267830     -0.4617869389
F       6.9023247269     -0.8674414810     -3.0054792453      0.2840278365     -0.0943522100     -1.2461510485     -0.4328498525
F       5.3959625033     -0.9456441257     -1.4639006113     -1.2263569966     -0.2388085160     -0.0541128845     -0.4813237875
F       8.2163028064     -0.8539290986      1.0842772380      0.9834507476     -0.7042791203      0.3880904145     -0.4456976582
F       6.0828321741     -0.4419101045      0.9766402106     -1.0022728200     -0.4287156189      0.3707294853     -0.4801016698
F       7.6735710829      5.0035139104     -0.4857614316      0.7567786808      1.0871846594      0.2113653504     -0.4508666837
F       6.1095971097      3.7398161714      0.2817560640     -0.7023427836      0.1619706768      0.8619023599     -0.4782215179
F       6.4626338351      3.8508840598     -1.8401146784     -0.4105785907      0.0756006057     -1.1097511802     -0.4481696501
F       6.8918224670     -3.1857160779     -2.1352083472     -0.4520166344     -0.8688833051     -0.9066183251     -0.4616580979
F       8.6051878228     -2.3115183167     -1.1713873176      1.1371214586     -0.0137669073     -0.0678720129     -0.4389350904
F       6.7863837155     -2.6597667475     -0.0609458945     -0.3784859750     -0.4612004172      0.9270148834     -0.4674527168
F       8.5736773576      1.2309485706      2.6964061371      1.1631415713      0.1300494290      0.3516889502     -0.4402632808
F       6.8059603995      0.1498135206      3.2582721211     -0.4226915758     -0.8406299231      0.9268647888     -0.4608889272
F       6.6092917202      2.0240317325      2.2332139338     -0.6018507760      0.7923021313      0.0449772646     -0.4720584499
