58
Properties=species:S:1:pos:R:3:forces:R:3:charge:R:1 energy=-309.5143204276746 homo_lumo=3.2263469099757742 dipole="-1.331217906937376 5.9310809404013165 -4.172215846258994" free_energy=-309.5143204276746
N      -1.4359611275      0.3801634219     -0.0636433711      0.1817867046      0.5186324358      0.0871699538     -0.5483510960
C      -1.7345821677     -0.9020525592     -0.7680312202     -0.0685918744     -1.9341024633     -1.4563633826     -0.0090499343
C      -2.5226904131      0.5447561056      0.9401001938     -1.4716609496      0.4584705326      1.9266074226     -0.0042565363
C      -0.1193010601      0.3283686090      0.6426149515      1.7892659725     -0.1054968329      0.3999789581     -0.0497461326
C      -3.0173296307     -1.4822157095     -0.1872262946     -0.0953959560     -0.8239987896      0.2673764123     -0.1490534198
C      -3.6846014384     -0.3213324502      0.5011308155     -0.7215286063      0.4135200376     -0.2447160172     -0.1562498932
C      -1.4830974326      1.5214689671     -1.0149140074      0.0071490893      1.0211090131     -0.9699350691      0.0076002771
C       1.1116237843      0.2931908649     -0.2934011831     -0.3956100385      0.1535912896      0.0875037346     -0.2104633209
C       2.3800419023     -0.0660343184      0.4907250955     -0.1271357283     -0.0415827617     -0.1266643947     -0.1895570982
C       3.6152558174     -0.0590335566     -0.4160076992      0.0365792669      0.0086369245      0.1253682224     -0.2129216261
C       4.8684311386     -0.4498758037      0.3622365734      0.2051893922     -0.0430214453     -0.0711097361     -0.0919563865
H      -0.9252517237     -1.6577471662     -0.6565634610     -0.0164644212      0.6788039139      0.0708458381      0.1742076733
H      -1.8790687007     -0.7559375986     -1.8639326190      0.2985932869      0.4092214680      0.5204594858      0.1380272877
H      -2.8495985327      1.6035777320      1.0620810311      0.5654095811     -0.3171945021     -0.2118059789      0.1371510315
H      -2.2106114911      0.1909856009      1.9511255307      0.4064360553      0.1010944842     -0.5843093380      0.1657584086
H      -0.0896132078     -0.5695029288      1.3034589308     -0.3600677120      0.2280553277     -0.3471999361      0.1834000857
H      -0.0131144144      1.2151078462      1.3094730031     -0.4006119153     -0.2247422819     -0.2835819424      0.1482383575
H      -2.7680842087     -2.2653099460      0.5640240814     -0.1073394651      0.1368448820     -0.3336047230      0.1422081122
H      -3.6698745051     -1.9196050104     -0.9737470371      0.3606410017     -0.0203124918      0.3201866156      0.1067844542
H      -4.3198607412      0.2345555657     -0.2233278144      0.0120113318     -0.1412375154      0.2921121745      0.0989979979
H      -4.3020335792     -0.6544488444      1.3638445826      0.1276458252      0.3211192208     -0.3447187204      0.1214176758
H      -0.7999764028      1.3606525067     -1.8771472221     -0.1763586049     -0.1372565356      0.4975011693      0.1275137096
H      -2.5067416867      1.6512659851     -1.4327534024      0.3181255780     -0.2809407939      0.3602685446      0.1267957142
H      -1.1931570066      2.4709075921     -0.5114793375     -0.0852734703     -0.5219876340     -0.0030158113      0.1138262589
H       0.9677634576     -0.4484326162     -1.1069206035      0.0113924618      0.1585199367      0.1391007755      0.1175358675
H       1.2533516317      1.2947531131     -0.7541470482     -0.0398030342     -0.2758204956     -0.0061183664      0.1105753743
H       2.2615685786     -1.0774470920      0.9359326133      0.0319722283      0.2549212891      0.0125582524      0.1524069265
H       2.5239339698      0.6670909614      1.3149661735     -0.0093468386     -0.2398950949     -0.1028680452      0.0934097701
H       3.7591472547      0.9563503597     -0.8453018782     -0.1107683060     -0.2294379858     -0.0339097505      0.0845631658
H       3.4724350089     -0.7786946567     -1.2515521486     -0.0502327739      0.2443536966      0.1117134112      0.0942179859
H       5.0435236087      0.2637410643      1.1955232302      0.0253448067     -0.2796853394     -0.1911744698      0.0458652645
H       5.7484304688     -0.4290696040     -0.3144607227     -0.1598009284     -0.0449090546      0.3070035312      0.0528382542
H       4.7616506442     -1.4758825588      0.7749107517      0.1094941408      0.3261312045     -0.0463123528      0.0642096614
P       0.0419725583     -6.2665477979      4.4795766817      2.5291540202      0.7597617260      0.0995195283      1.6496581931
F       1.5794274401     -5.6612114572      4.9660682653      0.2195846786      1.7176549083      0.5877119285     -0.5263968676
F      -1.2411632856     -5.3331748878      5.1530137385      0.1784962940     -0.6502013508      0.2757805407     -0.5188695847
F       1.1402771977     -7.1340230951      3.4786438121     -0.4582295729     -0.4527082006     -0.0076417170     -0.5189370564
C       0.1273481929     -4.6285503226      3.4451473722      0.0655849186     -0.5311544012     -0.3034076647      0.5307244053
C       0.3502189428     -6.9352624485      6.2711577865     -0.4025220020     -0.9567817811      0.0945773122      0.5467474982
C      -1.1140827535     -7.6166559301      3.7206845201     -0.6392627084      0.1900594149      0.5437345667      0.5385894028
C       1.2955596114     -4.4811524175      2.4344608527      0.8813427828     -0.6755505111      0.2896348474      1.3387351306
C      -0.8012051622     -7.7148818346      6.9422338224     -0.3135374901     -0.2904053721      0.7434523407      1.3273722071
C      -1.5207077059     -7.4534452781      2.2439998144     -0.1004114985     -0.3930025114     -0.7333253087      1.3601379950
F       0.2288678410     -3.5501050751      4.3156716983      0.0892340794     -0.1209782925     -0.5506010061     -0.4443809132
F      -1.0489019696     -4.4605544451      2.7419543097      0.0824171732      0.6356780203     -0.4770468441     -0.4687402917
F       0.6289768646     -5.8706450927      7.1234707060     -0.4097601467     -0.6311845355     -0.2920338178     -0.4373486044
F       1.4532048229     -7.7777022744      6.2532337570     -0.5001331518      0.1228972709      0.3045189633     -0.4372491761
F      -2.2983744447     -7.6366212834      4.4349072141     -0.1920264095     -0.2921471370     -0.4621137015     -0.4475607915
F      -0.5257883340     -8.8662760428      3.8582475647     -0.4147879500      0.5589580582     -0.3068483450     -0.4339624171
F       1.1043905879     -3.3211722404      1.7054033053      0.1864876499      0.0591509073     -0.1920887142     -0.4932303101
F       1.3529720058     -5.5294040940      1.5417750802      0.1671832666      1.4414382589      0.5063387515     -0.4369747042
F       2.5145958804     -4.3738245580      3.0794819622     -1.0650984856      0.1526456815     -1.1358338452     -0.4324083488
F      -0.4599379531     -7.9609809527      8.2607702268     -0.3848664388     -0.0438132559     -0.5044498471     -0.4545833209
F      -1.9761618393     -6.9867190953      6.9415925657      0.9110535023     -0.9467495838      0.3268469296     -0.4401548422
F      -1.0073106675     -8.9390779408      6.3383309602     -0.0109139254      0.9791322846      0.7533286644     -0.4454870280
F      -2.4067669284     -6.4050162496      2.0891599584      0.5846896005     -0.9288269179     -0.1453434083     -0.4502641890
F      -2.1684712227     -8.6051026346      1.8322367979      0.2624641512      0.6788155899      0.0154409410     -0.4502596720
F      -0.4298803600     -7.2709411983      1.4238358737     -1.3571884375     -0.1540919086      0.4015024379     -0.4411005844
