38
Properties=species:S:1:pos:R:3:forces:R:3:charge:R:1 energy=-208.3633024367266 homo_lumo=6.118887985545422 dipole="0.035600779555426634 1.5235190647583796 -2.194477118467511" free_energy=-208.3633024367266
N      -0.5676188730     -0.2592781597     -0.0475014719      0.1152978184      0.0261625768     -0.3518784559     -0.5048791791
C      -1.0758841960      0.6513179408     -1.1240153074     -0.4931053702      0.3997751755      0.0357869606      0.0020609587
C      -1.3906763235     -1.5201610002     -0.0739815813     -0.5424089104     -0.2399889470      0.2391863354     -0.0550670143
C       0.8550783915     -0.6119077317     -0.4029295015      0.3989319583     -0.3141895289      0.4651111744     -0.0117928059
C      -2.5541424364      0.9871774432     -0.9578754793      0.1489878535     -0.4393595222     -0.1933697222     -0.1616633716
C      -2.8821330281     -1.2649715018      0.0846026366      0.1420168697      0.3316573175     -0.4531635250     -0.1628075715
C      -0.6401826705      0.3802972695      1.3125257228      0.2747264774      0.5520475842      0.1974720572     -0.1399924256
C      -3.3992948363     -0.2861901678     -0.9667727049      0.2331950182      0.1065884107      0.3477487114     -0.1453597199
C       1.5879594874     -1.4877640999      0.6133255142      0.1245071538      0.2428976845     -0.5632969472     -0.2745055827
C       0.0998306983      1.7017171745      1.4355683208     -0.2409597948     -0.3799880292     -0.2844183791     -0.0849341109
C       2.9608499429     -1.8582412299      0.0550905969     -0.3883862639      0.1398774858      0.1133213132     -0.0421120471
H      -0.9188384440      0.1352033027     -2.0757908345      0.0891004503     -0.1588077570     -0.1890945757      0.1217849267
H      -0.4674952713      1.5576570387     -1.1182622458      0.2128081125      0.1311768110     -0.0044060269      0.1300530294
H      -1.0398244765     -2.1666973389      0.7313319033      0.0805620717     -0.1289770196      0.0831330212      0.2623779801
H      -1.1910104502     -2.0009811988     -1.0362803290      0.1247872526     -0.0275823358     -0.2891494872      0.0893363078
H       1.3936696416      0.3291755161     -0.5444599546      0.0631650182      0.2423210294     -0.0783255778      0.1246001585
H       0.8119301880     -1.1232526089     -1.3693381570     -0.0883892705     -0.0735365769     -0.2425221192      0.1194412014
H      -2.8404350461      1.6335620921     -1.7920461734     -0.0406304247      0.2599534786     -0.1765683912      0.0929453502
H      -2.7186973486      1.5459465046     -0.0333607897     -0.0402083367      0.2071333253      0.2220340482      0.1048182161
H      -3.0968419798     -0.9032041615      1.0922467625     -0.0384688479     -0.0629102443      0.2230211885      0.1337608140
H      -3.3850956188     -2.2287337668     -0.0275204498     -0.0855813727     -0.2849418837      0.1072834578      0.1014183029
H      -1.6927920088      0.5214132017      1.5542987912     -0.1389433782     -0.0992228209      0.0289612496      0.1644299471
H      -0.2344732003     -0.3403460562      2.0227761821     -0.0349617767     -0.1276634610      0.0733137832      0.2802969637
H      -4.4425971555     -0.0356735810     -0.7616224482     -0.3205684728      0.0332326457     -0.0408439125      0.0790390273
H      -3.3485839987     -0.7470694472     -1.9592908375     -0.0197044753     -0.1037084311     -0.3067274141      0.0728197772
H       1.7164851752     -0.9571411042      1.5582735557     -0.0542991450      0.0332489063      0.2144515084      0.1391082075
H       1.0240154640     -2.3989967911      0.8197708744     -0.1349764696     -0.1249454937      0.1601143252      0.1731097072
H       0.0353503737      2.0067260671      2.4800184715      0.0024573743      0.0907115736      0.2978172955      0.0737103437
H       1.1534148271      1.6071192329      1.1779016013      0.3601216146      0.0250299498     -0.0105775430      0.0447477781
H      -0.3467142393      2.4866743750      0.8256229139     -0.0964954851      0.3199688475     -0.1443660262      0.0269541811
H       3.4876245043     -2.4782415421      0.7791096680      0.2070244048     -0.1837930840      0.1694802553      0.0555945226
H       2.8622989367     -2.4183219847     -0.8759903929      0.0545887947     -0.1951840142     -0.2934677062      0.0198056575
H       3.5561501964     -0.9640085685     -0.1365062396      0.2710707476      0.2365425542     -0.0890910997      0.0189665074
B      -0.7422805140     -2.4685251608      3.2147403218     -0.1146904732      0.3516501618     -0.3203183552      1.3926544723
F      -1.8431247686     -1.6570110627      2.8075319992     -0.6067536792      0.1184375017      0.2390554843     -0.5816253348
F       0.3758798780     -1.6080776192      3.3449295426      0.6152640909      0.3924824761      0.3843602650     -0.5715402563
F      -0.4689741007     -3.3526490080      2.1428008675      0.1338276758     -0.7450297776     -0.4749024838     -0.5708220610
F      -1.0131358009     -3.1336857809      4.3718299760     -0.1729088104     -0.5510665685      0.9048353137     -0.5167328579
