38
Properties=species:S:1:pos:R:3:forces:R:3:charge:R:1 energy=-208.59979871077945 homo_lumo=5.8033472536269635 dipole="1.5994246466955604 0.5409863375229433 2.4587712258101098" free_energy=-208.59979871077945
N      -0.5837780080      0.4877869413      0.0510046968     -0.0010602899     -0.0042793448      0.0030573972     -0.4903101526
C      -1.6080450502      1.5422764536     -0.3504474755      0.0047030509      0.0023369747     -0.0073219103     -0.0543797946
C      -1.2355101116     -0.8852744280     -0.0802277958     -0.0036727797      0.0031567960      0.0045699602     -0.0615264388
C       0.5592683309      0.5923949405     -0.9456072336     -0.0117041595      0.0111797193     -0.0132140241     -0.0515472655
C      -2.8836511229      1.4706642192      0.4689224077     -0.0079315111     -0.0023053069      0.0092068696     -0.1772136408
C      -2.5253014438     -1.0119093106      0.7161016137     -0.0026397741      0.0028228331      0.0060431081     -0.1677669747
C      -0.1048496734      0.6802044930      1.4710620061     -0.0008203367     -0.0042958899     -0.0024399795     -0.0707243336
C      -3.5243973474      0.0870933417      0.3579886483      0.0018776557      0.0015344937     -0.0003931001     -0.1832633671
C       1.7354751940     -0.3386567198     -0.7032394295     -0.0017618384     -0.0093382255      0.0076016823     -0.2561205718
C       0.6093962282      1.9905246395      1.7336126214      0.0046899271      0.0088655053      0.0031879192     -0.1009021672
C       2.7457582780     -0.1848157613     -1.8420799197     -0.0047254396      0.0073039981     -0.0008685404     -0.0669182443
H      -1.8377405813      1.3452062669     -1.4095577674     -0.0070915890     -0.0015712889      0.0078215970      0.2461515102
H      -1.1066700380      2.5171585019     -0.2699321681      0.0004427293     -0.0056666515     -0.0036824301      0.1075894640
H      -0.4879044549     -1.6201521351      0.2494364779     -0.0025813333      0.0026498027     -0.0046499410      0.1088485190
H      -1.4426513868     -1.0193106074     -1.1525058732     -0.0089410222      0.0008533030      0.0009022302      0.2419091019
H       0.8863387398      1.6437929352     -0.9281816686     -0.0090967839     -0.0082297976     -0.0059486105      0.1238393761
H       0.0936857410      0.3947033234     -1.9244305592     -0.0016932158     -0.0040744755      0.0082678203      0.2295399197
H      -3.5618934785      2.2302029906      0.0456739655      0.0017381869      0.0071757008      0.0128632396      0.1162822370
H      -2.7049588288      1.7543567637      1.5221677538      0.0026149541      0.0000195110      0.0008254275      0.0699659176
H      -2.3244320196     -1.0372176024      1.8021227901      0.0029966621      0.0036361582      0.0034001681      0.0659441904
H      -2.9459668056     -1.9950529399      0.4472879177      0.0019748728     -0.0040271821      0.0188952221      0.1226746980
H      -0.9903656908      0.5923062001      2.1110356868      0.0047229726     -0.0015819940      0.0029546571      0.1729478747
H       0.5477099536     -0.1772129163      1.6912437541     -0.0018442974      0.0021834341     -0.0040039971      0.1350842817
H      -4.4110863801      0.0215163755      1.0084353173     -0.0017235188      0.0002249026      0.0001286247      0.0608791745
H      -3.8509011774     -0.0619034253     -0.6833717712      0.0008705730     -0.0009063135      0.0103300734      0.1909889666
H       2.2319666729     -0.1201390615      0.2577808553     -0.0078412705      0.0010658080     -0.0056141916      0.0931810870
H       1.3964041448     -1.3866381579     -0.6712216184     -0.0001304393      0.0119640412      0.0008493429      0.1182849524
H       0.8951551106      2.0141069200      2.7960472255      0.0081681371      0.0042724934      0.0043103196      0.0715003141
H       1.5284236427      2.0965107887      1.1403355658     -0.0046539685      0.0027017903      0.0114741994      0.0591172015
H      -0.0356869551      2.8611153864      1.5494883278      0.0085608551     -0.0067811319      0.0086278990      0.0614374882
H       3.6051512661     -0.8526508329     -1.6869285312      0.0069837811      0.0060358831     -0.0070834020      0.0487482304
H       2.2838342050     -0.4363770482     -2.8084208447     -0.0015072974      0.0024800609      0.0020371483      0.0643744031
H       3.1240977667      0.8475961202     -1.9042933044     -0.0015506517      0.0021486539      0.0010877105      0.0404083666
B      -2.8106258024     -0.2918257322     -3.3341503486      0.0164507653     -0.0065012577     -0.0193023544      1.3913831472
F      -3.1332510394     -1.4088414350     -2.5018980003      0.0028187039     -0.0140500584     -0.0117070866     -0.5732450333
F      -3.1861872435     -0.5094317241     -4.6549559033      0.0024101249     -0.0046477485     -0.0188309680     -0.5256126139
F      -1.3718488094     -0.0902415661     -3.2441949491      0.0063116374     -0.0093779809     -0.0122774501     -0.5882103043
F      -3.4353041419      0.8773891899     -2.7935368635      0.0046359275      0.0030227844     -0.0111046306     -0.5733395194
