28
Properties=species:S:1:pos:R:3:forces:R:3:charge:R:1 energy=-155.7338277261833 homo_lumo=3.2356298779684503 dipole="-1.929265540379288 0.6592015718085994 0.04448748869709051" free_energy=-155.7338277261833
N       0.6363976448      0.7879399330     -0.0843597989      0.1495673113      0.3872340486      0.0289649813     -0.5617292219
C      -0.8186386894      1.0522610946      0.1204052291     -0.4212292986     -0.2503636507      0.0235480652      0.0440051391
C       0.8876111550     -0.5131502338      0.6145576203     -0.2419692633     -0.7096728438      0.2410157759     -0.0009494043
C      -1.4862833786     -0.3192393016      0.0511249383     -0.0342000274      0.0989620668     -0.0448109512     -0.1428330549
C      -0.3838664390     -1.3304029799      0.4111318716      0.0265257248      0.1691290805     -0.0275964556     -0.1353352158
C       1.4790507324      1.8650311006      0.4936833130      0.1728834028      0.2485258938     -0.0841394707      0.0721933897
C       0.9489402821      0.6484387835     -1.5326081563      0.0791572788      0.0591151744     -0.2416896197      0.0719663675
H      -1.1739920089      1.7533171960     -0.6357793879     -0.0311312552      0.2465617485     -0.1546136549      0.0984481954
H      -0.9406027690      1.4967544552      1.1110553859      0.0780192818      0.0972516814      0.2150341354      0.1172124598
H       1.0719330680     -0.2961751737      1.6675014118      0.0653961433      0.1613162142      0.2027807763      0.1021050451
H       1.7805014986     -0.9683986366      0.1718563922      0.3523592289      0.0492549785     -0.1028089346      0.2300915917
H      -1.8740155362     -0.5099382326     -0.9520167110     -0.1608116353     -0.0338230069     -0.2064756673      0.0787386630
H      -2.3225866585     -0.3662790429      0.7506491948     -0.2717468174      0.0255072896      0.0910163033      0.0881771925
H      -0.6299760731     -1.8798389724      1.3213239725     -0.0076824296     -0.1895304181      0.1774653650      0.0889589661
H      -0.2533092813     -2.0543651754     -0.3955602396      0.0495519416     -0.2228757636     -0.1539301162      0.0803727267
H       1.3374551417      2.7777179395     -0.0819387565     -0.1673276865      0.2771941627     -0.1968838824      0.0430210099
H       1.1881212532      2.0242274265      1.5301662850     -0.1111825696     -0.0069686421      0.2838005241      0.0415715911
H       2.5200243967      1.5202207787      0.4563811337      0.3300178483     -0.2788611250      0.0750357715      0.1765277028
H       0.2917960390     -0.0991150774     -1.9703070929     -0.1934166910     -0.2351708242     -0.1031048599      0.0755895597
H       0.8036876105      1.6094547853     -2.0226005399     -0.1610390339      0.3133947537     -0.0683333303      0.0383984915
H       1.9886910523      0.3127120510     -1.6173060384      0.2922627607     -0.2746351604      0.0800486851      0.1679765176
C       5.6086879199     -1.0148567015     -0.2517437648     -0.5030431989      0.1949855976     -0.0582580339     -0.0794809834
C       4.1268536601     -0.5903391731     -0.1527535912      1.1605809944     -0.1525817365      0.0341186246      0.9135856005
O       3.3531353320     -1.0219023645     -1.0389259221     -0.8060174562     -0.5586069892     -1.0899717988     -0.8467332587
O       3.8096603233      0.1375923966      0.8116440385     -0.1036272163      0.8179425541      1.0058704412     -0.8371039471
H       5.8563765800     -1.2888171796     -1.2754170870      0.1041608379     -0.1551379672     -0.3001120049      0.0206223705
H       6.2506735578     -0.2042307756      0.0884631449      0.2230667944      0.2070393926      0.1684234945      0.0232693392
H       5.7585697401     -1.8776693179      0.3967667534      0.1308750300     -0.2851865092      0.2056058372      0.0313331667
