46
Properties=species:S:1:pos:R:3:forces:R:3:charge:R:1 energy=-252.31701403930967 homo_lumo=0.12295163832070832 dipole="-5.589138210489698 -1.2170808245387175 -0.5104017922225422" free_energy=-252.31701403930967
N       0.9858085055     -0.3087852705     -0.0036739137     -0.2845016596      0.0193204478     -0.0294963786     -0.5205986676
C       2.0627551704      0.0794447256     -0.9669909690      1.5257856919      0.9861151797     -1.6762639635     -0.0189193001
C       1.6460091680     -1.2433900732      0.9586405582      0.6246918774     -1.7033648077      1.6398757934     -0.0098195298
C       0.4934427623      0.9003941296      0.7346147796     -0.8123243214      1.3782918425      0.4129281494     -0.0446149465
C      -0.1124065161     -1.0168659008     -0.7395077911     -1.4302886213     -0.6159983016     -0.3409882717     -0.0356012810
C       3.2779771887     -0.7901945633     -0.7035539868      0.2973258993     -0.4775992783     -0.6439105738     -0.1358621936
C       3.1448039801     -1.1646866321      0.7452114009      0.4768094864      0.3606553841      0.6571460155     -0.1660184955
C      -0.2523455250      1.9315876315     -0.1474041759      0.1967335069     -0.3655444111      0.1295773862     -0.2149787626
C      -1.3045568557     -1.4497594550      0.1483885313      0.3671835053      0.1872428979     -0.1585274897     -0.2141409032
C      -0.5616413968      3.2062836690      0.6460030281      0.0752942956     -0.0183832042      0.0663743881     -0.2126189591
C      -2.2984000161     -2.3008245441     -0.6505776369      0.0484495317     -0.0022770662     -0.0485305912     -0.2108079634
C      -1.2980539656      4.2287803706     -0.2152443039     -0.0645702422      0.1460862401      0.0135353113     -0.0892671547
C      -3.4799737734     -2.7308869631      0.2145528241     -0.1367747890     -0.0864174963     -0.0260223617     -0.0892910323
H       2.3893385852      1.1362622121     -0.8334984062     -0.5214815120     -0.3007751451      0.3218900215      0.1558258861
H       1.7556441627     -0.0170681355     -2.0335060867     -0.3449438933      0.0292845189      0.5750102505      0.1260467519
H       1.3521684485     -2.3041877412      0.7841951497     -0.3503599449      0.5894519841     -0.2878646004      0.1329656852
H       1.4030993885     -1.0245274110      2.0234824968     -0.2901999809      0.1756417346     -0.5657388814      0.1285689773
H      -0.1818522496      0.6029334382      1.5670447407      0.2463716111     -0.2661333055     -0.4039299546      0.1507560288
H       1.3544268076      1.4112354875      1.2254828716     -0.0023315619     -0.4649611234     -0.3671516064      0.1656652226
H      -0.5033453347     -0.3810504375     -1.5643145335      0.3530038414      0.0730593930      0.4052482315      0.1540486062
H       0.3007740614     -1.9229656163     -1.2409541895      0.2672459038      0.3925554323      0.3512979739      0.1440905959
H       3.2331484395     -1.7040102736     -1.3366226654      0.0908900841      0.2377725538      0.0970481181      0.0732276959
H       4.2281867861     -0.2462029594     -0.8979964794     -0.1685352582     -0.0830646972      0.0053209102      0.1428106056
H       3.5761254401     -0.3638732088      1.3851474370      0.1048129021     -0.2916683645     -0.1880202809      0.1682315010
H       3.6468294392     -2.1322968181      0.9648121573     -0.1651063818      0.4215305100      0.1483763511      0.0946379942
H       0.3562631663      2.1989087670     -1.0362349434     -0.1265259952     -0.0902771699      0.1480073191      0.1238691365
H      -1.2139091459      1.5052912440     -0.5015886408      0.2285690751      0.0472417539     -0.0177172435      0.1214475529
H      -0.9479111096     -2.0361105883      1.0208413521     -0.0618318543      0.1650082965     -0.1362253609      0.1196793086
H      -1.8430434624     -0.5564124072      0.5271955034      0.1716728065     -0.1761725964      0.0079206434      0.1275651334
H       0.3843946794      3.6612237002      1.0116826990     -0.2078808748     -0.1829634448      0.0324826896      0.1094964649
H      -1.1940269492      2.9544794250      1.5251123624      0.2456932164      0.0384504172     -0.0958407886      0.0954505515
H      -2.6803775860     -1.7154342060     -1.5151844142      0.1843225929     -0.1762154516      0.0945820913      0.0981050957
H      -1.7891515656     -3.2096453284     -1.0384196901     -0.0692620021      0.2571876133     -0.0395319024      0.0976746128
H      -2.2554158368      3.8046540785     -0.5861430411      0.2461414051      0.2031004419      0.0282449922      0.0416001230
H      -0.6694503290      4.5275920377     -1.0808700674     -0.2637909904     -0.0351007042      0.2003011074      0.0524518510
H      -1.5212959232      5.1325250297      0.3898525618      0.0113615076     -0.2076312762     -0.2879377289      0.0634185202
H      -4.0158948456     -1.8409871948      0.6080647117      0.0923808949     -0.3146426831     -0.0397187096      0.0467603646
H      -3.1287825470     -3.3534343417      1.0647099450     -0.1989774616      0.1896753690     -0.1857287120      0.0491362398
H      -4.1881828394     -3.3303537014     -0.3952723397      0.1228817037      0.1607630795      0.2917008294      0.0621811577
C       6.7133061366      0.6584397640      2.5315697979     -0.6907473379     -0.3598754454      1.1687938826     -0.2025971803
C       7.2689882041      1.0668279213      1.2041945758      0.5995353437     -0.1959608313      0.2388777758      0.8491470632
O       8.4738477280      1.0333868591      1.0123002639      3.8402604530     -0.6201882868      0.9587662773     -0.7690711900
O       6.5229885559      1.4347270750      0.3111320522     -4.3915122220      1.0417967580     -2.5859966614     -0.8063708215
H       6.9843260682     -0.3976853067      2.7408276779      0.0033316202      0.2589018255      0.1152781417      0.0145744860
H       7.1344062524      1.3071978014      3.3282079202     -0.0698564606     -0.2902867689     -0.0858545987      0.0304476587
H       5.6065567236      0.7538942542      2.5404598643      0.2310546094     -0.0336318141      0.1024120097      0.0006975100
