27
Properties=species:S:1:pos:R:3:forces:R:3:charge:R:1 energy=-154.90534809648108 homo_lumo=3.1650046576601008 dipole="-1.0108778032398333 1.6001584239049724 1.5333911989259994" free_energy=-154.90534809648108
N       0.6007843817      0.1494318583     -0.4986720550     -0.4354681020     -0.0454282264     -0.2565708944     -0.5135380844
N       2.3945420488      0.4464792440      0.6509419619      0.3748572997      0.0171161875      0.3988127068     -0.5343957038
C      -0.4695272341     -0.4946307548     -1.2607943270     -0.2245367072     -0.4360085544      0.1452549813     -0.0500530474
C       1.5645612406     -0.4771078660      0.1705007583     -0.0049870779     -0.2817867656      0.1977365000      0.6328130942
C       0.8345009844      1.4968140106     -0.4660225783     -0.0011312599      0.3260122170     -0.0688289043      0.2183971484
C       1.9701942207      1.6847756418      0.2567188577     -0.0053917997      0.2955582463     -0.0364218123      0.2255339497
C      -1.0921169142     -1.6429197186     -0.4808487300      0.1477822024      0.3170409658     -0.1564705045     -0.0906611423
C       3.6462769646      0.1470917656      1.3262483080      0.0533132629     -0.0453834078     -0.0746472075      0.1160591013
H      -1.2105810067      0.2743723749     -1.4931097141     -0.0795064246      0.2309922896      0.0504428079      0.0925507143
H      -0.0276609261     -0.8659999636     -2.1906231341      0.0698124326     -0.0432590679     -0.0916056867      0.1777370992
H       1.6660941640     -1.5410922229      0.2918625555      0.0133142942     -0.1814177217     -0.0892517665      0.1294491566
H       0.1875274414      2.2018149330     -0.9577164901     -0.1410337431      0.1389458305     -0.1147664859      0.0311998038
H       2.5002148356      2.5837223329      0.5180475832      0.1280758737      0.1921457506      0.0603152463      0.0307221304
H      -0.3841975461     -2.4655079911     -0.3935509723      0.1679749369     -0.2598284173     -0.0445746178      0.0808918065
H      -1.9684104620     -1.9976348206     -1.0216842343     -0.2510379615     -0.1595486845     -0.1241334664      0.0569148390
H      -1.3955825504     -1.3180190352      0.5142447006     -0.1703653720      0.1311696765      0.3055636353      0.0398951339
H       4.3362504091     -0.2667647303      0.5879470993      0.1014785023     -0.1053554354     -0.1541831886      0.1112396081
H       4.0490389922      1.0639735751      1.7516234277      0.0133821613      0.2109461188      0.1634314459      0.0483317384
H       3.4656307986     -0.5864128149      2.1107542682     -0.0192323348     -0.1120579003      0.2154802887      0.0510836555
S       2.9720789892     -2.1546325663     -2.1937978338      0.0087440120      0.0517026604     -0.2436846156      1.7843794615
O       3.6675366031     -1.3374740759     -1.2032081298      0.6985324554      0.7763157957      0.7486944675     -0.8305376500
O       1.6043376109     -2.4820940518     -1.7985088319     -1.2606925990     -0.3028448607      0.2663084484     -0.8330531033
O       3.7325785911     -3.2342966915     -2.7564137948      0.8281672583     -1.0615740136     -0.7834108612     -0.7569819098
C       2.7043911210     -0.9495550074     -3.5810260702      0.1043029275     -0.6202670776      0.9050277399      1.1458454929
F       3.8424653269     -0.4542870010     -4.0455347079      1.2438123229      0.4670142672     -0.4867264882     -0.4425564395
F       1.9708340371      0.0827768995     -3.1196152915     -0.6828969779      1.1463757950      0.3436008245     -0.4756656407
F       2.0336414967     -1.4900297868     -4.5902724996     -0.6772695826     -0.6465756679     -1.0753925926     -0.4456012126
