31
Properties=species:S:1:pos:R:3:forces:R:3:charge:R:1 energy=-175.75096451513227 homo_lumo=2.7330863348970036 dipole="-4.263929284999195 1.5008476534236956 -1.5902067196627483" free_energy=-175.75096451513227
N       0.9929048550     -0.6150101518     -0.1542786115      0.3174016872     -0.0424600369     -0.3060851626     -0.5118594695
N      -1.0703807805     -0.5544129397      0.4599789235     -0.5294836377      0.1381252018      0.0098019746     -0.5601107913
C       2.2391634997     -0.3058899588     -0.8533463813      0.3592248650      0.3938925365      0.2037726478     -0.0180447715
C       2.8816486950      0.9521081781     -0.2614778789     -0.4466233595      0.1511271646     -0.3317801345     -0.2367142377
C      -0.2017903957     -0.1128565907     -0.4540651198     -0.1880185854      0.0591015834     -0.1355345800      0.5852055944
C       0.8931274393     -1.3814877152      0.9716423767      0.0568450847     -0.2505404035      0.2251598313      0.2470653477
C      -0.4076301255     -1.3458216178      1.3613881432     -0.0220376085     -0.0548553307      0.0958390501      0.2139349878
C       2.0939651596      2.2206619480     -0.5695931560      0.2029511503     -0.4204680413      0.0553440170     -0.0692263582
C      -2.4872300197     -0.2379690527      0.5099392119      0.0730361718     -0.0321461195      0.0428061361      0.1123825266
H       2.0086912061     -0.1739932180     -1.9140351627     -0.0991387879     -0.0227335161     -0.2331449862      0.0908523148
H       2.9098777378     -1.1580069977     -0.7260261956      0.1047388556     -0.1941369894      0.0101862809      0.1664300006
H       2.9783972727      0.8259102047      0.8189235178      0.1568906698     -0.1387731168      0.2263575420      0.1666800429
H       3.8877371784      1.0247050247     -0.6812707477      0.2869060097     -0.0741316230     -0.0329123846      0.1179815980
H      -0.4366434638      0.5149960887     -1.2959613795     -0.0227335776      0.1356226389     -0.1562429369      0.0894179558
H       1.7405789272     -1.8926283097      1.3963278871      0.1973409904     -0.1117714273      0.1127273269      0.1362666661
H      -0.9106198484     -1.8098471802      2.1913875050     -0.1109876388     -0.1314434514      0.2146982718      0.0347464674
H       1.0994186390      2.1792045944     -0.1205751346     -0.2949185256      0.1235426781      0.1687198629      0.0428355144
H       1.9856720003      2.3609189562     -1.6464351245     -0.0476367977      0.1245095986     -0.3518059068      0.0194049749
H       2.6180658742      3.0826813037     -0.1583835802      0.0604416015      0.3171630761      0.1151947192      0.0607784303
H      -2.7554246214      0.3376502141     -0.3740927580     -0.0882445957      0.1022920829     -0.1708423360      0.0672501541
H      -3.0611766933     -1.1643912756      0.5374562421     -0.1346673996     -0.1914615123     -0.0524307903      0.0757673715
H      -2.6938997705      0.3455857152      1.4080007841     -0.0578731403      0.1625771499      0.1737579911      0.0771403763
N       5.4261151690     -1.9581171402      2.9425040911      0.0416331200     -0.0864829849     -0.0185433248     -0.8607438382
S       6.6325601441     -2.8794521045      2.3933764173      0.1106446130      0.2721269227      0.4986447453      1.9228381399
S       4.3435293551     -1.5645653903      1.8935863378      0.0014483658      0.3364229015      0.5029717520      1.9630673286
F       7.4764442649     -1.8402970974      1.4908923031      0.4050270785      0.5834103270     -0.4786533421     -0.4583013831
F       3.4316375921     -2.9354235430      1.6536500698     -0.2886935412     -0.6671275029     -0.0594714827     -0.4905497941
O       7.4771733402     -3.1718273544      3.4993738445      0.9589669590     -0.2040612601      1.3319063867     -0.7191825209
O       6.2562668968     -3.9199121387      1.4959265320     -0.6379605834     -1.0675698742     -1.1779883728     -0.7199007978
O       4.7455174055     -1.2331588738      0.5522461364      0.5965827396      0.0255305224     -1.1638412758     -0.7592715071
O       3.3852447166     -0.6885634834      2.5168404316     -0.9610621829      0.7647188058      0.6813884801     -0.7861403227
