27
Properties=species:S:1:pos:R:3:forces:R:3:charge:R:1 energy=-154.57142727591292 homo_lumo=1.9435952924238014 dipole="-0.6502622636276489 4.534593526853863 0.2332612530854039" free_energy=-154.57142727591292
N       0.0745716764     -0.6242472289     -0.4446542771     -0.9398565671      0.7899884642     -0.4446232166     -0.5156852674
N      -1.9885359278      0.1288821058     -0.1045875840      0.7500129364      0.4108461021     -0.5541322693     -0.5564844726
C       1.4458687881     -0.7278252712     -0.9395430104      1.0160447798     -0.3450815112     -0.2905326145     -0.0335653744
C       2.4575494764     -0.4001306687      0.1654365272     -0.0186594784      0.2108465269      0.2150301057     -0.2410893580
C      -0.8368503011      0.3102048049     -0.7788510515      0.3876794629      1.1131067534     -0.9875126111      0.5643741567
C      -0.5226366100     -1.4226842515      0.4634462273     -0.8074906416     -0.8645786217      1.1582815106      0.2627760855
C      -1.8036212126     -0.9562250171      0.6727200547      0.5839253687     -1.3925055444      1.0000790643      0.2472717479
C       2.3054219048      1.0323457154      0.6769808235      0.0142142921      0.0288841972      0.1149468183     -0.1046925954
C      -3.1788681836      0.9667939835     -0.1563219963     -0.4743468623      0.3548454536     -0.1073554113      0.0638653388
H       1.5974466267     -0.0345626930     -1.7963620870     -0.3811096968     -0.1646530746      0.3109522003      0.1096413435
H       1.6225305563     -1.7607897435     -1.3092944552     -0.3749264088      0.1606982779      0.1424444947      0.1907590774
H       2.3360712197     -1.1093371136      1.0125167744      0.1092251669      0.0334151636     -0.3106465120      0.1359098929
H       3.4836151115     -0.5274865519     -0.2419238239     -0.3494078597     -0.1832704261      0.0105898276      0.1224753704
H      -0.6578168073      1.1162470925     -1.4801668099     -0.0203046880     -0.0412215958     -0.0240131681      0.0917373488
H      -0.0573806688     -2.2678212056      0.9519717027      0.1825768052     -0.3743390707     -0.2199805923      0.1105494528
H      -2.5356456827     -1.3672495457      1.3554914911     -0.1942982617      0.0469322014     -0.0785022709      0.0644617158
H       1.3233728486      1.1639443017      1.1790349647      0.2664194345      0.0889672354     -0.1115652304      0.0603891520
H       2.3861434693      1.7544062600     -0.1631863262     -0.0168099416     -0.0899851183      0.2728894102      0.0395927652
H       3.1059356604      1.2525917828      1.4140770451     -0.3032880842      0.0473822343     -0.2008201306      0.0724879781
H      -3.0189982523      1.8290697335     -0.8387573291      0.0471919388     -0.4433768127      0.2715975732      0.0820212092
H      -4.0401075295      0.3704993811     -0.5233168841      0.3462035930      0.1517815681      0.1086194684      0.0997228877
H      -3.4057682892      1.3536370496      0.8594947800      0.1507975307     -0.1771616706     -0.3431965527      0.0887017529
B      -0.0048267867     -5.1967454233     -0.4405370133     -0.0690135973     -0.8116814403     -0.3064390873      1.3060646589
F       0.0533453192     -6.6134907795     -0.5229891684      0.0205052589      0.1108127026      0.0277780844     -0.5497612838
F      -0.9116402685     -4.8209044727      0.5858220406     -0.2314456606      0.4571143825      0.3728607297     -0.5715492844
F      -0.4485671723     -4.6674951359     -1.6815422542     -0.0575687112      0.3660304326     -0.1797076340     -0.5659331142
F       1.2867780351     -4.6858862480     -0.1431672318      0.3637298914      0.5162031906      0.1529580139     -0.5740411842
