31
Properties=species:S:1:pos:R:3:forces:R:3:charge:R:1 energy=-174.6888258123594 homo_lumo=2.92529181111363 dipole="2.2965544754425036 1.842660106137318 -1.3004944310466355" free_energy=-174.6888258123594
N       0.2675703087     -0.2092087184      0.7937816635     -0.0200654774      0.1907150762      0.1602251629     -0.5133331091
C      -1.8898346404      0.3412532488     -0.2277777386     -0.2020703987      0.1919811743      0.5320367149     -0.1868818727
C      -1.0513306163      0.3843058549      1.0542228714     -0.4490941969      0.0715328575     -0.4667670696     -0.0277198870
C      -3.3472322744      0.6906652548      0.0896968970      0.2367576141     -0.1300711693     -0.5009614715     -0.2227122984
C      -4.2064420814      0.6393356804     -1.1712163412      0.1899329561      0.0933390974      0.3987788906     -0.0473158299
C       1.2401180766      0.5547071709      0.2693292678      0.4005535197      0.1257950225     -0.1636317004      0.2778873405
C       0.4583826789     -1.5153004359      1.0245542578      0.0834421795     -0.4369421964      0.1106317755      0.2619946022
C       2.4678192976      0.0107257593     -0.0381912124      0.0032803734      0.0044202876     -0.0283218911     -0.0224095622
C       1.6728627148     -2.1059766439      0.7316644334      0.1601630995      0.1021166853     -0.1068373872     -0.0268767980
C       2.6957922613     -1.3421031870      0.1933167712     -0.1424638726      0.0696273258      0.0346075370      0.0383565495
H      -1.8407065898     -0.6670157449     -0.6457360591      0.0064313170     -0.2439739183     -0.0966621602      0.1393526862
H      -1.4729604522      1.0391763231     -0.9616112349      0.1056460036      0.2245624588     -0.2544457788      0.0800877378
H      -1.5298401830     -0.1980862718      1.8421705563     -0.0194628089     -0.1545769725      0.1813461881      0.2104460921
H      -0.9037830756      1.4121276386      1.3939118603      0.1376172003      0.2115326503      0.1041606523      0.0905663118
H      -3.7305156846     -0.0267202632      0.8207775271     -0.0492604582     -0.1624889932      0.2169257882      0.1545388987
H      -3.3967302944      1.6910917714      0.5324654226     -0.0303452201      0.2751024361      0.1624682304      0.0692846365
H      -5.2369929099      0.8927874575     -0.9241094576     -0.3543113200      0.0599147493     -0.0288090531      0.0386339247
H      -3.8417490900      1.3475014414     -1.9170789538      0.0658968447      0.2135610390     -0.2750897832      0.0171361188
H      -4.1883820310     -0.3621403890     -1.6017606446     -0.0249968141     -0.3047827689     -0.1469623780      0.0433337910
H       1.0128465896      1.6020201958      0.1099247978     -0.1189043385      0.1508070471     -0.0004284486      0.0916855586
H      -0.3664049772     -2.0754721834      1.4479157567     -0.0828977603     -0.0288179528      0.0394822052      0.2575889009
H       3.2396762128      0.6443773595     -0.4562295259      0.1642030071      0.1786370914     -0.0955919600      0.0545074312
H       1.8020770188     -3.1621600427      0.9308712772     -0.0521593635     -0.2676167898      0.0856725970      0.0604822478
H       3.6561034252     -1.7844196427     -0.0423317070      0.2423249407     -0.1131753532     -0.0574470558      0.0549271818
P      -2.6269439667     -3.0220406200      2.3645312488     -0.0617738807      0.0165300784     -0.0641935361      2.1902675513
F      -3.4805437697     -4.1819572075      1.6164737962     -0.1275563762     -0.1826168104     -0.1172444992     -0.4909538700
F      -3.9632126224     -2.1099129847      2.5979512200     -0.1831020935      0.1351286922      0.0334539039     -0.5047021285
F      -2.7888883690     -3.7381209362      3.8094263850     -0.0116810781     -0.0984665968      0.2250312973     -0.4892183517
F      -1.6983847302     -1.8010827637      3.0732576737      0.0322323575      0.0492476134      0.1313255360     -0.5351302319
F      -1.2090913649     -3.8492215502      2.0815456282      0.1624442629     -0.0914399117     -0.0232192168     -0.5245280150
F      -2.3909299120     -2.2444607349      0.8806688133     -0.0607802186     -0.1495819492      0.0104669104     -0.5392956069
