32
Properties=species:S:1:pos:R:3:forces:R:3:charge:R:1 energy=-178.53672497549596 homo_lumo=1.5583678748319878 dipole="-2.085019824606322 1.962781845120691 1.1794735512990404" free_energy=-178.53672497549596
N       0.3555540808     -1.5878340355      0.4948489002     -0.0178656938      0.0061978626     -0.0030966729     -0.5013270229
N      -1.7317981837     -1.0159545237      0.3154073064      0.0192917554     -0.0117650566     -0.0035486843     -0.5168815999
C       1.7574874800     -1.6556627360      0.9453877024     -0.0096824118      0.0073886138      0.0050284869     -0.0019166742
C       2.6305351994     -0.7129581238      0.1281757735     -0.0002988664      0.0110594491      0.0004446855     -0.1762022075
C      -2.9981528930     -0.3113317634      0.5166730225      0.0003247220      0.0028954517      0.0021380788     -0.0003020665
C      -0.6199859425     -0.8653322232      1.0569336359     -0.0006475711      0.0019817942     -0.0015584647      0.5605317891
C       2.2266388808      0.7550737397      0.2045689865     -0.0063141260     -0.0015294469      0.0026545838     -0.2617518089
C      -0.1187481371     -2.2116764420     -0.6452297170      0.0124849797      0.0085384328      0.0093335847      0.1912508666
C      -1.4327741125     -1.8455917634     -0.7524046315     -0.0020691059     -0.0028889171      0.0025586964      0.1671469128
C      -3.1400158578      0.8718458869     -0.4390467824     -0.0037729053     -0.0010164022     -0.0065623176     -0.2264365875
C       3.1586402585      1.6487774874     -0.6113075939     -0.0057599338     -0.0072918767      0.0062132720     -0.0642749467
C      -2.0758058217      1.9420766118     -0.2211289416     -0.0075610674     -0.0111458768     -0.0055613163     -0.1154336891
H       1.7605072575     -1.4126315452      2.0203793175      0.0044770167     -0.0208216619     -0.0076189859      0.0707137480
H       2.0875116682     -2.6947461017      0.7492687942      0.0087830797      0.0003836596      0.0001922216      0.1543873940
H       2.6282529773     -1.0936058815     -0.9099589580      0.0093420529      0.0086490649      0.0058793335      0.1419939592
H       3.6656242398     -0.8482438317      0.4883066291     -0.0034944841      0.0093449839      0.0153557498      0.1006474375
H      -3.0249491111      0.0235161078      1.5652191857     -0.0018945413     -0.0057276950      0.0002467782      0.1097249230
H      -3.8081141943     -1.0430901097      0.3770042591     -0.0070885592     -0.0001233362     -0.0029775910      0.1178955282
H      -0.5317966657     -0.2513744229      1.9439004534     -0.0047935411     -0.0142728062      0.0060686685      0.0852087602
H       1.1948012836      0.8769122094     -0.1737028897      0.0146296962     -0.0016174056     -0.0009712274      0.1466759112
H       2.2182744581      1.0893006269      1.2613067654     -0.0019477844      0.0030611557     -0.0199247278      0.0612954997
H       0.6033643302     -2.8768072709     -1.2036214707     -0.0044146757      0.0066943067      0.0050188680      0.1193227065
H      -2.1853561918     -2.1194740262     -1.4825396328      0.0064129771      0.0050481289     -0.0011172138      0.0359109660
H      -3.0981079896      0.4989218406     -1.4775336675     -0.0082298197      0.0064048572      0.0090040731      0.1138558641
H      -4.1497243840      1.2934697965     -0.2948797440      0.0102044065      0.0040363812      0.0099159262      0.1015635228
H       3.1518423724      1.3477605213     -1.6705198082     -0.0004002801      0.0030625802     -0.0030087292      0.0460724825
H       4.1951304178      1.5632845223     -0.2494236417      0.0040005166      0.0078137564      0.0012588154      0.0392647067
H       2.8608176107      2.7063699252     -0.5510735507      0.0061576017      0.0084861744     -0.0043918063      0.0298850303
H      -1.0655831696      1.5440345093     -0.3983469118      0.0006056731     -0.0067653886     -0.0048502385      0.1138744768
H      -2.1162207552      2.3360275650      0.8077577078      0.0091726891      0.0049910469     -0.0057736247      0.0303254957
H      -2.2233888248      2.7856855068     -0.9108731553      0.0026006082      0.0006382074     -0.0019223376      0.0560678845
Cl      2.4185523903     -3.7827306918     -1.4351709944     -0.0222524080     -0.0217100376     -0.0084278844     -0.7290892623
