57
Properties=species:S:1:pos:R:3:forces:R:3:charge:R:1 energy=-311.6780485026992 homo_lumo=5.214429452711446 dipole="0.4529778688341845 -3.4061268529438666 0.12024096292068212" free_energy=-311.6780485026992
N      -1.9162225610      0.2140640878     -0.0099249890      0.1434200906     -0.1418917815     -0.2482256982     -0.4995214654
C      -2.9641868845      0.8713803940     -0.8661127875     -0.7774776909      0.0724362805      0.2015751593     -0.0671105168
C      -1.9170699303     -1.2594919614     -0.2878506619     -0.4054450451     -0.4452735711      0.2309216418     -0.0058532301
C      -0.5918669177      0.7877525648     -0.4482213004      0.5065585666     -0.0996739610      0.4542123494     -0.0759818185
C      -2.1681995645      0.4519883035      1.4567104617     -0.0355639896      0.4605095561      0.4135963215     -0.0812300936
C      -4.3513506409      0.2724837344     -0.6928523427      0.3786986120     -0.3910334161     -0.2255450223     -0.1810963077
C      -3.2852772726     -1.9055958345     -0.0952603655      0.0634615164      0.2941568016     -0.3890151541     -0.1525538157
C      -4.3376096005     -1.2279950406     -0.9722250419      0.1234269913      0.1631528303      0.4548708673     -0.1438633773
C       0.6278576971      0.3037569080      0.3286519304     -0.2020371795      0.3463377443     -0.4662360232     -0.2070656594
C      -1.9906115800      1.8878789576      1.9242306447     -0.0115009717     -0.5564968253     -0.2881746020     -0.1244544831
C       1.8375300431      1.1434859055     -0.1053173549     -0.0172856251     -0.4997899099      0.5680297152     -0.1695016182
C       3.0970847629      0.7361052307      0.6630170451     -0.0557255186      0.5760380256     -0.6321256556     -0.1566835644
C       4.2950354486      1.5954131935      0.2462563379      0.0583848921     -0.5255238221      0.5102071313     -0.1989357561
C       5.5563121343      1.2011351841      1.0123579737     -0.2703897393      0.2375798426     -0.3058729459     -0.0441177871
H      -2.6357026358      0.7621783861     -1.9025284185      0.1720466651      0.0265170305     -0.2076727411      0.1199287676
H      -2.9711375554      1.9323562850     -0.6226612441      0.2072405741      0.0524331152     -0.1083388532      0.2686353260
H      -1.1814234803     -1.7236392172      0.3720046510      0.2184663271     -0.0224742706      0.0957227189      0.1357477420
H      -1.5913766827     -1.3864478097     -1.3241637097      0.0997657026      0.0420231967     -0.2379444666      0.1261096309
H      -0.6741310080      1.8700629810     -0.3671908733     -0.0287196229      0.1790977622     -0.0121311401      0.2818676469
H      -0.4807941284      0.5367293236     -1.5059472406     -0.0773891132     -0.0243733309     -0.2595032990      0.1107477828
H      -3.1902746655      0.1291970078      1.6608070611     -0.1363916643     -0.1367039975     -0.0354265886      0.1634474239
H      -1.4904526671     -0.2075821579      2.0043010647      0.1206230703     -0.2380059170      0.0110732556      0.1210949932
H      -5.0087815687      0.7801369972     -1.4030261109     -0.1710114592      0.2307980685     -0.0739710630      0.1206389381
H      -4.7375596581      0.4706040602      0.3099131205     -0.1608823869      0.1086963207      0.2065377241      0.0991455177
H      -3.5847887227     -1.8644979965      0.9552926733     -0.0588843006     -0.0621820719      0.2786531709      0.0964740637
H      -3.1899169424     -2.9590749321     -0.3715976414      0.0673357529     -0.3057345191      0.0324790275      0.1016743074
H      -5.3206897372     -1.6562931496     -0.7644718558     -0.2756317886     -0.1527126851     -0.0490567522      0.0830386304
H      -4.1038015713     -1.4052118327     -2.0268643960      0.0366110055     -0.0652368624     -0.3146905875      0.0809980777
H       0.4814617719      0.4266592168      1.4041607303     -0.0158554207      0.0586965945      0.2972246467      0.1109431304
H       0.8212285065     -0.7551199769      0.1308970973      0.1076148140     -0.2843350870      0.0017654203      0.0804917361
H      -0.9621174631      2.2282908125      1.8347305110      0.2494906499      0.1733396192     -0.0404420486      0.0873856034
H      -2.6324426223      2.5786439019      1.3823724860     -0.0934382645      0.2264327862      0.0160000490      0.1489853979
H      -2.2696780690      1.9205038151      2.9776365236     -0.1290106029      0.0476204695      0.3184884028      0.0408969194
H       1.6206447306      2.2005714275      0.0774014306     -0.0739029777      0.2492664705     -0.0279237657      0.1518153938
H       2.0020618713      1.0149672101     -1.1799967535      0.0630879686      0.0179262353     -0.3092654675      0.0754421059
H       3.3178021306     -0.3203431451      0.4726792602      0.0915626979     -0.3054680738      0.0016770058      0.0714569342
H       2.9204779803      0.8518827411      1.7379910923     -0.0340897421      0.0082061796      0.3052492390      0.0806185229
H       4.4694972268      1.4785446086     -0.8285666550     -0.0016915825      0.0302933804     -0.2953573267      0.0813095466
H       4.0677513160      2.6493624409      0.4357961800     -0.1009138088      0.2836346153     -0.0245684593      0.0919172361
H       5.8107452577      0.1575707714      0.8207460738      0.1199131957     -0.3205940578     -0.0232571883      0.0234414023
H       6.3931171631      1.8257132027      0.6994702819      0.3491679265      0.1353036934     -0.0124288603      0.0331929065
H       5.4082473263      1.3307642786      2.0853754691      0.0021703399      0.0250606771      0.3374761510      0.0280523243
N      -2.4249075345      4.8592844310      0.5364048553     -0.0061297461      0.0773595769     -0.2499642413     -0.8496152196
S      -1.3113494614      4.4132952885     -0.5179762558      0.0674986753     -0.4243428649      0.2692902822      1.5910694814
S      -3.7881367415      5.4743550542     -0.0639451256      0.0382406000      0.0219240650      0.4263246131      1.6376033541
C      -0.5936296129      5.9094972453     -1.4073228726     -0.5141183171     -0.5751378440      0.4642318981      1.2128708528
C      -4.9014602586      4.0000858971     -0.4185482771      0.7596565123      0.4942850995      0.2770561787      1.1832244855
O      -0.2011683086      3.8989510181      0.2644242362      0.9024991372     -0.0795785388      0.5485947128     -0.7929593448
O      -1.7826782085      3.5369666002     -1.5835027486     -0.2935878369     -0.1669132963     -0.7463997919     -0.7704584605
O      -3.6521941439      6.1483719017     -1.3270862005      0.1413662701      0.3713407740     -1.1996228775     -0.7349559184
O      -4.4685584092      6.1272338535      1.0169869568     -0.6966650044      0.3894619110      1.0506095508     -0.7278073284
F       0.7111462884      5.7157717739     -1.5376606471      1.4362298144     -0.2358173899     -0.1760314832     -0.4379505143
F      -0.7951974859      7.0040971399     -0.7004215747     -0.1954450963      1.2472650841      0.7894661206     -0.4309957090
F      -1.1241112949      6.0436234824     -2.6034879678     -0.5455903001      0.1523578001     -1.3208836851     -0.4229938514
F      -6.1699915043      4.3629091238     -0.3949336169     -1.3275182214      0.5019569762     -0.0097523117     -0.4317558467
F      -4.7212389996      3.0608377993      0.5256744690     -0.0114321098     -0.7942797334      1.0194186437     -0.4775764202
F      -4.6458047002      3.4292695183     -1.5889850485      0.1991867585     -0.4479347550     -1.2909238976     -0.4552280750
