34
Properties=species:S:1:pos:R:3:forces:R:3:charge:R:1 energy=-192.8985524337518 homo_lumo=4.110662232429617 dipole="0.7470269660249492 1.3957481636100215 -2.08162469779759" free_energy=-192.8985524337518
N      -1.6769397364     -0.6462840998      0.2713938064     -0.4636424828      0.1348937380     -0.0149919307     -0.5065507080
N       0.3508218670     -0.7777373883      0.9752816819      0.3520534711      0.0385837641      0.3344818304     -0.5050752673
C      -3.1104023629     -0.3696912552      0.2554584490     -0.2090821177      0.1004735938     -0.6004709986     -0.0119586045
C      -3.5348508753      0.2547875460     -1.0718943782      0.3795876379      0.3546851603      0.3595329933     -0.2109431185
C      -0.8187665558     -0.1758920038      1.1714372774     -0.0428729865      0.2050797084     -0.0260381256      0.6157841379
C      -1.0472954330     -1.5803037836     -0.5059274928      0.0977539948     -0.0306056127     -0.2402728948      0.2341413756
C       1.5230029302     -0.6408897832      1.8341209178      0.4597491383      0.2835964331     -0.3178173371     -0.0630348418
C       0.2332257258     -1.6624131363     -0.0623726283      0.0492548073     -0.0511761519     -0.3059338465      0.2306593753
C      -2.8477497073      1.5976537429     -1.3133852875     -0.2173570270     -0.4217046428     -0.0282137836     -0.0617110714
C       2.7085265094     -0.0989431090      1.0478071764     -0.3406253326     -0.1324960114      0.1866713280     -0.0565022297
H      -3.3238782913      0.2979741001      1.0926784270     -0.0301043793      0.0778063830      0.1265738565      0.1250150154
H      -3.6206851266     -1.3221411554      0.4272651375     -0.0404345974     -0.1518219645      0.1792516586      0.1469178615
H      -3.3048409299     -0.4319464165     -1.8916278101     -0.0496517075     -0.2157778333     -0.2368113927      0.0980189305
H      -4.6187791416      0.3944505159     -1.0434181643     -0.3038116549     -0.0756224748     -0.0168858702      0.1018078226
H      -1.0406688934      0.5427480332      1.9404770668     -0.0312527546      0.0544950312      0.1642783261      0.1055052319
H      -1.5624360547     -2.1254414455     -1.2763827026     -0.1277922694     -0.1591580465     -0.1383231629      0.0408037126
H       1.2538714207      0.0309478216      2.6510613191     -0.1000226954     -0.0182768824      0.1464397838      0.1323409401
H       1.7356359684     -1.6306276766      2.2483031225     -0.0640982678     -0.1044106767      0.1616276541      0.1474428418
H       1.0500378857     -2.2867186023     -0.3782660283      0.1622860984     -0.1604450261     -0.0496343091      0.0423614269
H      -1.7654213577      1.4699584445     -1.3610843621      0.3303386117      0.0307228621     -0.0467498007      0.0543037170
H      -3.0801676408      2.2958395299     -0.5084964822     -0.0622625880      0.2661447789      0.2297099508      0.0344192149
H      -3.1891726353      2.0257043996     -2.2551979963     -0.0308032768      0.2192305368     -0.2795974969      0.0468260024
H       2.9843394187     -0.7799260866      0.2432997883      0.1669449192     -0.1679262349     -0.2554840085      0.0464988047
H       3.5586635121      0.0122158215      1.7190873303      0.2988619622      0.0273122936      0.1585501761      0.0573597759
H       2.4683604191      0.8736857534      0.6185243815     -0.0334134173      0.2950478481     -0.1432134027      0.0491496470
N      -1.9652042267     -2.9701091275      4.0786733404      0.0449672658      0.1068100606     -0.1065639344     -0.8458245683
S      -1.6011050744     -3.5988008685      2.6706196161     -0.0547965457     -0.2760687273      0.2212641918      1.9585772428
S      -1.8393750802     -1.4048228877      4.2444110377     -0.1145899612     -0.2569279725      0.3860818553      1.9511240645
F      -0.0248311644     -3.1939166019      2.4122540506      0.5792136410      0.0245988460      0.0423591080     -0.4864098810
F      -2.8778360713     -0.7568936146      3.1317438795     -0.4950349453      0.1596382171     -0.2821355839     -0.4912027716
O      -1.5824666807     -5.0138060654      2.7974329224      0.1066280403     -1.6490731220      0.2421176405     -0.7137445220
O      -2.2652982806     -3.0197604584      1.5354737832     -0.5856665619      0.6175477061     -0.8614651429     -0.7728410013
O      -0.5827711724     -0.8249676231      3.8474826004      1.1193169931      0.4600986387     -0.4297704075     -0.7821443205
O      -2.3910831615     -1.0304175883      5.4985646781     -0.7496410120      0.4147257802      1.4414330759     -0.7111142356
