37
Properties=species:S:1:pos:R:3:forces:R:3:charge:R:1 energy=-203.1002321620834 homo_lumo=0.001447080950741554 dipole="-3.1403862330678614 -3.2938068605616557 -2.282071489127658" free_energy=-203.1002321620834
N       0.2637257521     -0.1185271712     -0.1910124400      0.0319168693     -0.2965172435     -0.3099729149     -0.5256434060
C      -0.5930482926      0.6880307849     -1.1195064507     -1.1856151891      1.0304789850     -0.8652227415     -0.0204502718
C      -0.5017311636     -1.3362537532      0.2340064518     -1.0993965352     -1.2084323646      0.7315118731     -0.0223961598
C      -1.9610155960      1.0748675888     -0.5329345836      0.0665016509     -0.0619966075      0.0752782961     -0.1755548485
C      -1.8885448365     -1.0291482941      0.8357614543      0.0193144069      0.1946570896     -0.0336257669     -0.1651348477
C       0.6694835087      0.6697478646      1.0247130328      0.7835140214      1.3243999737      1.2432953302     -0.1030421431
C       1.4615050180     -0.5576970311     -0.9861169749      1.6823590764     -0.6343050304     -0.6527298395     -0.0788625483
C      -2.7287357056     -0.1721782971     -0.1066859101     -0.2644390435      0.0550342800      0.1538548967     -0.1618722574
C       1.5393711746      1.9115176293      0.7568667405     -0.1398948652     -0.2515835138     -0.2433649376     -0.1558139582
C       2.5265042852     -1.3545730424     -0.2092679309     -0.1812563660      0.1648385273      0.1810919429     -0.1257762547
H      -0.7955769749      0.1084230435     -2.0507661407      0.3452916389     -0.2109934666      0.4629484788      0.1326928835
H      -0.0735710114      1.6085566680     -1.4582635407      0.2635709028     -0.4003128317      0.3955382754      0.1594842583
H       0.0607837681     -1.9137121315      0.9990871235      0.2120117926      0.4342681186     -0.3631776838      0.1527453591
H      -0.6582566000     -2.0198090006     -0.6324533729      0.2936939679      0.5027304284      0.0094818341      0.1264143379
H      -2.5488532660      1.6066971294     -1.3119699309      0.3470414215     -0.0212132992      0.0928936874      0.1132330193
H      -1.8518954123      1.7768331937      0.3191258578      0.0283788189     -0.1215153492     -0.1905847753      0.1206808006
H      -1.7916414781     -0.5298895459      1.8222085197      0.0373940955     -0.1267500838     -0.2051426988      0.1137773366
H      -2.4217015741     -1.9878355092      1.0152935290      0.3510066835      0.0987111467      0.0081450731      0.1132846162
H      -0.2145568206      1.0230882819      1.5891924029     -0.1134625789     -0.3864320564     -0.5061422626      0.1761840339
H       1.2130149672      0.0208819755      1.7451300914     -0.2033988643     -0.1854871596     -0.5540640053      0.1634611819
H       1.1420741023     -1.1951304240     -1.8426685851     -0.4547342438      0.2911973883      0.4125420551      0.1341605858
H       1.9656715804      0.3159750436     -1.4552086249     -0.4996383834      0.0039684386      0.4026144394      0.1673086508
H      -3.6703721768      0.1267359322      0.4022009888      0.1616983626     -0.1469388805     -0.2083294397      0.0986468199
H      -2.9982909711     -0.7673108313     -1.0068607736      0.0183035465      0.1238041639      0.1674973125      0.0861337962
H       1.7786585692      2.3918220926      1.7285689392      0.1314301862     -0.1598127536     -0.1580876027      0.1824793793
H       2.5033710679      1.6514512412      0.2771965863     -0.2223097197      0.2493218909      0.1940487670      0.0847179470
H       1.0024723880      2.6654073448      0.1485780430      0.2142023131     -0.1541218865      0.1036204724      0.0568794004
H       3.3325938418     -1.6527265883     -0.9124568986     -0.2927506119      0.1517309595      0.1034399326      0.0904877072
H       2.9985443469     -0.7445305215      0.5862722630     -0.1145047629     -0.2219947659     -0.1757700746      0.0962308290
H       2.1109467238     -2.2856770786      0.2231801935      0.1466873074      0.2313591885     -0.0520882736      0.0620197097
C       2.9951952499      5.5627341870      3.6715454288     -0.5765748841      0.8461769603      0.8205814570     -0.1708828658
C       3.6796012687      4.4278846188      2.9768948498     -0.0133925630      0.2222265035     -0.0226539456      0.8247532380
O       4.0393362437      4.5517434311      1.8173988557      0.4556788872      1.8531226346     -4.1317667643     -0.7969530833
O       3.8799576533      3.3771093796      3.5645036729     -0.2182585081     -3.3608578340      3.3213606446     -0.7959910737
H       3.6668228370      6.4466056141      3.6916883202     -0.3000093542     -0.1081692676     -0.0680792128      0.0322409841
H       2.0630022974      5.8251635284      3.1285652931      0.2507437089      0.1296630108      0.1078814865      0.0015107815
H       2.7360453452      5.2851803007      4.7157885557      0.0388968147      0.1497447067     -0.2468233156      0.0088460621
