52
Properties=species:S:1:pos:R:3:forces:R:3:charge:R:1 energy=-280.24498526594493 homo_lumo=6.268783778054164 dipole="0.04156495724148073 1.3950285330566798 2.7046279484340454" free_energy=-280.24498526594493
N      -0.1790973845      1.2790711855     -0.0740824882     -0.1939240842      0.0543482028      0.2612422431     -0.4976158824
C       0.2495367810      2.4157181959      0.7993225141      0.2337596638      0.4123296861     -0.0010323338      0.0164270933
C      -0.8141659890      1.9732846452     -1.2426599071      0.0527559901      0.3732477225     -0.3993636496     -0.0297422868
C       1.0171458609      0.5011101475     -0.5516550694      0.2558621917     -0.4628766824      0.4622808488     -0.0985014916
C      -1.1724577139      0.4108186699      0.6377522925     -0.1790768739     -0.5886976318     -0.3309476737     -0.0058210051
C       0.7470848813      3.4954351356     -0.1627448182     -0.0323856181     -0.0762188911      0.1135342247     -0.1461468197
C       0.0723403414      3.1833542013     -1.5085544230     -0.0544933499     -0.0949721379      0.0660835100     -0.1346482257
C       1.7195526491     -0.3388264175      0.5094609475      0.0131566658      0.2851072872     -0.5545255290     -0.2088024909
C      -1.7153443147     -0.7247877666     -0.2272234625     -0.0748254728      0.2507237379      0.7648361631     -0.2406530320
C       2.9387252856     -1.0084274629     -0.1392853676     -0.2391814978     -0.1294598560      0.7203172152     -0.1625537461
C      -2.6885910215     -1.5826056250      0.5868035571      0.2472802398     -0.0388840920     -0.6874354603     -0.1519124550
C       3.6585271895     -1.9270310715      0.8522811492      0.1981920227      0.1382811754     -0.6246110258     -0.1984056948
C      -3.2336745163     -2.7289615882     -0.2716231252     -0.2088170152      0.0907272190      0.6853117871     -0.2029619382
C       4.8652407460     -2.6008412915      0.2016790262     -0.3102607740      0.0999842122      0.3454911076     -0.0467660261
C      -4.2133954632     -3.5960488752      0.5159400864      0.2595318404      0.1746575695     -0.3385816361     -0.0442721185
H       1.0075763575      2.0764565955      1.5045688263      0.0964589659     -0.1382933301      0.2038059449      0.1285255041
H      -0.6276781040      2.7593289677      1.3528329780     -0.2332314809     -0.0205368607      0.0978199628      0.1117488225
H      -1.8188149720      2.2768439791     -0.9390546113     -0.2373813458      0.0273563653      0.2049341184      0.0961549444
H      -0.8723643587      1.2936491542     -2.0898730266     -0.0897717103     -0.1727129284     -0.1437728400      0.2445571803
H       1.7138078080      1.2232980949     -0.9792010726      0.0950075696      0.1717701888     -0.1513083686      0.1615023673
H       0.6724465809     -0.1491801700     -1.3517974501     -0.0215815661     -0.0143411187     -0.1689566044      0.2913842234
H      -1.9908222103      1.0640998825      0.9552850493     -0.1279580758      0.2233766030      0.0692133372      0.1098334214
H      -0.6813566401      0.0205422188      1.5325952049      0.1319418169     -0.0414895656      0.2148607208      0.1287674890
H       1.8343920422      3.4619242948     -0.2539557368      0.2590546848      0.0667436286      0.0102988695      0.0819731992
H       0.4678790757      4.4825491956      0.2096617392      0.0250681792      0.2395243741      0.1392535281      0.0911465650
H      -0.5298576171      4.0220279361     -1.8610227833     -0.1186368553      0.1567183292     -0.1693490356      0.0899524002
H       0.8139929491      2.9486863667     -2.2745097059      0.0905207354     -0.0402483865     -0.2281679174      0.1094515178
H       1.0503402853     -1.1154824517      0.8888930984     -0.1635411717     -0.2185653338      0.1090029785      0.1070647074
H       2.0442656491      0.2743231561      1.3565682467      0.1225664579      0.0918355767      0.2737894484      0.0787194053
H      -0.9004682685     -1.3537240699     -0.5912416893      0.1200623203     -0.1093911894     -0.1749644911      0.1707969125
H      -2.2327039243     -0.3157639004     -1.0971743778     -0.0207744232      0.0073214723     -0.2366067740      0.1574710139
H       3.6299028407     -0.2371549160     -0.4953715932      0.1979321723      0.1764831732     -0.1456952803      0.0817414221
H       2.6101464816     -1.5889721894     -1.0066170365     -0.0711970681     -0.1027655237     -0.2716967212      0.1343470260
H      -3.5173786428     -0.9608870878      0.9441323932     -0.2591602732      0.1244141019      0.1554855083      0.0680409296
H      -2.1737023790     -1.9906501872      1.4641246431      0.0794721689     -0.1309403972      0.2830169789      0.0720230754
H       2.9617598798     -2.6930500274      1.2093244709     -0.2027147197     -0.1635844679      0.1398330118      0.0813353094
H       3.9874897955     -1.3432575870      1.7193217542      0.0318134384      0.1276485654      0.2659626678      0.0720253012
H      -2.3999014461     -3.3449370997     -0.6226008761      0.2163168874     -0.0895221558     -0.1829698406      0.0994741633
H      -3.7364075171     -2.3145272301     -1.1509728634     -0.0272792019      0.0981562328     -0.2766765799      0.0998058975
H       5.3627603690     -3.2507719006      0.9217825882      0.2417734361     -0.2306316558      0.1378609352      0.0307417649
H       4.5508749414     -3.2023094105     -0.6518962533     -0.0443645852     -0.1844163679     -0.2731152894      0.0407700393
H       5.5798655550     -1.8529463555     -0.1446557397      0.2486586846      0.1874238040     -0.1315868625      0.0295884659
H      -4.5857218535     -4.4023220006     -0.1160006718     -0.1889621222     -0.2980718210     -0.1012538778      0.0371773481
H      -3.7233566086     -4.0348305010      1.3866286516      0.0982672019     -0.1629650011      0.2871632037      0.0229866288
H      -5.0624815678     -3.0020612718      0.8579469691     -0.2828823563      0.1324326802      0.1312326002      0.0232838665
P      -0.1273090658     -0.8193786488     -4.0137513948      0.0319171170      0.2339589808      0.0937599640      2.1950463091
F      -1.5121991828     -0.2631433792     -3.2455364833     -0.1171461275      0.0021865715     -0.1188932959     -0.5343169617
F      -0.9348667562     -2.1276341898     -4.5380641186     -0.1307197569     -0.2215652558     -0.0644931247     -0.4938867519
F      -0.5224110213      0.0320117587     -5.3432404589     -0.0602168825      0.1048319347     -0.2082859014     -0.4959249189
F       1.2647803624     -1.3306009360     -4.6818661557      0.2134000395     -0.0943038975     -0.0957667241     -0.4957126776
F       0.6769192909      0.5361002785     -3.4007072805      0.0364640878     -0.0562752681     -0.2098045537     -0.5398127976
F       0.2606704158     -1.6264192200     -2.5927737448      0.0932498303     -0.1698595790      0.0534705130     -0.5354069936
