71
Properties=species:S:1:pos:R:3:forces:R:3:charge:R:1 energy=-392.36781528495567 homo_lumo=3.405815125842501 dipole="-3.817634050647472 -2.072771166673799 0.07006495374159911" free_energy=-392.36781528495567
N       0.7611029471      4.1963493078      0.5310717485     -0.0024119823      0.0018248430     -0.0021810885     -0.4979838897
N       1.6981552486      3.1851370590     -1.1437719724     -0.0019285325     -0.0009918396      0.0045231094     -0.5082335337
C      -0.9424081409      3.8249765947      2.2883736450     -0.0013692163      0.0000717553      0.0000303125     -0.1730633127
C       0.3663669182      4.5148969618      1.9072815107      0.0085857508     -0.0041242316      0.0017501060     -0.0268078303
C       2.1366091501      0.7957886965     -1.5864447036     -0.0003599658     -0.0031174961      0.0024029372     -0.1913140224
C       2.5260440207      2.2341351892     -1.9051017561     -0.0099061848      0.0087156881     -0.0063693825     -0.0234860829
C      -0.8860849557      2.3023794103      2.1824568058     -0.0014656674      0.0013094216     -0.0075992530     -0.2222479727
C       0.6669457572      0.4882054218     -1.8614537860     -0.0035614424      0.0022272584      0.0081647259     -0.1930089519
C      -2.2135228659      1.6220229311      2.5134563551      0.0030560860     -0.0018619194     -0.0029848983     -0.1609911433
C       0.2554612219     -0.9150102236     -1.4227537405     -0.0056258839      0.0014457978      0.0032506893     -0.1724053557
C       1.5887055055      3.2021822855      0.1890515326      0.0016008572      0.0032336919      0.0007411180      0.5856965066
C       0.3356297000      4.8357848484     -0.6128083993     -0.0031134991      0.0020453614      0.0021964104      0.2101496234
C       0.9280653968      4.2000549606     -1.6658013739     -0.0024831725     -0.0023082791      0.0092444587      0.2250613679
C      -2.1511686996      0.1045148233      2.3390642339      0.0104196002     -0.0023275640     -0.0066346219     -0.2561703423
C      -1.2281182171     -1.1941371649     -1.6547405679     -0.0098515424      0.0089540193      0.0004104927     -0.2218953606
C      -3.4828664234     -0.5881789036      2.6153819228      0.0022588918     -0.0053596246     -0.0026469312     -0.0740855303
C      -1.6540489399     -2.5852322104     -1.1938998566     -0.0050519343     -0.0013043695      0.0055410171     -0.0760425077
H      -1.1786107385      4.1254764480      3.3243511186     -0.0054499677     -0.0030546174     -0.0058239364      0.1065999282
H      -1.7584789913      4.2134857072      1.6528650606      0.0023627274      0.0018206359     -0.0064202081      0.1007545372
H       2.3789903448      0.5741075913     -0.5312804444      0.0006703308     -0.0006977579     -0.0011828117      0.1065522304
H       2.7883057081      0.1391147666     -2.1885764413     -0.0012180981     -0.0050948746      0.0084676550      0.1123530841
H       0.2919985765      5.6100800493      1.9738756148     -0.0042232078     -0.0023068589      0.0081953943      0.1247876282
H       1.2013703194      4.2044533752      2.5527648918     -0.0040026069     -0.0073067016      0.0009066257      0.1542869248
H       3.5774865056      2.4505167033     -1.6670296170      0.0020541301     -0.0090523011      0.0020026826      0.1735332289
H       2.3594558788      2.4680177145     -2.9661639064     -0.0007793308      0.0016104333      0.0068201892      0.1140090388
H      -0.0942406408      1.9139522453      2.8510322423      0.0037482117      0.0005805231     -0.0067098179      0.0860632002
H      -0.6026942690      2.0137057723      1.1536016198      0.0008228115      0.0026311721     -0.0039500020      0.1543049959
H       0.4600666242      0.6168119237     -2.9404354180     -0.0062651954      0.0044201123      0.0023908472      0.0831953429
H       0.0290136521      1.2225659848     -1.3355472104     -0.0031474040      0.0034968296     -0.0001077133      0.1297855806
H      -2.5096892325      1.8654192311      3.5508605977      0.0030856007     -0.0050254967     -0.0031509550      0.0874788260
H      -3.0048107692      2.0335025746      1.8587506563     -0.0034853955     -0.0041215527      0.0010272869      0.0873427980
H       0.4873820954     -1.0421135001     -0.3483271299     -0.0056224827     -0.0019961092      0.0063271040      0.0957721668
H       0.8627342191     -1.6661078475     -1.9616654995     -0.0063459795      0.0017611564      0.0088634055      0.0903996861
H       2.1257596088      2.5684986174      0.8809643775      0.0125316979     -0.0013365720      0.0081461290      0.1215080669
H      -0.3151599105      5.7003243016     -0.5806948946     -0.0019654629      0.0015025931      0.0009321860      0.0528217235
H       0.9063123625      4.4126555745     -2.7269867894     -0.0045632922     -0.0005213201     -0.0048888199      0.0560799522
H      -1.8249819338     -0.1226373986      1.3076326859     -0.0011925691     -0.0047559702     -0.0015568557      0.1552153680
H      -1.3721254413     -0.3047592872      3.0087122348     -0.0000558320     -0.0018473939     -0.0104206475      0.0789068762
H      -1.4560774792     -1.0698609700     -2.7293703610     -0.0051803151     -0.0007275445      0.0061659431      0.0850077345
H      -1.8238378816     -0.4284543867     -1.1235113203     -0.0080427101     -0.0031251984     -0.0018735143      0.0999075990
H      -3.8226486993     -0.3974255770      3.6459612875      0.0047271653      0.0047921752     -0.0015991313      0.0378536364
H      -4.2667737132     -0.2243712163      1.9315593456      0.0005212012      0.0070895477      0.0022638554      0.0334325689
H      -3.4030289074     -1.6784560207      2.4847305729      0.0034928109      0.0158183228     -0.0029324549      0.0480958650
H      -2.7247988050     -2.7609243313     -1.3790960486      0.0094958277      0.0076084103      0.0049595239      0.0393309941
H      -1.4717098678     -2.7158112546     -0.1150526761      0.0024611787      0.0021048447      0.0038286811      0.0459537887
H      -1.0880129028     -3.3667755486     -1.7259674735      0.0013637872      0.0034632400      0.0080430077      0.0391810410
P       5.9246968971      5.7817307021     -0.0841861173     -0.0052399782     -0.0132470994      0.0006302006      1.7416903736
F       6.9843435967      5.4704667127      1.1587486287      0.0051470602      0.0000008860     -0.0127103930     -0.5174819786
F       6.4558705693      4.4281750697     -0.9031135339      0.0085884693     -0.0064558679     -0.0036410889     -0.5152352236
F       5.2880495331      7.1186995085      0.6885393761      0.0042359434     -0.0043569292      0.0031171026     -0.5158560291
C       4.6262740997      4.6697576629      0.9425272496      0.0068427437      0.0096051117     -0.0058366644      0.4811761226
C       7.3421832766      6.9344592357     -0.8347794200     -0.0009154707      0.0007294018      0.0028300351      0.5269972248
C       4.6509207077      6.0238108301     -1.6323282373     -0.0039898376      0.0039763029      0.0101622411      0.5570666784
C       4.8752333640      4.4244331490      2.4630320301      0.0059887598      0.0053349383     -0.0134498741      1.3805848255
C       8.5454424045      6.2594707908     -1.5559664910      0.0003785608     -0.0213350992     -0.0124127724      1.3572784774
C       3.6339990816      7.2044736544     -1.7305474551     -0.0152260118     -0.0162645307      0.0028871231      1.3843573749
F       4.4934177240      3.3779642973      0.4304690623     -0.0131559505      0.0057158181     -0.0010534497     -0.4731062817
F       3.3626872850      5.2424796209      0.9046042109      0.0065498006     -0.0169927687      0.0021608390     -0.4678141079
F       7.8970865717      7.6505822463      0.2033587139      0.0013512037     -0.0015890297     -0.0155689991     -0.4375048518
F       6.8518844568      7.8714177054     -1.7199547758     -0.0030443379     -0.0136308904      0.0038767494     -0.4508613096
F       3.8444944707      4.8849896209     -1.7292566018     -0.0020890891      0.0128598593      0.0077414616     -0.4775495728
F       5.3550492495      6.0581183040     -2.8106556934      0.0009355225     -0.0010395410      0.0002989421     -0.4411730096
F       3.7511924177      3.7918265104      2.9883005011      0.0098398908     -0.0001297505     -0.0032985040     -0.4873987492
F       5.0356840684      5.5659738907      3.1528311437      0.0076114717      0.0039454561      0.0028212205     -0.4342281914
F       5.9118855386      3.5991030538      2.6912984683      0.0189063915      0.0095332887      0.0014129064     -0.4338987232
F       9.4612148619      7.2136072845     -1.8936269318      0.0044622645      0.0066710118     -0.0052901672     -0.4523717657
F       9.1636028877      5.3594592774     -0.7575576894     -0.0052086654      0.0109868176     -0.0105144926     -0.4431021203
F       8.1695103304      5.6393118093     -2.7007343401     -0.0051126407      0.0094490465      0.0163345068     -0.4466716641
F       2.9025481965      7.0605549839     -2.8870564241      0.0011633929      0.0056361602     -0.0038817408     -0.4660028978
F       4.2327903484      8.4058060476     -1.7743967090      0.0084632540     -0.0012531514      0.0012451085     -0.4342613208
F       2.7387091345      7.2087101921     -0.7094934593     -0.0010725410     -0.0043116811     -0.0064231412     -0.4583193527
