71
Properties=species:S:1:pos:R:3:forces:R:3:charge:R:1 energy=-391.801800106456 homo_lumo=3.860594142221432 dipole="2.289845325785878 1.2769579153705308 1.2825324477417468" free_energy=-391.801800106456
N       1.2816946604     -2.3366142857     -2.5276027736      0.2616337995      0.2524237084     -0.2642531561     -0.4893374668
N       0.9391916727     -3.4205003347     -0.6960945449     -0.1180236720     -0.3398606762      0.3770138275     -0.5050343085
C      -0.0573813578     -0.7937940711     -3.8993203424      0.2243746567      0.0670111615      0.5724558831     -0.1997835518
C       1.3506960776     -1.2265840057     -3.4720665431     -0.5162930102      0.1114853618     -0.2751009457     -0.0005183545
C       0.8525107626     -2.6074833203      1.6619114471     -0.3839977333      0.0174901236     -0.3835481374     -0.2006535714
C       0.6519179721     -3.7749837788      0.6964448568      0.0781903378      0.3171631338      0.4270315023     -0.0328286086
C      -0.8948049117     -0.2771274274     -2.7279563241     -0.1164632668     -0.0905826245     -0.6933346541     -0.2333554758
C      -0.3182788632     -1.6114692977      1.6709631592      0.1173405317     -0.4721200572      0.3535377417     -0.2108763211
C      -2.2995957047      0.1238456460     -3.1871231794      0.2650871404     -0.0851370314      0.7954123402     -0.1756363503
C      -1.4849322625     -2.0919787359      2.5407622770      0.0000931468      0.6343408265     -0.5636891611     -0.1764228222
C       1.0917605051     -2.2026297966     -1.2140583200      0.1119732232      0.2774929016      0.1453735980      0.5484815687
C       1.2327311261     -3.6616312251     -2.8561927022      0.2047164869     -0.2352273176     -0.0299066036      0.2462159579
C       1.0200816023     -4.3456015554     -1.7022872490      0.1969546186     -0.1602801571     -0.1737488137      0.2431504098
C      -3.1790027103      0.4954844388     -1.9894147666     -0.2212817097      0.0117160941     -0.6356030292     -0.2457116911
C      -2.7015355017     -1.1751009333      2.3733816656     -0.0061150635     -0.5908751380      0.3556894283     -0.2367077043
C      -4.6018126734      0.8325426011     -2.4304522165      0.3316008376     -0.0771209708      0.2987792349     -0.0521953138
C      -3.9072847238     -1.7067832594      3.1448513677      0.2561241267      0.2903144072     -0.2560134671     -0.0493993107
H       0.0588900939     -0.0095053493     -4.6525527343      0.0375748673      0.2215536982     -0.2436028760      0.0773688337
H      -0.5622309679     -1.6421516479     -4.3655282403     -0.0880312510     -0.1183979592     -0.1134845369      0.1899752088
H       1.7858368259     -2.0912403980      1.4174942440      0.3770455740      0.0137535046      0.0088237836      0.0849720034
H       0.9695887004     -3.0315068736      2.6638903089      0.0954823177     -0.0658864722      0.2460116694      0.1111451759
H       1.9234420014     -1.5642851252     -4.3390758899      0.2263510411     -0.0843641574     -0.0899995046      0.1065593904
H       1.8835476178     -0.4030509697     -2.9875240096      0.1700299719      0.1284153989      0.0944562261      0.0953784300
H       1.3176516617     -4.6032410733      0.9560867969      0.1524588687     -0.1690323212     -0.0282812473      0.0964922239
H      -0.3791908430     -4.1416684294      0.7297841226     -0.0749275048     -0.0455065541      0.0000910524      0.1998395110
H      -0.3921834229      0.5777001318     -2.2600726959      0.1354835169      0.2929116745      0.1713677878      0.0523261834
H      -0.9871936862     -1.0677830120     -1.9767184963     -0.1281039285     -0.1281257798      0.1262879519      0.1849232699
H      -0.6807227297     -1.4507045673      0.6512062417     -0.1298933116      0.1119362548     -0.1925128673      0.1486561929
H       0.0425151020     -0.6498967791      2.0493459751      0.0431290935      0.3128744365      0.0673462581      0.0729943897
H      -2.2347709942      0.9692565148     -3.8802738225     -0.0062661196      0.2345455719     -0.2160345740      0.0565552816
H      -2.7522479470     -0.7157077529     -3.7222528286     -0.0592164269     -0.1305803618     -0.1098165433      0.1648697649
H      -1.1750714591     -2.1147925464      3.5908675417      0.0955022531     -0.0322887806      0.3027008391      0.0643349994
H      -1.7601387891     -3.1102127372      2.2532386164     -0.0818478607     -0.2189863459      0.0030400101      0.1339053498
H       1.1073617356     -1.2698024526     -0.6817942406     -0.0744343346      0.1526020495      0.1232486485      0.1088799017
H       1.3318934081     -4.0082640475     -3.8690425953     -0.0269179365     -0.0677074684     -0.1714924540      0.0538863865
H       0.8936040668     -5.3984582467     -1.5239831726     -0.0579381146     -0.1831871763      0.0132943714      0.0488094111
H      -3.2082304863     -0.3465668126     -1.2898642486      0.0525834847     -0.1738440855      0.1722520565      0.1382488114
H      -2.7416211652      1.3525331191     -1.4643818914      0.1479231029      0.1983912281      0.1856138888      0.0628352310
H      -2.9533783010     -1.1067438117      1.3098316648     -0.0292470750      0.0755362610     -0.2259542366      0.1437914215
H      -2.4515728381     -0.1679296169      2.7241081415      0.0868001926      0.2918966256      0.0264787116      0.0690583080
H      -4.5997565221      1.6746819245     -3.1242052538     -0.0483885860      0.2583322889     -0.2144325611      0.0119102642
H      -5.0567570047     -0.0253965986     -2.9259933843     -0.1634183547     -0.2146828469     -0.1445267750      0.0623639102
H      -5.2087968247      1.0961514277     -1.5639023026     -0.2954568751      0.1127148743      0.2011986751      0.0178230460
H      -4.7594607868     -1.0405886841      3.0097446426     -0.3446675796      0.1324833666      0.0369803342      0.0281991926
H      -3.6822815004     -1.7733929769      4.2103621255      0.0172758422     -0.0450771699      0.3395914308      0.0191223998
H      -4.1807755829     -2.6987961952      2.7838136909     -0.1228376201     -0.3040190378     -0.0839341332      0.0405202821
P      -2.4799466719     -4.5941712173     -3.3046684147      0.3336855107     -0.0875406962     -0.4276030997      1.7374954954
F      -1.0715704755     -5.5182194728     -3.2787097517     -0.0763822232     -0.1811730816     -0.0989559079     -0.5391285345
F      -1.6017865878     -3.2245841143     -2.7810762052     -0.2159022292     -0.2277508393     -0.1780020257     -0.5417319811
F      -3.3373365587     -5.9248913092     -3.8219065449      0.0543211195      0.1721568532      0.0879676660     -0.5140601180
C      -1.9032452473     -4.1432188261     -5.1297513712     -0.5766756569     -0.8255871670      0.7046296624      0.5170627671
C      -2.6713244428     -5.1211143930     -1.3798541519     -0.2563357544      0.9248627421     -0.5470014278      0.5783315603
C      -4.1997153921     -3.5660012369     -3.2400213816      0.7290285313     -0.4148656935     -0.5407934695      0.5478220635
C      -2.0143607648     -5.2054538126     -6.2545828562     -0.0975905750      0.2579589966      0.7853143852      1.4029869759
C      -3.1119650930     -4.1311137056     -0.2599662136      0.2539188663     -0.0933276471     -0.5798763849      1.3963984297
C      -5.0405234902     -3.0462776675     -4.4410244459      0.6724766162     -0.4099382798      0.2725574033      1.4296438933
F      -0.5837875524     -3.8221909627     -5.0888194879      1.2561856629      0.2522531057     -0.2662525437     -0.4793235066
F      -2.5345361190     -3.0308107487     -5.5490554214     -0.4282038825      1.0335870223     -0.6127600687     -0.4664329712
F      -1.4316165828     -5.4812131952     -0.9388831874      1.0047901132     -0.3682757238      0.4667077759     -0.4699082147
F      -3.4461405803     -6.2047190884     -1.2587477661     -0.8069160804     -1.0310332631      0.2182760646     -0.4333111388
F      -4.0209403133     -2.4926378412     -2.4367412921      0.0120145707      1.1131401428      0.5117064603     -0.4674414534
F      -5.0171884159     -4.4138870808     -2.5792969769     -1.0065012566     -0.7744385205      0.3267867299     -0.4474406358
F      -1.5104687290     -4.7122583745     -7.3906147027      0.5044770634      0.6204197011     -1.0744567823     -0.4568014208
F      -3.2679291787     -5.5667049155     -6.4883638475     -1.0644347551     -0.2388931991     -0.2669863800     -0.4443048382
F      -1.3118529679     -6.2899557687     -5.9378395021      0.6652491248     -0.9391201153      0.2670854151     -0.4469945805
F      -2.8170262149     -4.6859449199      0.9284641741      0.1180452562     -0.6943485526      1.1385041327     -0.4797338464
F      -2.4056724716     -2.9926303924     -0.3251900594      0.4985468741      0.8265404768     -0.0714226723     -0.4831404800
F      -4.3953877211     -3.8267429469     -0.2383485175     -1.0890934787      0.1105560525      0.1407768535     -0.4468376229
F      -4.6195766106     -1.8447604701     -4.8355115867      0.2515397393      1.1215917051     -0.3093783275     -0.4649297710
F      -6.3174118121     -2.9213003749     -4.0811864589     -1.1895893346      0.1439542939      0.4556147166     -0.4519283157
F      -4.9894730919     -3.8766397278     -5.4771234675     -0.1386155200     -0.7752227747     -0.7372451499     -0.4514236158
