53
Properties=species:S:1:pos:R:3:forces:R:3:charge:R:1 energy=-291.1640921561406 homo_lumo=5.9109205160278675 dipole="0.10402214926135514 -2.607911644754042 1.379638004571299" free_energy=-291.1640921561406
N      -1.0407459847      0.8032359869     -0.2811822660     -0.0008518295     -0.0011712403      0.0010503785     -0.4899482964
C      -1.4911683997      1.9043541722      0.6740003376      0.0029824240      0.0069037951     -0.0079146319     -0.0595797431
C      -2.0510671731      0.7069590563     -1.4181777589      0.0055200349      0.0055392285      0.0003015905     -0.0529563289
C       0.2879609222      1.1975149040     -0.9149151028      0.0003742482      0.0078364799      0.0046593255     -0.0831386533
C      -0.9150923009     -0.4944225732      0.4804075286      0.0046187655     -0.0012735698     -0.0021103075     -0.0301920581
C      -2.9164023382      1.7128829397      1.1737138595     -0.0000050163      0.0078897954     -0.0028353848     -0.1639090838
C      -3.4696075693      0.4683827687     -0.9308026937      0.0014955234      0.0068853148     -0.0088373103     -0.1758604905
C      -3.9084258276      1.5822393781      0.0192573576     -0.0034656832      0.0052552347     -0.0037977183     -0.1709297632
C       1.4661503411      1.3109169324      0.0379399540     -0.0010335850      0.0065958743     -0.0013155010     -0.2148451975
C      -0.4370548981     -1.6836006350     -0.3335980657      0.0021350596     -0.0041374342      0.0043165953     -0.2166382237
C       2.5921161635      2.0955968758     -0.6451423987      0.0009567168      0.0005415564     -0.0015721636     -0.1766586616
C      -0.3641342841     -2.9333214292      0.5441279551      0.0000339805     -0.0049339228      0.0051821114     -0.1597182390
C       3.8221024358      2.2639830121      0.2440603214      0.0005901329     -0.0022380452     -0.0015957375     -0.2050416065
C       0.1223204223     -4.1614098559     -0.2227023778     -0.0000861258     -0.0049424688      0.0057618192     -0.2075386061
C       4.9219535524      3.0775355349     -0.4355199848      0.0020674801     -0.0037930957      0.0046300972     -0.0677101905
C       0.1824812201     -5.4072611365      0.6559235205      0.0022616507     -0.0087099906     -0.0021927265     -0.0684077018
H      -1.3934882269      2.8464985223      0.1127895283     -0.0139656138     -0.0062088261     -0.0113460981      0.2404096679
H      -0.7782706181      1.9039565088      1.5093745515      0.0031007290      0.0167409414     -0.0089423996      0.1144998300
H      -1.6973831480     -0.0904168632     -2.0857026361      0.0062974581      0.0125447536     -0.0053036587      0.1158692839
H      -1.9772205940      1.6662075920     -1.9551673916     -0.0018145077      0.0013253866      0.0099753405      0.2413597898
H       0.0990945727      2.1604959651     -1.4084809736     -0.0022866413      0.0093307409      0.0125347278      0.2750883519
H       0.4821326401      0.4522365361     -1.7003402198      0.0017819515      0.0213773798     -0.0053483278      0.1152990918
H      -1.8982847775     -0.7073955182      0.9183353326      0.0063500442      0.0018484856     -0.0062192073      0.1678328030
H      -0.2204108014     -0.2915410507      1.3098010048     -0.0014297064     -0.0004125753     -0.0025179309      0.1381094833
H      -3.1519900718      2.6035703177      1.7798510921      0.0011373806      0.0034277584      0.0035275319      0.1121382952
H      -2.9889750990      0.8475900014      1.8568166262      0.0054738405     -0.0036234364     -0.0157212329      0.0713214999
H      -3.5732941532     -0.5251060277     -0.4572433006      0.0126730638      0.0071915872      0.0068053350      0.0768412443
H      -4.1123700661      0.4532979060     -1.8264928466      0.0017208293     -0.0038449450     -0.0070588375      0.1068349782
H      -3.9285345298      2.5328603193     -0.5389186963      0.0041791817     -0.0054424889      0.0009179596      0.1552875680
H      -4.9212296740      1.3862335310      0.4052089573      0.0007715783     -0.0000250519     -0.0035494029      0.0696017437
H       1.1802579715      1.8610472856      0.9487149927     -0.0022813989      0.0142709936      0.0003328916      0.1183452205
H       1.8344912244      0.3174480351      0.3526573685     -0.0063259945      0.0075805528     -0.0003755573      0.0787705765
H      -1.1212717150     -1.8789660944     -1.1757016633     -0.0016760550     -0.0063239078      0.0046882913      0.1138659406
H       0.5595082630     -1.4864215484     -0.7609163838      0.0012311540     -0.0064840747      0.0023605110      0.1192070232
H       2.1960565457      3.0870905807     -0.9269839764      0.0078968751     -0.0063951807     -0.0134217044      0.1478694232
H       2.8821666640      1.5919856570     -1.5860897652     -0.0017370541     -0.0082034954      0.0086476838      0.0842417111
H       0.3116047802     -2.7458311982      1.3994690123     -0.0021145594     -0.0044850029      0.0013947849      0.0919238073
H      -1.3619082792     -3.1426009928      0.9729202309      0.0039895446     -0.0015059042      0.0036935193      0.0889309777
H       4.2147196261      1.2703054454      0.5296287196     -0.0058680433     -0.0049417742     -0.0039035856      0.0735066686
H       3.5217566439      2.7636453729      1.1835218496     -0.0037709119     -0.0055049946     -0.0048812003      0.0840194737
H       1.1214752110     -3.9525911657     -0.6461627609     -0.0019730671     -0.0032683220      0.0070013311      0.0896040137
H      -0.5483963470     -4.3415128049     -1.0825268599      0.0001834615     -0.0013504929      0.0074559274      0.0890498965
H       5.8003220215      3.1909574715      0.2180757188     -0.0017308455     -0.0028229484     -0.0004580577      0.0358194893
H       5.2534173309      2.5917617917     -1.3671085677     -0.0020017842     -0.0048456449      0.0018515327      0.0348285217
H       4.5590140920      4.0844482739     -0.6953667319     -0.0018166355     -0.0051441776      0.0014484713      0.0473195855
H       0.5336081189     -6.2821548380      0.0890990973     -0.0003862225     -0.0031098630      0.0025066565      0.0451113068
H       0.8681881468     -5.2565712126      1.5050970060      0.0014365387     -0.0087062489      0.0006294716      0.0379018442
H      -0.8115076680     -5.6463512847      1.0664964721      0.0013215200     -0.0083875812     -0.0002677022      0.0373241093
B      -1.1794016373      4.3180227227     -2.1787190470     -0.0035493554     -0.0208211782      0.0124911863      1.3886711295
F      -2.4518050683      4.0071067795     -1.5834564346     -0.0030655942      0.0084025837      0.0024518478     -0.5810349753
F      -1.2112750400      5.5418267031     -2.8372830885     -0.0009718117      0.0036746672     -0.0013082045     -0.5258376567
F      -0.8475802713      3.2436059221     -3.0737517786     -0.0113888728     -0.0024986261      0.0047616120     -0.5755764688
F      -0.1992189104      4.3173216486     -1.1210051396     -0.0069842525      0.0003933990      0.0014160582     -0.5812824048
