53
Properties=species:S:1:pos:R:3:forces:R:3:charge:R:1 energy=-291.09747570636085 homo_lumo=5.866800121888348 dipole="-1.4373008540272272 0.13060507746468875 -2.441921203665612" free_energy=-291.09747570636085
N      -0.6349772736      0.6610229262     -0.0559297036      0.0101655092     -0.0015134171     -0.0008801705     -0.4873295277
C      -1.0302251072      1.6185775963      1.0663787331      0.0073497432      0.0033356538      0.0012975836     -0.0601378772
C      -1.8051988475      0.5174562704     -1.0049229876     -0.0001584091     -0.0007953075     -0.0020389380     -0.0052037833
C       0.5184045975      1.2702512344     -0.8391247453      0.0036317840      0.0002914082      0.0018123856     -0.0132652433
C      -0.2310729718     -0.6784910857      0.5398469166      0.0079801948     -0.0059731122      0.0067637816     -0.1223261546
C      -2.2969964964      1.1907434466      1.7851622869      0.0062383939      0.0009876727      0.0060745379     -0.1739234356
C      -3.0764365371      0.0533450931     -0.3121964518      0.0000603750     -0.0105790877     -0.0067470125     -0.1703407361
C      -3.4653248284      1.0025472428      0.8216445975     -0.0024708089      0.0038968269     -0.0021043920     -0.1600861513
C       1.8141252177      1.4283959125     -0.0655472555     -0.0049935797     -0.0062712464     -0.0065197038     -0.2504444084
C       0.2562263186     -1.7264666166     -0.4452284364      0.0018059180      0.0167341287      0.0149971765     -0.2175332236
C       2.9103863427      2.0080615861     -0.9600674012      0.0004413133      0.0013788998      0.0009078031     -0.1583774204
C       0.7624131329     -2.9364335297      0.3493097626      0.0033838893     -0.0048048086     -0.0033135090     -0.1735534205
C       4.2159493606      2.2205928813     -0.1920016326     -0.0004109248     -0.0014892503     -0.0018211303     -0.2092205265
C       1.3306429645     -4.0366816201     -0.5431360225     -0.0009451050     -0.0001468933     -0.0085723830     -0.2059290369
C       5.3359729674      2.7505808814     -1.0820095799      0.0009388450      0.0015227145      0.0020196499     -0.0655193293
C       1.8451697893     -5.2296383989      0.2592441895     -0.0000116783      0.0003198299     -0.0065874110     -0.0681248054
H      -1.1746361094      2.5939964867      0.5702309662      0.0171551738     -0.0039369579      0.0048179222      0.0979618190
H      -0.1844965568      1.6776262443      1.7671795937      0.0061448840     -0.0106168998      0.0024506537      0.2475039687
H      -1.4934907183     -0.1710898363     -1.8025388511      0.0091203176     -0.0021461937     -0.0057327745      0.1335396082
H      -1.9558591856      1.5155714095     -1.4488259868      0.0089953228     -0.0051141175      0.0027221095      0.1231618333
H       0.1483577367      2.2472542317     -1.1917695171     -0.0003389719     -0.0004746214      0.0038946560      0.1151262329
H       0.6580495411      0.6282159626     -1.7225441462      0.0016049060      0.0069627367     -0.0070437449      0.1242444051
H      -1.0969124242     -1.0483924306      1.0994891886      0.0030960154      0.0018200964      0.0010466648      0.1712817924
H       0.5459422654     -0.4649942277      1.2838050919     -0.0018872413      0.0046236534      0.0135920961      0.2909138246
H      -2.5186783918      1.9785897809      2.5236459726      0.0088547889     -0.0026271021      0.0028271007      0.1126315166
H      -2.0954843224      0.2843047640      2.3771112795     -0.0052197477      0.0016787178      0.0047704479      0.1384160985
H      -2.9481582634     -0.9731804108      0.0693728161     -0.0094150872     -0.0042583210     -0.0050542878      0.1078883819
H      -3.8704333402      0.0062379938     -1.0765705640      0.0050737630     -0.0044853833     -0.0075389855      0.1002190148
H      -3.7472920200      1.9808187019      0.3885896564     -0.0032612468     -0.0012725012     -0.0027919610      0.0809042951
H      -4.3508061511      0.6199731487      1.3533040651     -0.0000675671     -0.0007234507      0.0014991026      0.0856960401
H       1.6721886872      2.0755613772      0.8131211692      0.0050607106     -0.0074224650      0.0046461474      0.1641376691
H       2.1529222386      0.4628306421      0.3390794270      0.0053800995     -0.0016891213      0.0007649222      0.1667525775
H      -0.5388968962     -2.0484626249     -1.1421709778     -0.0010679336      0.0127728330      0.0123757994      0.0788835447
H       1.0919757479     -1.3408331807     -1.0531322068      0.0035875788      0.0052245048      0.0017378423      0.1100441348
H       2.5820474958      2.9727489652     -1.3918156042     -0.0082556526      0.0022858772     -0.0056368369      0.0718100662
H       3.0979192179      1.3284468273     -1.8134921250     -0.0082176898      0.0044064978     -0.0134986618      0.0744629521
H       1.5325333154     -2.5912677566      1.0614857443     -0.0008359087     -0.0115043048      0.0117961038      0.1447388571
H      -0.0612124020     -3.3463652732      0.9623663285     -0.0045170401      0.0014017787     -0.0031715599      0.0889687170
H       4.5210510309      1.2666004959      0.2731355466     -0.0108760007      0.0020256055     -0.0081245249      0.1045626050
H       4.0326550798      2.9188545031      0.6436232128     -0.0074253029     -0.0101401541     -0.0061793082      0.1023562481
H       2.1541533595     -3.6191789895     -1.1516410278     -0.0086820940      0.0004172675     -0.0038788283      0.0823484378
H       0.5542660480     -4.3739569265     -1.2552386049      0.0015362179      0.0071133304     -0.0008829505      0.0750351877
H       6.2642566821      2.9042040706     -0.5108053817     -0.0080807873     -0.0026636417      0.0047283395      0.0427186609
H       5.5569876177      2.0453245818     -1.8997741032      0.0043929927      0.0057450487     -0.0049805034      0.0290208150
H       5.0571402143      3.7147376841     -1.5373883599      0.0039908954      0.0039502005     -0.0017714043      0.0294573006
H       2.2526899636     -6.0113465695     -0.3997948402     -0.0016761258      0.0040023363      0.0019936049      0.0362160616
H       2.6425236909     -4.9198452800      0.9531118643     -0.0031988237      0.0041112150      0.0012342045      0.0467337768
H       1.0378393341     -5.6790788453      0.8590831451     -0.0022708580      0.0024453000      0.0002074436      0.0362588379
B       1.3987775697      0.3398263789      3.5682692575     -0.0111166420      0.0026285088     -0.0181054030      1.3907394342
F       1.4060182591      1.7060600843      3.1097989114     -0.0173719020     -0.0088562620      0.0012177686     -0.5775800765
F       1.9644818375      0.2330133328      4.8355104873      0.0004730387      0.0100372223     -0.0054182840     -0.5272994074
F       2.1299644505     -0.4493635692      2.6067947791     -0.0095435622      0.0067104597      0.0073370600     -0.5789544325
F       0.0371843349     -0.1134995176      3.5614413510      0.0058540201     -0.0093257045      0.0188617611     -0.5795857190
