60
Properties=species:S:1:pos:R:3:forces:R:3:charge:R:1 energy=-318.84936281919545 homo_lumo=3.574910809594091 dipole="-4.247707981874711 -0.11967164469422582 7.114800766412994" free_energy=-318.84936281919545
N      -0.0040935820     -0.0004691336      0.0052239552     -0.0712080710      0.0020946403      0.0710583900     -0.5130816901
C       0.8414182212     -1.0309350335      0.7068020860      1.1305905214     -0.7401597290      0.9700235001     -0.0614620022
C      -0.8789759090      0.6777557371      1.0265940184     -1.1450096367      0.9133238181      0.6946193262     -0.0580925809
C      -0.8279502223     -0.6932526035     -1.0483875097     -1.1118333232     -0.9990748620     -0.7799175156     -0.0666931767
C       0.8491308727      1.0445760539     -0.6641804285      1.2451695400      0.7669348940     -1.0186311314     -0.0674755138
C       1.8922791213     -0.4822452059      1.7073476642     -0.2445458918      0.0180547274     -0.3159639672     -0.2192017832
C      -1.9445129220      1.6559979475      0.4663608293      0.2690166616     -0.2866965183      0.0078971843     -0.2200326282
C      -1.8980971296     -1.6886153960     -0.5291203542      0.2689244905      0.3109875162      0.0172296212     -0.2186450018
C       1.9378367810      0.5138341172     -1.6324707863     -0.3238429049     -0.0002079835      0.3063824105     -0.2239458931
C       2.6698861969     -1.6342963487      2.3582435741     -0.0886456413     -0.0989566777     -0.0747783425     -0.2112042157
C      -2.7553928334      2.2827551323      1.6085089075      0.0887046673     -0.0718941718      0.0803284283     -0.2100028064
C      -2.6539710975     -2.3278763044     -1.7018948929      0.0927935606      0.0530786026     -0.1009788785     -0.2124049996
C       2.7292072688      1.6774802448     -2.2436115115     -0.0136401364      0.1017982757      0.0636314506     -0.2055700052
C       3.7014680431     -1.1145160319      3.3549126577      0.1072861883     -0.0421994972      0.0889256337     -0.0902846621
C      -3.7985295817      3.2605578470      1.0761007997     -0.1094921502      0.0924295205      0.0530618436     -0.0903788200
C      -3.7014283066     -3.3223488840     -1.2105743916     -0.1002776796     -0.0843929077     -0.0437258280     -0.0894771869
C       3.7905683055      1.1730808933     -3.2153315738      0.0097253655      0.0098372058     -0.1013700916     -0.1023684316
H       1.3669952086     -1.6738772306     -0.0339633236     -0.3165647709      0.4912351496     -0.0349353528      0.1616019151
H       0.1947331443     -1.7207891130      1.2897510643     -0.1727779451      0.4100098648     -0.3682793472      0.1689242357
H      -0.2552711822      1.2732697423      1.7266850440      0.1845405872     -0.3679562276     -0.4163241489      0.1728796715
H      -1.3956593382     -0.0770476582      1.6602672536      0.3127189088     -0.0209811612     -0.4565286524      0.1480042136
H      -0.1681609805     -1.2793340218     -1.7229959525      0.1647071166      0.4086820414      0.4058840382      0.1875988144
H      -1.3317248204      0.0528065024     -1.7025354012      0.3337314377      0.0178944559      0.4677219076      0.1596460790
H       1.3408569124      1.6918732922      0.0957885823     -0.3150149305     -0.4731057772      0.0284880830      0.1483744598
H       0.2128280093      1.7273047980     -1.2664899864     -0.1725068163     -0.4182919674      0.3562365172      0.1762645645
H       1.3971525694      0.0916148414      2.5160307788      0.0884505497     -0.0053604808     -0.1949860009      0.1168748604
H       2.6212266741      0.1800663876      1.1983877404     -0.2101896299     -0.0641203795      0.0945179816      0.1373597762
H      -2.6502596438      1.1335737279     -0.2104153579      0.1977085730      0.1127314287      0.0521701826      0.1293053602
H      -1.4594876038      2.4797067925     -0.0946317895     -0.0874778404     -0.2262320951     -0.0000575065      0.1289282572
H      -2.6380185588     -1.1778234579      0.1194164073      0.1840517257     -0.1086295415     -0.0341136295      0.1216408381
H      -1.4211827023     -2.5039322010      0.0509477735     -0.0939787627      0.2015097318     -0.0068434428      0.1206050584
H       1.4740265451     -0.0534134593     -2.4642467647      0.1215423070      0.0212030829      0.1871254245      0.1359311159
H       2.6532353462     -0.1497768136     -1.1065402695     -0.1772234852      0.0463376966     -0.1160510430      0.1255616349
H       3.1946621312     -2.2242121290      1.5753533756     -0.2295026536      0.0438283978      0.1527363089      0.1085013913
H       1.9655471131     -2.3075297066      2.8944063681      0.1278469882      0.0556509563     -0.2411880813      0.0939172751
H      -2.0743610422      2.8297385096      2.2968816465     -0.1242080469     -0.2456591144     -0.0631844435      0.0974287482
H      -3.2733394802      1.4851421922      2.1844912274      0.2197901976      0.1525811386     -0.0208191042      0.0977611754
H      -1.9382163164     -2.8634453639     -2.3635067178     -0.1427842532      0.2628129284      0.0630059961      0.1093923191
H      -3.1618798216     -1.5383455463     -2.2976794298      0.2372899456     -0.1613560396      0.0337965432      0.1043790279
H       3.2283567336      2.2587319975     -1.4378281267     -0.2450658388     -0.0122145861     -0.0882593883      0.0824265802
H       2.0388192217      2.3551148099     -2.7922891535      0.1061107614     -0.0769368455      0.2236381753      0.0979665094
H       3.2022103565     -0.5344644987      4.1601370716      0.2440969912     -0.1211956818     -0.1905105831      0.0448303923
H       4.4426486338     -0.4672817151      2.8397071103     -0.1665191657     -0.1517101825      0.2563834629      0.0546562696
H       4.2363281755     -1.9720187836      3.8147808303     -0.0798204587      0.3466870853     -0.0705592938      0.0663650409
H      -4.5153724443      2.7343215160      0.4105792499      0.1568930150      0.2622793847      0.1475160170      0.0497216574
H      -3.3059473469      4.0809578710      0.5117407402     -0.2480018163     -0.2067555728      0.1167903611      0.0529327532
H      -4.3598302650      3.7019746301      1.9263029903      0.0883155652     -0.0614032278     -0.3464553089      0.0647628736
H      -4.4521278836     -2.8077537347     -0.5739238902      0.1567875647     -0.2559419441     -0.1378717726      0.0439143196
H      -3.2183251984     -4.1349722631     -0.6271502336     -0.2431417049      0.1925640956     -0.1301750178      0.0476473624
H      -4.2219026621     -3.7723393279     -2.0820297105      0.0806533158      0.0629915500      0.3467583512      0.0693531862
H       3.3159656541      0.5941740151     -4.0361989683      0.3806750866      0.2012931492      0.1194077410      0.1053257281
H       4.5231005071      0.5278460918     -2.6855453157     -0.1535784419      0.1424932735     -0.2557302982      0.0308464816
H       4.3298420819      2.0384143801     -3.6546459670     -0.1162993121     -0.4410204690     -0.0176135715      0.0827062488
P       4.5020793294      0.0964061973     -7.5982749129      0.4111010257      0.0861633097     -0.5818412636      2.1020635903
F       4.1857434147     -0.7539967657     -9.0572074535     -0.0128382648      0.6148864351      1.5018824324     -0.5071987990
F       2.8921218946      0.6934205154     -7.5375278376      1.3153597409     -0.3383077900     -0.0661849709     -0.5187612817
F       3.9621588413     -1.2198178166     -6.6347837374      0.5059175586      0.9927553997     -0.6722078029     -0.5210446145
F       4.9366808188      1.0077350185     -6.2095520148     -0.6234017680     -0.7888062186     -0.7468381019     -0.5219441583
F       6.0856182993     -0.5697309570     -7.5957981302     -1.3482069634      0.6724308445     -0.0460517643     -0.5087185245
F       4.9786650043      1.4457743573     -8.5487118334     -0.3429016529     -1.1979929509      0.8317583330     -0.5084110099
