29
Properties=species:S:1:pos:R:3:forces:R:3:charge:R:1 energy=-168.23766816740223 homo_lumo=1.7022666987486714 dipole="-1.4971782005096546 1.9361506041476464 -0.8662013954758614" free_energy=-168.23766816740223
N       0.3683541769     -0.2802859644     -0.4939127493      0.0075762236      0.0008371100     -0.0028889529     -0.4999012602
C       1.6139896560      0.3799545322     -0.9515313283      0.0054341929     -0.0031749984      0.0220144169     -0.0177971959
C       2.4758251599      0.8082204350      0.2340237362     -0.0086826229     -0.0076664116     -0.0163465821     -0.2571364711
C       3.8488674917      1.2775435058     -0.2342838149      0.0006231257      0.0083399025     -0.0128146355     -0.0824521163
C      -0.6152942608      0.4761445045      0.0569342483     -0.0067279637     -0.0105762517      0.0003675721      0.2630719850
C       0.2942031170     -1.6276654635     -0.4931593508     -0.0035454436      0.0015057534     -0.0029577807      0.2975323526
C      -1.7468731561     -0.1127505595      0.5696427907     -0.0038015653     -0.0106267493     -0.0033616012     -0.0336564326
C      -0.8440229104     -2.2649102584     -0.0054504174     -0.0083473762      0.0095744799      0.0037102098      0.0007004586
C      -1.8698002584     -1.5098195037      0.5292245741      0.0025210535      0.0047939578      0.0017616204      0.0343672346
H       2.1471463952     -0.3523089288     -1.5722779792      0.0087783321     -0.0109108611      0.0004812028      0.1461494778
H       1.3227663029      1.2311264431     -1.5872259570     -0.0055994649      0.0067813105     -0.0119196447      0.1045641324
H       2.5697050662     -0.0557327621      0.9113663213      0.0013525737     -0.0010203606      0.0062554511      0.1987903519
H       1.9598561328      1.6120342441      0.7892391833      0.0000586994     -0.0035545245      0.0031885589      0.0875505600
H       4.3879024713      0.4572988079     -0.7322963084     -0.0003749815      0.0025377878      0.0044341423      0.0612758037
H       4.4524466562      1.5956864337      0.6271913497      0.0062218565      0.0057534811      0.0077542464      0.0560310176
H       3.7797479754      2.1266144490     -0.9341206498     -0.0076847664     -0.0092157322      0.0099414795      0.0283274299
H      -0.4478302291      1.5511164849      0.0548538041     -0.0077941769      0.0035900189     -0.0012054824      0.0908951220
H       1.1065079039     -2.1872473439     -0.9501132003     -0.0024898150      0.0065315574      0.0092784257      0.1433862572
H      -2.5268171524      0.5146284220      0.9995770253     -0.0047989009      0.0012045441     -0.0052492379      0.0524312334
H      -0.8540905672     -3.3545664317     -0.0234778809     -0.0047806341     -0.0038962349     -0.0032895200      0.0783184709
H      -2.7638840737     -1.9932290987      0.9266463833      0.0059969902      0.0048369158      0.0079248040      0.0570335866
S       2.3913472907     -3.3883624469      1.1853280549      0.0205430656      0.0009768924     -0.0085577808      1.7581008610
O       1.7574442400     -2.0599209729      1.4413114562      0.0038071884      0.0238081336      0.0009431798     -0.7937700855
O       1.6996859749     -4.1600183674      0.1360682287     -0.0082827737     -0.0045419900     -0.0252815319     -0.7934830418
O       2.8406069876     -4.0994851011      2.3759393848     -0.0060702598     -0.0226327969      0.0068458861     -0.7412314521
C       3.9930243106     -2.8975418661      0.3301666835     -0.0160102715     -0.0082041421      0.0047579608      1.1255302432
F       4.7297815999     -2.0374077604      1.0815662336      0.0129519395      0.0054765053      0.0164142470     -0.4493469578
F       3.7311344217     -2.2563917864     -0.8662817646     -0.0035692089      0.0175818478      0.0002793442     -0.4800746977
F       4.7559382721     -3.9762948356      0.0487841189      0.0226949844     -0.0081091447     -0.0124799975     -0.4352068672
