54
Properties=species:S:1:pos:R:3:forces:R:3:charge:R:1 energy=-292.18245725212006 homo_lumo=1.806739249731176 dipole="-8.298722661902602 5.871206215315508 -0.9780747727777666" free_energy=-292.18245725212006
N      -0.0704160169      1.4807719274     -0.0046667048     -0.0560281500     -0.0668343914     -0.0143151558     -0.5209773488
C       0.5220478809      2.4149908419      1.0023368383      1.2838918733      1.0499986752      1.7393807737     -0.0122020448
C      -0.7367726412      2.3667667903     -1.0077724671     -1.3548284304      0.9593970894     -1.6971612362     -0.0108246162
C       1.0125692507      0.6945047100     -0.6802483431      1.2882311517     -1.2139839131     -0.3270069769     -0.0518942688
C      -1.0831508028      0.6043628347      0.6688918957     -1.1062378541     -1.2370367040      0.3400108001     -0.0468903003
C       0.0003719127      3.8114015879      0.7217900725     -0.4481650338      0.4257026815      0.5823304761     -0.1419907632
C      -0.2886787502      3.7924190898     -0.7523454306      0.4260605910      0.4353683449     -0.6000962850     -0.1433777484
C       1.7661697351     -0.2919912752      0.2443772470     -0.3500319847      0.3426900612     -0.1748682137     -0.2165973593
C      -1.7780561011     -0.4185810912     -0.2622833645      0.3055590793      0.3124334966      0.1537766108     -0.2159362247
C       2.9771447563     -0.8939688081     -0.4797252139     -0.1606804961      0.0515310312      0.1825314618     -0.1696402231
C      -2.8760393741     -1.1755148706      0.4967433406      0.1359255210      0.0841200770     -0.1628824542     -0.1724090990
C       3.7040357456     -1.9127658365      0.4054805589      0.1001555070     -0.0482559529     -0.2028613030     -0.2105431881
C      -3.5938905760     -2.1792764102     -0.4128136475     -0.0577874206     -0.0258551665      0.1491171817     -0.2135383994
C       4.8915616494     -2.5306046476     -0.3272074380      0.0929606751     -0.1389215169      0.1017733912     -0.0984933235
C      -4.6628408273     -2.9511373522      0.3565501156     -0.1282085500     -0.1531414517     -0.0863528171     -0.0904861436
H       1.6327466468      2.4655195094      0.9300919518     -0.4581114451     -0.5312782404     -0.2822450968      0.1630180609
H       0.2914670966      2.1327694192      2.0551723256      0.0319282074     -0.3277432855     -0.6136190886      0.1459129901
H      -1.8463603862      2.3564657704     -0.9073286371      0.4715765112     -0.4731726092      0.2715450396      0.1506288939
H      -0.5147467242      2.0847239571     -2.0624033119      0.0069903458     -0.3230092598      0.6134309724      0.1464866633
H       1.7545975313      1.3966224015     -1.1276570659     -0.4740985824      0.0700202739      0.3196869830      0.1571218029
H       0.6003007366      0.1192355477     -1.5384257053     -0.2238023361      0.3157625360      0.3892190707      0.1590459000
H      -1.8700190961      1.2414586278      1.1364536373      0.4626486681      0.1168983143     -0.3180606554      0.1498746327
H      -0.6166366402      0.0486128255      1.5120855857      0.2002653839      0.3265601286     -0.4107390574      0.1677057311
H       0.7450927426      4.5946466286      0.9829370200     -0.3586328804     -0.3136597372      0.1361075525      0.1104016670
H      -0.9410003150      3.9847179457      1.2891598212      0.3092173185      0.0890271101     -0.0844651523      0.1046636581
H      -1.0735375109      4.5311171038     -1.0255085155      0.3724055057     -0.2935201253     -0.1377647005      0.1065405756
H       0.6424022416      4.0049414130     -1.3232616817     -0.3212408979      0.0672901179      0.0788483116      0.1111961798
H       1.0904103992     -1.1210299265      0.5420114409      0.1215017284      0.2100848449      0.0187300368      0.1289374066
H       2.1155200430      0.2198817751      1.1655412013     -0.1149122504     -0.1223594647     -0.1448603443      0.1169971706
H      -1.0415045574     -1.1599711438     -0.6355219876     -0.1267982745      0.2216371407      0.0030057525      0.1378610372
H      -2.2311517192      0.0939173367     -1.1367253989      0.1386730607     -0.1134031369      0.1266857853      0.1159650871
H       3.6830490236     -0.0803185104     -0.7576964695     -0.1368788675     -0.2109880586     -0.0525401026      0.0971419745
H       2.6329075357     -1.3968169078     -1.4104931977      0.1624884612      0.1468273121      0.1224133739      0.0950644774
H      -3.6185533875     -0.4491007461      0.8948938832      0.1525779751     -0.1957213956      0.0271997959      0.0941343519
H      -2.4185352007     -1.7179715996      1.3536269666     -0.1841741944      0.1525675275     -0.1146814583      0.1056249984
H       3.0020860065     -2.7240628767      0.6971822988      0.0493975863      0.2469884815      0.0474534019      0.0846469798
H       4.0704604049     -1.4142708848      1.3294957194     -0.1950641185     -0.1342858333     -0.1345640823      0.0979568658
H      -2.8591427852     -2.9020674585     -0.8297559777     -0.1244115283      0.2514261039     -0.0150551571      0.1012694104
H      -4.0770553647     -1.6404255351     -1.2568992444      0.2297065857     -0.1128046926      0.0961573920      0.0930785087
H       5.3576594195     -3.3072118122      0.3143498976      0.1013895360      0.2973022186     -0.3259955470      0.1119919299
H       4.5588403227     -3.0089131577     -1.2729599389      0.1580920171      0.1225596460      0.2207629337      0.0290341470
H       5.6503167558     -1.7521940916     -0.5570744883     -0.1119530806     -0.4108380578      0.0477157686      0.0642376053
H      -5.1687432091     -3.6665257459     -0.3254636842      0.0592549724      0.1604543623      0.3157526559      0.0606621610
H      -4.2016396723     -3.5219828659      1.1906841614     -0.2336720386      0.1414970846     -0.2006737631      0.0512980723
H      -5.4236184023     -2.2532496785      0.7669927342      0.1703778821     -0.2794420336     -0.0501021649      0.0451286308
N       8.6892271119     -5.4944809317      0.3928873568     -0.0842260152     -0.0615849922     -0.2950103010     -0.8466765467
S       8.9450033674     -3.9129528034      0.0579834191     -4.3599457205      1.2097670813     -0.7131561204      1.8481519274
S       8.4221621713     -6.0081682322      1.9236272129      4.9916445398     -1.0654764700      1.5723781379      1.8325271005
F      10.5164991082     -3.5098610254      0.4702272634     -0.5214417366     -0.2707573332     -0.2530359431     -0.4453199843
F       6.8539024960     -5.6245413070      2.3666850753      0.2329079479     -0.1350370539     -0.2960776343     -0.4584027014
O       8.7376793958     -3.6702892836     -1.4094529404      1.6708541198     -0.8805550290      1.8190060589     -0.7277169513
O       8.0004357466     -3.0566829969      0.8529181951      1.9683929259     -0.5986400860     -0.1812236190     -0.7515989510
O       9.3761479200     -5.3323179588      2.8679298071     -2.2222937530     -0.0913011233     -0.8124901281     -0.7237982534
O       8.6091020807     -7.4965719101      1.9942718990     -1.7814500375      2.0216953733     -0.7731151600     -0.7149921588
