52
Properties=species:S:1:pos:R:3:forces:R:3:charge:R:1 energy=-292.3210649446533 homo_lumo=3.572632212047638 dipole="0.9663499683806661 1.8084294643384748 -2.286342198805607" free_energy=-292.3210649446533
N      -0.9554841052      1.0230923821      0.3915241630     -0.0107857003      0.0023466539      0.0008841747     -0.5119828806
N      -2.8656865850      0.4781901656     -0.4941982830      0.0036338820      0.0012665391      0.0017558263     -0.5103983949
C       0.4272883545      0.9344117241      0.9026854009     -0.0029940274     -0.0067178711      0.0025792622      0.0014110063
C       0.6250528154     -0.1909404597      1.9201597055      0.0004995718      0.0011518903     -0.0010096500     -0.2201205751
C      -3.9634195245     -0.3349987716     -1.0577720977      0.0040938041     -0.0031619946     -0.0021344119     -0.0201763691
C       0.9490476352     -1.5551616173      1.3114184642      0.0090341408      0.0013767199     -0.0066591034     -0.2118574835
C      -3.4750723455     -1.4650802106     -1.9443977881     -0.0024535348     -0.0120587387      0.0012321380     -0.2323403450
C      -1.6036494911      0.0771478845     -0.3033781530      0.0006511183     -0.0063807551      0.0027612776      0.5906445178
C      -1.8348328480      2.0536181808      0.6561278731      0.0043376740     -0.0076910390      0.0002653751      0.2139395789
C      -3.0320109396      1.7114295788      0.1015015486      0.0028986453     -0.0030007309     -0.0021286090      0.2171090263
C       1.1780247524     -2.6159897494      2.3873530987      0.0080810976     -0.0018951093      0.0020659760     -0.2259419315
C      -2.7965254007     -1.0183537110     -3.2372777050      0.0077677860      0.0041883709     -0.0040514751     -0.2177745292
C       1.5122962693     -3.9834023936      1.7984362316     -0.0053096790      0.0004314517     -0.0061087718     -0.0767990011
C      -2.2736830365     -2.2031420750     -4.0452433940     -0.0049446086     -0.0031041525     -0.0068875854     -0.0696424153
H       0.6275370693      1.9152407165      1.3561861712     -0.0030981237      0.0019288782     -0.0084029275      0.1085881410
H       1.0988862171      0.8224504837      0.0358670920     -0.0007426028     -0.0036333581     -0.0014511625      0.1038901918
H       1.4640254228      0.1129844242      2.5712441640     -0.0015340475     -0.0011737402      0.0040787229      0.0964653875
H      -0.2673902837     -0.2678283333      2.5645725095     -0.0025181527     -0.0030511250     -0.0028984286      0.1935669004
H      -4.5172426762     -0.7528605003     -0.2019876475      0.0073174993     -0.0002455806     -0.0024187791      0.1804169492
H      -4.6065955107      0.3625768101     -1.6167981032      0.0026817865     -0.0054419893     -0.0055431926      0.1022989552
H       1.8466593718     -1.4709171422      0.6673972002     -0.0003330508      0.0017613458      0.0028153845      0.0590313642
H       0.1157331406     -1.9011668696      0.6787432896      0.0043934823     -0.0030749131     -0.0048546743      0.1453194886
H      -4.3640435348     -2.0772980816     -2.1769895068      0.0065907020      0.0052164066      0.0003798608      0.1311033889
H      -2.8292687124     -2.1376206340     -1.3534939200      0.0048148147     -0.0027068354     -0.0064773824      0.1430137873
H      -1.1841261902     -0.8652394804     -0.6162737900      0.0034970834     -0.0072158365     -0.0014422058      0.1538651289
H      -1.5414345279      2.9242549574      1.2281497508      0.0083176697     -0.0076077445      0.0076116576      0.0446917988
H      -3.9872786115      2.2208230206      0.1043862023     -0.0027690786     -0.0060557046     -0.0095427217      0.0462639437
H       0.2712462059     -2.6826419887      3.0104351048     -0.0022260461      0.0031797684      0.0017982818      0.1690718922
H       1.9970202562     -2.2856722411      3.0531602733     -0.0044029117      0.0018233112     -0.0021447036      0.0699504878
H      -3.5190762957     -0.4410217652     -3.8427234255     -0.0006012564     -0.0039614393      0.0007320861      0.0882310877
H      -1.9638254737     -0.3250912668     -3.0187798349      0.0010699927     -0.0045077674      0.0025675033      0.0977288287
H       2.4273092974     -3.9426756299      1.1841818113     -0.0071526531     -0.0012823353     -0.0006676543      0.0202266677
H       0.6901771042     -4.3481228552      1.1626509986     -0.0049440582      0.0029067272      0.0049292028      0.0488187384
H       1.6721271393     -4.7274280058      2.5930302769     -0.0038409013     -0.0085683974      0.0013091636      0.0373934814
H      -1.5261338185     -2.7730559754     -3.4703277965      0.0036667500     -0.0004851623     -0.0025331299      0.0418097427
H      -1.8034550611     -1.8732114194     -4.9832862859      0.0030907126     -0.0086078211     -0.0028512697      0.0406700043
H      -3.0918260945     -2.8957217607     -4.2995692944      0.0029723791      0.0003681107     -0.0018348938      0.0455795077
N      -3.9382683566     -2.3477444704      3.2614388924     -0.0074376030      0.0009624184      0.0084925024     -0.8423167140
S      -3.3282496780     -2.6532750892      1.8287122269      0.0063962591     -0.0007363282      0.0008141425      1.6440623657
S      -3.1214498502     -1.6144641050      4.4523427960      0.0004695383      0.0129847730      0.0017736831      1.6271519567
C      -2.6454714220     -4.4072725093      1.9489276201     -0.0134132151      0.0148116191     -0.0019916195      1.1901911325
C      -3.5867423619      0.1959515961      4.1886460601     -0.0106135931     -0.0126449076     -0.0148825629      1.1629956427
O      -4.4200060523     -2.7847127389      0.8638435617      0.0093295439     -0.0010215648      0.0061856720     -0.7598060448
O      -2.1505644157     -1.8706149097      1.4257043058      0.0055056078     -0.0096045649      0.0008177609     -0.7909048055
O      -1.6656723216     -1.6216894337      4.3375311874     -0.0027102722      0.0280993971     -0.0021156504     -0.7516173067
O      -3.7703054177     -1.9493424616      5.7071272640      0.0079178862      0.0084237971     -0.0021027773     -0.7109982117
F      -2.0075495735     -4.7068430131      0.7810791732     -0.0021093686     -0.0074924499      0.0049307263     -0.4559497150
F      -3.6332568353     -5.3053978611      2.1361646435     -0.0052926551     -0.0066964896      0.0123018471     -0.4290204114
F      -1.7549715167     -4.5165121974      2.9578048163      0.0154163901      0.0022053574      0.0208245863     -0.4417119627
F      -3.2201618279      0.9170707455      5.2738018069      0.0072434796      0.0305546084      0.0053473037     -0.4373099187
F      -4.9146218734      0.3567845812      3.9917809150     -0.0196779635      0.0077505791      0.0142639116     -0.4354769521
F      -2.9388209364      0.7157098696      3.1033405895     -0.0197841932      0.0160877231     -0.0103826869     -0.4633551233
