52
Properties=species:S:1:pos:R:3:forces:R:3:charge:R:1 energy=-292.64940224650616 homo_lumo=3.802741766203963 dipole="-1.2611536295718944 2.685776544840778 0.5027825494826588" free_energy=-292.64940224650616
N       1.0970439314      0.1494783885     -1.2904329197      0.0003306293     -0.0014462933     -0.0016838231     -0.5143470552
N      -0.6529310304     -1.0128849121     -0.7613799757      0.0016564894     -0.0023645640     -0.0012177454     -0.5091465012
C       2.4926458493      0.5121408144     -1.5744704159      0.0013438563     -0.0087164438      0.0011628058     -0.0225718419
C       3.2275823146      0.9259184766     -0.3008746795     -0.0047872010     -0.0024938763      0.0005127075     -0.1788148726
C      -1.5053429122     -2.1544693375     -0.3928848686      0.0052027910     -0.0103727862     -0.0045825955     -0.0294415470
C       3.2337259707     -0.1719168325      0.7578485506     -0.0175873959      0.0034592527      0.0065682643     -0.2505830172
C      -1.4512074020     -2.4198653761      1.1097739006     -0.0087576004      0.0003042690     -0.0029360833     -0.1853780988
C       0.6356090276     -1.1005542558     -1.1224142239      0.0013550349      0.0020145109      0.0006437552      0.5319695597
C       0.0867014395      1.0489093929     -1.0159111273      0.0056862728     -0.0085942912      0.0014133981      0.2020821894
C      -1.0144037676      0.3162728865     -0.6816693556      0.0020978450     -0.0113700893      0.0047801306      0.2073229974
C       4.0464275908      0.1826377427      2.0015473018     -0.0069821390      0.0081484552      0.0008874879     -0.2019528159
C      -0.0810981482     -2.8811986427      1.5993732529      0.0118681117      0.0048554607     -0.0071665227     -0.2945783894
C       4.0392964095     -0.9515584535      3.0254845523     -0.0059867476      0.0067723507     -0.0047147341     -0.0862093509
C      -0.0623389718     -3.1636599745      3.0979411339      0.0100114120      0.0023976855      0.0018807777     -0.0817913911
H       2.4710806969      1.3180138025     -2.3237651520      0.0091302955      0.0001477566     -0.0067820772      0.1046129368
H       2.9605223800     -0.3710711650     -2.0287757416      0.0026238137     -0.0007924627     -0.0000169400      0.1642665070
H       4.2622851232      1.1776407007     -0.5941801679     -0.0032860285     -0.0023342421     -0.0026198108      0.1022326063
H       2.7793660349      1.8524409067      0.1038114807      0.0003845129      0.0015097713     -0.0053405343      0.0855936050
H      -2.5230431773     -1.9045330147     -0.7283553865     -0.0024828680     -0.0156059457     -0.0049657065      0.0985646406
H      -1.1452893027     -3.0126864218     -0.9807659633      0.0039881038     -0.0082152564      0.0055415717      0.1926567466
H       3.6262272193     -1.1073695310      0.3267838791     -0.0061697200     -0.0008969246      0.0048822089      0.1777543048
H       2.1964102750     -0.3925063418      1.0695381082      0.0003138873      0.0068352025      0.0060790463      0.1362657693
H      -2.2061510601     -3.1971162796      1.3257369064      0.0084686609     -0.0014098135     -0.0101923718      0.1007949452
H      -1.7709012150     -1.5115535455      1.6555666810     -0.0007593984     -0.0120229441     -0.0076804299      0.0867797724
H       1.1995689183     -2.0386692977     -1.2135462483      0.0054830723     -0.0012730760      0.0000840270      0.2393008107
H       0.2333710440      2.1190139741     -1.0952691257      0.0007409433     -0.0035036719     -0.0031325592      0.0438711864
H      -2.0187138060      0.6230842779     -0.4158049999     -0.0012660335     -0.0084555525     -0.0000492514      0.0436059664
H       3.6436188542      1.1083772087      2.4538301867     -0.0027125291      0.0030672589     -0.0012772536      0.0652749288
H       5.0865493601      0.4078869487      1.7026646285     -0.0046690408     -0.0032558595     -0.0032377311      0.0780478551
H       0.2253907000     -3.7782809837      1.0366923514      0.0043820802      0.0038695505      0.0041679044      0.1545599255
H       0.6817845773     -2.1173445875      1.3724138561     -0.0014784077      0.0013820446      0.0049775512      0.1772548828
H       4.4620938765     -1.8701922022      2.5914860480     -0.0153631219      0.0059186390      0.0059500913      0.0742533852
H       3.0101824123     -1.1862949427      3.3418639953     -0.0124544710      0.0093791580      0.0047024713      0.0528467188
H       4.6191341111     -0.6872114435      3.9223426727      0.0011180665      0.0128407043      0.0016229432      0.0283157967
H      -0.3116585248     -2.2602305356      3.6784613374     -0.0038256386      0.0024645033     -0.0005783164      0.0221829007
H       0.9340680177     -3.5082316598      3.4119919158     -0.0038100584      0.0088044401     -0.0025126486      0.0666909343
H      -0.7921319181     -3.9456895565      3.3632559043      0.0066651329     -0.0015258713     -0.0024017709      0.0357156394
N       1.9334195334     -3.9349447915     -1.0344192689      0.0112094608      0.0006385822      0.0035040873     -0.9318439487
S       1.3288733244     -4.7028104117     -2.3246399137     -0.0073470158     -0.0127825982      0.0077432598      1.6233039142
S       3.3713884827     -4.2983796887     -0.3740074524      0.0179409362      0.0100675346     -0.0128839429      1.6420881054
C       0.6232744473     -6.3529636173     -1.7120259368      0.0134038434      0.0122226461      0.0142908528      1.1729111301
C       4.6649909381     -3.4810679773     -1.5103723027     -0.0100255545     -0.0166409831     -0.0226728158      1.1668194846
O       0.1218599519     -3.9435322388     -2.6715965855     -0.0071797973      0.0068889649      0.0104102211     -0.7736604839
O       2.2893461290     -5.0722620791     -3.3535788378     -0.0013693773     -0.0093469867      0.0026360441     -0.7129877019
O       3.7234092063     -5.7083410457     -0.3741330745      0.0128291202     -0.0079898553      0.0027703822     -0.7102101398
O       3.4519292700     -3.4998315347      0.8446507860      0.0165266742      0.0179231367      0.0106088509     -0.7592671191
F      -0.2932905001     -6.7842566970     -2.6128167358     -0.0086063624      0.0074829646      0.0016997278     -0.4355037102
F      -0.0007283957     -6.1876931405     -0.5148738497     -0.0155975407     -0.0020028670      0.0151562077     -0.4492715705
F       1.5754544110     -7.2912415170     -1.5861123013     -0.0178325442      0.0075041253      0.0230922110     -0.4216470292
F       5.7203421438     -3.0763665971     -0.7619671483      0.0162011139     -0.0008004819     -0.0131595759     -0.4387153961
F       4.1447819688     -2.3712782505     -2.1225973407      0.0135431912      0.0013591968     -0.0195267001     -0.4697807095
F       5.1039617219     -4.3205907287     -2.4595092950     -0.0141687595      0.0059555718     -0.0064370466     -0.4202374554
