51
Properties=species:S:1:pos:R:3:forces:R:3:charge:R:1 energy=-279.0667693796208 homo_lumo=5.164635329484097 dipole="1.7214138219327115 2.7283893947029525 -0.651111894736687" free_energy=-279.0667693796208
N       1.1093986585     -0.8128014887      0.6022828437      0.0092715568      0.0013511931      0.0064696914     -0.5158449897
C       0.9235585509     -1.2544877253      2.0458247244     -0.0024230291      0.0068090231      0.0060328437     -0.0547815858
C       1.9351137677     -1.9516054607      0.0291117695      0.0017878819      0.0042284483     -0.0042615552     -0.0051893618
C      -0.2019376720     -0.6882994651     -0.1447621040     -0.0035916287     -0.0051295529     -0.0076415667     -0.0472377576
C       2.2742401885     -1.8439630699      2.4482809915      0.0032539664      0.0025923525      0.0028800032     -0.1577983951
C       2.9361645879     -2.3113522002      1.1248439863     -0.0037209194     -0.0038739623      0.0024361168     -0.1563256853
C       1.8790761064      0.4642207613      0.5455766705     -0.0131644111     -0.0025957666      0.0067632618      0.0701904595
C      -1.2188807382      0.2325788108      0.5037726501      0.0012760385      0.0055756553      0.0134321246     -0.2084262073
C      -2.5328281051      0.1832008934     -0.2809994891     -0.0021920480      0.0003800695      0.0046864094     -0.1750582397
C      -3.6695014897      0.8942335248      0.4482935814     -0.0064380749     -0.0019663616     -0.0046624077     -0.1681098522
C      -4.9901290809      0.8278664058     -0.3161423020     -0.0037404037      0.0031453315     -0.0002809453     -0.2058915236
C      -6.1360191487      1.5056684319      0.4302220782      0.0064101908      0.0055279998      0.0089202836     -0.0654883255
H       0.1385424440     -2.0214379722      2.0240021822     -0.0069733298      0.0034413335      0.0022281173      0.2614095419
H       0.5989189468     -0.3943564171      2.6437631526     -0.0033656903      0.0033468174      0.0067553285      0.0966755223
H       2.3697281671     -1.6287259230     -0.9267310220      0.0044434897      0.0029685346     -0.0038515697      0.0897972776
H       1.2308365491     -2.7785865311     -0.1297201128      0.0018456548      0.0017538359     -0.0028466667      0.2041509317
H      -0.6153054883     -1.7043377606     -0.1770850831      0.0032905587      0.0070578197      0.0000338957      0.2285689925
H       0.0556017456     -0.3657240309     -1.1671673005     -0.0011452180      0.0014221595      0.0032082465      0.1021120830
H       2.1107936206     -2.6841666209      3.1354278814     -0.0037740828     -0.0040213757      0.0019202639      0.1544622709
H       2.9018370701     -1.1017041873      2.9642211216     -0.0034085450     -0.0029548003      0.0077103951      0.0702053052
H       3.9083533020     -1.8213938882      0.9665826706      0.0054042456      0.0040239873      0.0030896417      0.0768772391
H       3.0953818474     -3.3980955195      1.1203650913      0.0009734360      0.0026594839      0.0022611831      0.1278519840
H       1.2966139160      1.2514414537      1.0375405948      0.0044701344     -0.0010144414     -0.0029691085      0.0982827674
H       2.8360121298      0.3318821194      1.0631549034     -0.0035424778     -0.0012749247     -0.0025143259      0.1134847386
H       2.0533168477      0.7246931485     -0.5062876863     -0.0019763408      0.0002431075     -0.0014432871      0.0757642616
H      -1.4226059905     -0.1189022910      1.5280524063     -0.0021231601     -0.0008401232     -0.0121704322      0.1359093031
H      -0.8584593314      1.2749199713      0.5591134345     -0.0071977375     -0.0064791077      0.0005833863      0.0825225076
H      -2.8141308302     -0.8726781647     -0.4277302273     -0.0022414838      0.0006087330     -0.0001818801      0.1588212343
H      -2.3902047529      0.6273978836     -1.2835049642     -0.0051022941      0.0015045244     -0.0033432974      0.0679640584
H      -3.4000328643      1.9520149963      0.6316791614     -0.0028565153      0.0028981417     -0.0038715203      0.0724380972
H      -3.8021938708      0.4225657235      1.4398732924     -0.0028386348      0.0052030119     -0.0025554129      0.1006098696
H      -4.8594516192      1.2968345837     -1.3087818173     -0.0083461342      0.0011863692      0.0002178255      0.0787535243
H      -5.2408338743     -0.2322952968     -0.5003887375     -0.0084246336      0.0029278187     -0.0002064245      0.0999275183
H      -5.9094741371      2.5676025200      0.6202405982     -0.0047708415     -0.0001506710      0.0005531643      0.0283855023
H      -7.0752607988      1.4577835119     -0.1405727751     -0.0046197279     -0.0056380359     -0.0083837608      0.0385371734
H      -6.3088936778      1.0199225048      1.4039881004     -0.0027981658      0.0022707138      0.0028495087      0.0392067116
N      -1.7489525517     -5.2852179415      1.7072755633      0.0000521104     -0.0119602464     -0.0044147509     -0.8394853363
S      -0.2100498189     -5.2837371364      2.1578456826      0.0198936151     -0.0009794130     -0.0201227951      1.6369125508
S      -2.4970007419     -4.0334990709      1.0498482229      0.0041821665      0.0086374802      0.0165115231      1.6425725460
C      -0.2964234941     -4.6716903086      3.9423808920     -0.0115863232     -0.0060545730      0.0115894951      1.1678816576
C      -2.2068991484     -4.2869303794     -0.7979600633      0.0035928070     -0.0185342482     -0.0073295602      1.1651140272
O       0.2471496902     -6.6564738000      2.2748749063      0.0091198086      0.0157924476      0.0066592374     -0.7110265785
O       0.6578718493     -4.2906309076      1.5102677832     -0.0083019442      0.0013900132      0.0055489672     -0.7973555108
O      -1.9046485092     -2.7113477493      1.3026123386      0.0052096684     -0.0176353010     -0.0040793047     -0.7977702383
O      -3.9319878713     -4.1995819024      1.1996395940      0.0202862738     -0.0047481934     -0.0160129039     -0.7130735320
F       0.9601878457     -4.6459212782      4.4686828338      0.0153501339     -0.0116839322     -0.0025485543     -0.4522962699
F      -1.0658446758     -5.4717901351      4.7038005892      0.0060614429      0.0088510801      0.0088062614     -0.4266043469
F      -0.7934903827     -3.4056161250      4.0054552889      0.0083616125     -0.0077922581      0.0036574073     -0.4523240339
F      -2.8734537862     -3.3259965142     -1.4954272771     -0.0060318062      0.0094541290      0.0058608771     -0.4508883950
F      -2.6384263035     -5.4946164115     -1.2039654392      0.0043716567      0.0036916098     -0.0201812394     -0.4260823404
F      -0.8838304387     -4.1736046211     -1.1124767941     -0.0022128477     -0.0056159364     -0.0057921904     -0.4583311513
