41
Properties=species:S:1:pos:R:3:forces:R:3:charge:R:1 energy=-224.6090410935866 homo_lumo=5.691292340449661 dipole="-2.161348088188309 -1.988900487033373 0.6752396746916169" free_energy=-224.6090410935866
N      -0.4595105375     -0.1268712305      0.1577672708      0.1633214247     -0.1415307789      0.2032903483     -0.4942562223
C      -0.6987074200     -1.1365500338     -0.9203185446     -0.3106424488     -0.2240245924     -0.2485057058      0.0101290272
C      -1.5169026211     -0.4647252614      1.1574599750     -0.5365433613     -0.0593370243      0.0075021011      0.0297205905
C       0.9133093667     -0.2675275935      0.7687679911      0.4821320292     -0.1176025975     -0.2523892301     -0.0227129245
C      -2.2190012708     -1.2813265878     -1.0114435977      0.0784955985      0.0357408662      0.0130001654     -0.1289910564
C      -2.7615325287     -0.7392570729      0.3215577873      0.1223799165      0.0336316899      0.1070050754     -0.1400046345
C      -0.6562956357      1.2545851220     -0.4256636381     -0.1518171990      0.4944746047      0.3396422382     -0.0684374365
C       2.0273435081     -0.5162562064     -0.2451257366     -0.0538543985      0.1479150976      0.5941920890     -0.2249673244
C      -0.8902149715      2.3676472740      0.5930406094     -0.0660214900     -0.1518776032     -0.3870200748     -0.2532308405
C       3.3865160541     -0.3777760380      0.4535414007     -0.0798672308     -0.1431993550     -0.4845739098     -0.2020722178
C      -0.8532464466      3.7147651492     -0.1308939048      0.0093950765     -0.3412639240      0.2009023026     -0.0652470405
C       4.5279127547     -0.5591991292     -0.5434456187     -0.2367023086     -0.0186027868      0.2987748934     -0.0445378060
H      -0.2376499417     -0.7948941571     -1.8462821390      0.2264897825      0.0640571595     -0.1538834542      0.1351670754
H      -0.2387658993     -2.0760299799     -0.6070319571      0.1657046201     -0.1380590275      0.1126465211      0.1292254304
H      -1.2001580194     -1.3697891831      1.6814437523      0.1689116658     -0.1743370106      0.0556439339      0.1172291790
H      -1.6298566561      0.3430559685      1.8776047520      0.0732124738      0.1882823705      0.1868206412      0.1316554313
H       0.8666455649     -1.0971356617      1.4802030552     -0.1303668179     -0.2252260919      0.1424715422      0.0920591072
H       1.1081052432      0.6569384582      1.3141712123      0.0405230040      0.1546413224      0.0496687058      0.1933896291
H      -2.6189446152     -0.7145802128     -1.8538387861     -0.1181059345      0.0647593416     -0.2231156801      0.0838725208
H      -2.4850315023     -2.3304284388     -1.1523987362     -0.0555052078     -0.2295509503     -0.1222085806      0.0953081809
H      -3.4058256342     -1.4631819823      0.8224593651     -0.2129709514     -0.0947081067      0.1634109966      0.0873551323
H      -3.3336755315      0.1772459367      0.1647166622     -0.1732950360      0.2137407105      0.0036962225      0.0975329251
H       0.2428727931      1.4734238479     -1.0059752173      0.1693961827     -0.0011125677     -0.1548722672      0.2595836891
H      -1.5074586172      1.1977943319     -1.1075969869     -0.2279425544     -0.0889367286     -0.1639994222      0.1251460231
H       1.9355969894     -1.5210105190     -0.6707019283      0.0123371317     -0.2827497990     -0.1004685325      0.0733630860
H       1.9711360074      0.2089034959     -1.0580623435      0.0320037110      0.1987245128     -0.1869075801      0.1764564320
H      -1.8629699811      2.2479703469      1.0820695110     -0.2738221098     -0.0502013132      0.1310252031      0.0723546610
H      -0.1093052253      2.3551769259      1.3556272302      0.1935660036      0.0109907017      0.1687201798      0.1221470118
H       3.4565993665      0.6190147807      0.8969724631     -0.0210927751      0.2005845846      0.0965677834      0.1285454538
H       3.4635234258     -1.1200722279      1.2567508554      0.0215478256     -0.2113484005      0.2463285548      0.0536421928
H       0.1325200403      3.8854918084     -0.5617240833      0.2108613710      0.1180353311     -0.0985360825      0.1436449968
H      -1.5996079062      3.7444127054     -0.9261757927     -0.2621794370      0.0654353073     -0.2538529675     -0.0004162299
H      -1.0670102479      4.5125903325      0.5797330756     -0.0747411723      0.2840278017      0.1529000997      0.0178203211
H       5.4834289950     -0.5102140409     -0.0212650955      0.3470893287     -0.0003065698      0.0700215536      0.0183555881
H       4.4544514040     -1.5234841861     -1.0499940940      0.0291129186     -0.3315397655     -0.1521606123     -0.0015811868
H       4.4977329233      0.2369752697     -1.2869607459      0.0133856699      0.2249819204     -0.1830972272      0.0778124572
B       2.5165628778      2.8076509845     -0.8919725147     -0.1501886399     -0.2471751651      0.2343725400      1.4505322134
F       3.8516276449      2.4609833053     -0.9345539871      0.8802526717     -0.0634667109     -0.0748040303     -0.5531703393
F       2.2950929555      4.1616427825     -1.0221997379     -0.0439864996      0.9542012212     -0.1448276335     -0.5458892634
F       1.9574741149      2.3596220503      0.3514790840      0.0131624143      0.1131241000      0.5497510887     -0.5943084046
F       1.8090575085      2.1059035211     -1.9133256811     -0.2736352478     -0.2311917744     -0.7431317891     -0.5822254282
