38
Properties=species:S:1:pos:R:3:forces:R:3:charge:R:1 energy=-217.52028500202536 homo_lumo=1.742481099679756 dipole="-1.1730069763183388 0.4631852530133401 1.7666693397401456" free_energy=-217.52028500202536
N       3.0919684850     -0.2421744587      0.6670974935     -0.1341347100     -0.0421938865     -0.0733417908     -0.4804372213
C      -0.4840867527     -0.3670855843     -0.6294311636     -0.0270088483      0.2693677343      0.7935551848     -0.1671303490
C       0.6589751563     -0.1407726932      0.3644594333      0.0982512365     -0.2334852520     -0.6447419513     -0.1523886926
C      -1.8397267443     -0.0412558293      0.0042289312      0.1181295077     -0.2872723137     -0.8407233648     -0.1554846515
C       2.0015372541     -0.4696569372     -0.2873106233     -0.6932061014      0.1759683986      0.4126310361     -0.0305540328
C      -2.9832415451     -0.2672123524     -0.9899967873     -0.1302550519      0.2383295179      0.6937935748     -0.1984370683
C      -4.3378566411      0.0568693521     -0.3628208833      0.2980355161     -0.1353200325     -0.3461194559     -0.0448549481
C       3.6319642402     -1.2867686339      1.3108186627      0.2035846831     -0.1137962344      0.2025689607      0.3043893178
C       3.6339208164      0.9818312025      0.7505807538      0.1888815178      0.1667495874      0.1336575629      0.3007576376
C       4.7198172541     -1.1094523692      2.1412960688     -0.0119529631      0.0744441714      0.1747480467     -0.0152098746
C       4.7177287335      1.2125775872      1.5730140436      0.0172474602      0.0243482766      0.1862467879     -0.0089552039
C       5.2771413363      0.1547743891      2.2758924116     -0.3165217084     -0.0347860751     -0.1108061276      0.0380987366
H      -0.4744654790     -1.4105813340     -0.9607294422     -0.0119850898     -0.2722542334     -0.1504677434      0.0917441146
H      -0.3283361782      0.2648787048     -1.5097701921      0.0236741017      0.1282296147     -0.2847856222      0.0936467940
H       0.6629137179      0.9022310843      0.6972027254     -0.0373077643      0.2797882803      0.1303038140      0.0954476793
H       0.5193214630     -0.7750176422      1.2459539524     -0.0607904488     -0.1326211192      0.2706017074      0.0931428598
H      -1.9907438633     -0.6733506016      0.8862208652     -0.0615677145     -0.1385334225      0.2654307106      0.0822637132
H      -1.8445088917      1.0025077850      0.3370091016     -0.0256630894      0.2774804884      0.1267307578      0.0823350733
H       2.1914713579      0.1657208208     -1.1556762178      0.1385203701      0.0312897759     -0.1734293455      0.1422999593
H       2.0466477771     -1.5139548729     -0.6025377954      0.1249567920     -0.1344761854     -0.1076628901      0.1338207817
H      -2.8288318497      0.3647919024     -1.8708749332      0.0750585450      0.1111825758     -0.2704559128      0.0842166691
H      -2.9753763649     -1.3108939099     -1.3215742998      0.0427065563     -0.2584567544     -0.1473145383      0.0836611336
H      -4.3723400541      1.0996353828     -0.0441284552     -0.0656992773      0.3124274807      0.1125482189      0.0278133692
H      -5.1343047642     -0.1112331590     -1.0878475203     -0.3493759115     -0.0144089152     -0.1381609642      0.0334076095
H      -4.5190173316     -0.5776552641      0.5059150628     -0.1055766783     -0.1705679075      0.2747131350      0.0274276528
H       3.1819767609     -2.2560242786      1.1428721830     -0.1144558704     -0.0893665910     -0.0652384249      0.0962775587
H       3.1842353437      1.7613353452      0.1503395721     -0.1170190774      0.0563669999     -0.1050085952      0.0978629770
H       5.1471164048     -1.9668386021      2.6441791329      0.0662043090     -0.2176657841      0.0967342854      0.0466841313
H       5.1426088124      2.2066543713      1.6226449395      0.0651640047      0.2260512606     -0.0163358290      0.0457614232
H       6.1480065993      0.3068279907      2.9013166231      0.2225448870      0.0438026414      0.1471069883      0.0485202058
S       5.0307987363     -0.8825250623     -1.8435446906      0.3222095993     -0.0078839872      0.2079885258      1.7794417652
O       5.0406748465     -1.1889524843     -3.2476290106      0.2052688302     -0.3318327023     -1.4803611598     -0.7526867825
O       4.4679054938     -1.9210678551     -0.9821844103     -0.2697074305     -1.0882713054      0.5944780111     -0.8148662935
O       4.5630434565      0.4613552919     -1.5038426831     -0.1461969761      1.2494181890      0.0432962074     -0.8151577731
C       6.8097876173     -0.8382489261     -1.3182525184     -1.0560760493      0.0263677564     -0.1296264997      1.1589373237
F       7.4886413328      0.1093448539     -1.9496721689      0.6852207841      1.0253493429     -0.7475467549     -0.4426652568
F       7.4151813974     -1.9999188810     -1.5211386486      0.6145483046     -1.2646499254     -0.2831295129     -0.4424470958
F       6.8669005814     -0.5732236773     -0.0025419715      0.2242937552      0.2508805352      1.2481229677     -0.4666832427
