36
Properties=species:S:1:pos:R:3:forces:R:3:charge:R:1 energy=-203.74179210340512 homo_lumo=0.00633509314710911 dipole="-3.7152866497272368 -3.31732120568257 -2.823330941760802" free_energy=-203.74179210340512
N      -0.4939933899     -0.0009616532     -0.4056167030     -0.5201820567      0.0251069302     -0.3112574725     -0.5276503798
C       0.9346018918     -0.0088864995     -0.7444841996      0.9358436839     -0.0169175397     -0.0226890533     -0.0262039485
C       1.7783591729     -0.0153218273      0.5332137238      0.0912496039      0.0489405321      0.2583335962     -0.2457363842
C       3.2671915045     -0.0537354745      0.2101714693      0.1158659772     -0.0169555310     -0.1037460766     -0.1164713353
C      -1.1462289528      1.1899447527     -0.2362408565     -0.9894943270     -0.2846896648      0.3065033001      0.2610862203
C      -1.1563249947     -1.1852007289     -0.2292896119     -1.0231494734      0.2927124790      0.3204824661      0.2548396720
C      -2.4984654066      1.2143594953      0.1159525404      0.7543672910     -0.5471094586     -0.1717072954     -0.0047690468
C      -2.5085137147     -1.1963287764      0.1231802873      0.7904285343      0.5148156398     -0.1768581075     -0.0098675130
C      -3.1809092177      0.0123303250      0.2969504426      0.1307046554      0.0105532987     -0.0497132372      0.0429532447
H       1.1792566077     -0.9027488847     -1.3614598042     -0.3800060772      0.2369821868      0.1886265071      0.1289919829
H       1.1903138406      0.8843819617     -1.3580073694     -0.3626099840     -0.2408914163      0.2190171520      0.1381420948
H       1.5197984052     -0.9055147462      1.1468129323     -0.1167171894      0.2618545269     -0.0809902841      0.1134581086
H       1.5590118184      0.8988782967      1.1267423283     -0.0524546519     -0.2499296110     -0.0592624176      0.1609877806
H       3.5226382343     -0.9966485346     -0.3178166156      0.0360726185      0.2535317239      0.1105752453      0.0422173450
H       3.8515022629     -0.0013931317      1.1530673072     -0.1323916415      0.0537506851     -0.3732872145      0.1068750444
H       3.5425412650      0.8086858615     -0.4324955382      0.0579174579     -0.2944199371      0.2504441607      0.0677282986
H      -0.6201067856      2.1284539301     -0.3652377467      0.4955325504     -0.0840942504     -0.1170647408      0.1252702898
H      -0.6380382672     -2.1287491431     -0.3529773795      0.4783532006      0.1041684832     -0.1478507757      0.1098885800
H      -3.0118683731      2.1577214154      0.2505996827      0.0282795644      0.3095967834      0.0037450884      0.0777462826
H      -3.0294708532     -2.1346938193      0.2635719652      0.0101299180     -0.3019156246     -0.0053583890      0.0700824053
H      -4.2277928480      0.0173809565      0.5724213842     -0.2879261740      0.0036543473      0.0705111695      0.0684850248
N       4.2786095935      4.9992214082      3.2616293462      0.0809730617     -0.0678631600     -0.1320377810     -0.8424075753
S       2.8603347578      4.8869843957      4.0760092152     -3.3730957743     -0.6473394177     -5.7966227656      1.5697586810
S       5.1272660988      3.6840446567      2.7737220990      2.4719881740     -0.8018814759      6.7544745681      1.5763264123
C       3.1907579967      4.9210629480      5.8252855263      0.8053549996     -0.0138854483      2.0452865742      1.1612519480
C       4.7808607744      3.3775800478      1.0558164289     -0.2806202257      0.1592854086     -1.7371750588      1.1619200649
O       1.9927424675      6.0618714664      3.7243032337      1.8989786713     -0.8106578325      1.4464905757     -0.7179183959
O       2.1452304229      3.6124905467      3.7218850705      0.9800061091      0.9810110343      1.4624549543     -0.7346258619
O       4.7548127959      2.4753446588      3.5870053595     -0.1453852082      0.8497206578     -2.1089447805     -0.7184546342
O       6.5963090492      3.9575156333      2.9276500962     -2.0631318282      0.2649297940     -1.6027142328     -0.7065904485
F       2.0002608374      4.8614565942      6.5248164746      1.0923148254      0.0458327064     -0.4635902356     -0.4288475693
F       3.8513387276      6.0918830674      6.1455427397     -0.5474621750     -1.0044594720      0.0283715742     -0.4258628720
F       3.9800645863      3.8413332238      6.1714843333     -0.7547007447      1.0672654601     -0.0253030420     -0.4214056087
F       5.4954012549      2.2743089833      0.6292337450     -0.7131334375      0.9158375662      0.1041336031     -0.4387531499
F       5.1511575318      4.4778431355      0.3067782914     -0.4425046303     -1.0664312680      0.2396993083     -0.4244612760
F       3.4287224367      3.1467330369      0.8906060912      0.9306047023      0.0498908640     -0.3229768830     -0.4479834811
