36
Properties=species:S:1:pos:R:3:forces:R:3:charge:R:1 energy=-206.16111083827158 homo_lumo=2.2961017877061476 dipole="-1.3245037270902869 -1.0652780899309622 2.2081129371739716" free_energy=-206.16111083827158
N       0.4272004249      0.7008221022     -1.0592563964      0.2111663107      0.0961598359     -0.0342032770     -0.4822627692
C       1.8310319183      0.6740423362     -0.6357438567      0.1245986290     -0.4226136042      0.6801126744     -0.0519927172
C       1.9831786581     -0.1283111852      0.6572407964      0.3232347694      0.2559347737     -0.2173135353     -0.2064069878
C       3.4473895115     -0.1486022144      1.0893864205     -0.4549222064     -0.0409794482     -0.0717532376     -0.0585528610
C      -0.3120194097      1.7960550615     -0.8398799808     -0.4158161649      0.1655156658      0.0746189239      0.3048265610
C      -0.0690304940     -0.3560242995     -1.7196252602     -0.2922499202     -0.2255595825     -0.1392596041      0.2976901354
C      -1.6225042757      1.8510040923     -1.2684550052     -0.0233504872     -0.0796596672      0.0627231911     -0.0099446032
C      -1.3750105893     -0.3518663380     -2.1618659340     -0.0775498242      0.0147599691      0.1329643199     -0.0146320310
C      -2.1684952028      0.7653181219     -1.9383796552      0.2199173782     -0.0430769884      0.1148250890      0.0416595615
H       2.4097368192      0.2272967653     -1.4467912962      0.0030819920      0.0461598537     -0.1817458221      0.1786818682
H       2.1603291535      1.7048830483     -0.4987089739      0.0013796097      0.1560765465     -0.0874873797      0.1506602695
H       1.6268969787     -1.1502971158      0.4956421757     -0.1427759758     -0.2693613862      0.0006963594      0.0979835384
H       1.3671201568      0.3256769901      1.4400195964     -0.2179050314      0.0692464806      0.2098120877      0.0941697356
H       4.0660377031     -0.6033674432      0.3157784494      0.2506574786     -0.1238921571     -0.2004490169      0.0466814105
H       3.5533320755     -0.7264734823      2.0069115263      0.1143005699     -0.1523909355      0.2736315738      0.0481217619
H       3.8052154179      0.8649183941      1.2711722089      0.1743725435      0.2852037718      0.0677944908      0.0443665509
H       0.1706868882      2.6252504438     -0.3398110180      0.1274214178      0.0764054451      0.0612880270      0.1022150414
H       0.6041060503     -1.1840774682     -1.8999722292      0.1279732117     -0.0695330884      0.0089531188      0.1066754777
H      -2.1979740825      2.7515469308     -1.0976486430     -0.1059445038      0.2296645303      0.0625154570      0.0555258879
H      -1.7531999427     -1.2060981102     -2.7080056042     -0.0441911205     -0.2048803318     -0.0948212549      0.0576679945
H      -3.1890333740      0.7962345391     -2.2995908346     -0.2513081302      0.0153956371     -0.0930383433      0.0545218247
N       2.1759685430      2.4770508739     -4.9035641109     -0.1172403606     -0.1213298845      0.2658995121     -0.8349106799
S       2.2634517179      3.3302900762     -3.5540317968     -0.0732978370      0.1530081291     -0.2187139778      1.6357559231
S       1.5882192639      0.9963215242     -4.8590722186      0.0750789215     -0.0116916509     -0.2389508349      1.6458726313
C       3.9812291545      2.9997305511     -2.8806878952     -0.8596212506     -0.0012272567     -0.5080694703      1.1967133336
C      -0.2580182991      1.1951506661     -5.1239857169      0.9815485936      0.0913606093      0.2163827833      1.2092523278
O       2.2900764527      4.7205565894     -3.9090005379      0.1888596264      1.1751272567     -0.3091664177     -0.7223090913
O       1.3854825866      2.9271980004     -2.4625590406     -0.2999265018     -0.2038933833      0.5018149299     -0.7944052473
O       1.6700486666      0.2912077855     -3.5861995781      0.0386359459     -0.2828450821      0.6676096929     -0.7968021389
O       2.0282998010      0.3017969804     -6.0344689817      0.2537946123     -0.5952851818     -1.0798914009     -0.7227252527
F       4.3102614043      3.9586099843     -2.0275669100      0.2942045736      1.0524176634      0.9232246698     -0.4400622153
F       4.8757957727      2.9557843101     -3.8495234688      0.9362787983      0.0130771442     -1.0112563579     -0.4289681349
F       4.0078538217      1.8393755630     -2.2233657259      0.1878942547     -1.1917271242      0.5815831430     -0.4633388673
F      -0.8549083440      0.0129982191     -4.9574518501     -0.5335450393     -1.2486895797      0.0024647699     -0.4594087489
F      -0.5242759600      1.6368492370     -6.3374151497     -0.2351640999      0.4463447053     -1.2640208641     -0.4277454530
F      -0.7831255713      2.0365039471     -4.2374686042     -0.4895907829      0.9467783146      0.8412259810     -0.4545740363
