36
Properties=species:S:1:pos:R:3:forces:R:3:charge:R:1 energy=-205.9864345175711 homo_lumo=2.210772837996882 dipole="-2.1421585787135884 0.27787505290549597 -1.8148588287973992" free_energy=-205.9864345175711
N       2.4075306254     -0.4094299461     -0.3870730548      0.0209446301      0.0922237505     -0.2603215835     -0.4913718872
C       3.0108799387      0.9285575299     -0.4760785825      0.0879863918      0.3531105520      0.5898632334     -0.0208561617
C       3.3097442476      1.4737582815      0.9243567919      0.2340410526      0.1723165908     -0.4628904048     -0.2898206670
C       4.0680688995      2.7932835100      0.8307378504     -0.3029031504     -0.3363209158     -0.0242371457     -0.0575245645
C       1.1649493368     -0.5291315684      0.1136947213     -0.3969282534     -0.2001967241      0.1060293455      0.2774661062
C       3.1192565074     -1.4896192909     -0.7315126102      0.0270309720     -0.3619521208     -0.1716612502      0.2817142703
C       0.5844235135     -1.7688582289      0.2582262711      0.0788328784      0.0305849316     -0.0555277201      0.0081595428
C       2.5775714168     -2.7552620637     -0.6117719670     -0.2455699312     -0.0379484632      0.0214287223      0.0035868970
C       1.2951542831     -2.9057164156     -0.1099726805      0.1240188117      0.2060087580     -0.1189359777      0.0517511227
H       3.9321507362      0.8420900874     -1.0557218468      0.1067495802     -0.0336197815     -0.1570845145      0.1256600721
H       2.3102793233      1.5780606959     -1.0090272041     -0.1564131250      0.0930277477     -0.2214587100      0.1065279610
H       3.9142163228      0.7420328516      1.4671185702     -0.0066488801     -0.0768250699      0.1616943180      0.2680114555
H       2.3727845240      1.6116292892      1.4710050321     -0.2463216497     -0.0132681725      0.1955083628      0.0906004668
H       5.0094023739      2.6521794843      0.2989333075      0.3295348758      0.0134578873     -0.1190132793      0.0419381942
H       4.2891891277      3.1543157256      1.8341501363      0.1247716171      0.1359815314      0.2700538202      0.0597545747
H       3.4791223221      3.5494405302      0.3092908051     -0.1290319850      0.3077815932     -0.1649947739      0.0192976747
H       0.6570107559      0.3849709112      0.3944195396      0.0041859746      0.1766613044      0.0270201746      0.0954947819
H       4.1317555205     -1.3316200271     -1.0774388512      0.1046689756      0.0978721980     -0.0488643442      0.1243236995
H      -0.4111602048     -1.8417885887      0.6763777876     -0.2325324384      0.0167217251      0.0967102687      0.0524010663
H       3.1867593463     -3.6108243156     -0.8701176232      0.1599400546     -0.1667777307     -0.0719472372      0.0639108457
H       0.8616180997     -3.8901067411      0.0151724869     -0.0959936969     -0.2432425170      0.0305112331      0.0539510001
N       4.9412979801     -0.6462775133      2.7017277809      0.0523690949     -0.3250687464      0.0053893118     -0.8680471119
S       6.5386181219     -0.8053392017      2.5410929609     -0.1393307293      0.3360101451      0.2658719288      1.6248955927
S       4.0712842360     -1.9503477002      2.4019165945     -0.3272625591      0.4593965264      0.0593136049      1.6226880825
C       6.8597502923     -0.7885963465      0.6841240066     -0.3560657653      0.0170070282      0.7630542667      1.1858533924
C       4.1604106101     -3.1066687561      3.8820113877      0.1040609170      0.5748565785     -0.5756549181      1.2095769821
O       7.1235288129      0.4249978094      2.9929625118      0.4327658566      1.2038347758      0.2131541232     -0.7298125125
O       7.0745911635     -2.0560992398      3.0048624943      0.3450909915     -1.1929808775      0.2176228504     -0.7268810431
O       4.5199808403     -2.7548974690      1.2750711701      0.5627932230     -0.6626672752     -0.5037018751     -0.7626778902
O       2.6853100877     -1.5174605466      2.3713633947     -0.8801118963      0.2337046733      0.2353901422     -0.7782550235
F       7.8858461800     -0.0035806912      0.4071919334      1.1362334318      0.7674154038     -0.2306388954     -0.4319148510
F       5.7861256460     -0.2880141263      0.0389277033     -0.8303625459      0.5813472045     -0.6975114317     -0.4863160209
F       7.0967009853     -1.9915239761      0.2012969158      0.3084788680     -1.2829392102     -0.4940142967     -0.4306627889
F       4.9740993485     -4.1132740832      3.6404577584      0.8862863355     -1.0954893033     -0.2588723638     -0.4245709270
F       2.9441568178     -3.5869737662      4.1086508197     -1.3112016000     -0.5453375421      0.2158132585     -0.4393309197
F       4.5667450311     -2.4519262957      4.9529923790      0.4258936729      0.7053135447      1.1629017567     -0.4295214118
