35
Properties=species:S:1:pos:R:3:forces:R:3:charge:R:1 energy=-191.46249020328534 homo_lumo=4.417857293729889 dipole="-2.7112145649712875 -1.3919598029326274 0.5912591698069234" free_energy=-191.46249020328534
N       1.1425214013     -0.3133452168     -0.4418256579      0.0037290896     -0.0000438014     -0.0000727474     -0.5213964288
C       0.7558552126      1.0166280722     -1.0770657679     -0.0035205257     -0.0114653777     -0.0213494597     -0.0404429153
C      -0.1106810434     -1.0940799431     -0.1210797920      0.0000624770     -0.0038421293     -0.0150096263     -0.0008845052
C      -0.2082093708      1.8201266127     -0.2255294998     -0.0126141072      0.0109195158     -0.0027690843     -0.1764690736
C      -1.0724624961     -0.3188539879      0.7675062163      0.0030111259     -0.0094960968      0.0052486516     -0.1634671802
C       1.9765709258     -1.0616055684     -1.4822538148     -0.0011049020      0.0068831701      0.0027904961     -0.0855111466
C      -1.4586418822      1.0166329917      0.1299512024     -0.0052740945     -0.0056825550     -0.0037611616     -0.1643316783
C       1.9626038031     -0.0856546806      0.7948236099     -0.0048973871      0.0006427367     -0.0064605619      0.0036434620
C       2.7083503341     -2.2780161159     -0.9561439172      0.0081655918     -0.0021609946     -0.0143360096     -0.1020376259
H       0.2920773766      0.7486048401     -2.0417267881      0.0003360811     -0.0006668117      0.0148941199      0.1155889047
H       1.7018953489      1.5429076718     -1.2879309774     -0.0052512065     -0.0061967314      0.0033925747      0.2301507228
H       0.2046181124     -2.0389932519      0.3429734797      0.0018021357     -0.0007486799     -0.0063479087      0.1364600354
H      -0.5841608464     -1.3200034038     -1.0907424165      0.0044535498      0.0046217606      0.0035292552      0.1220169619
H      -0.4694074671      2.7219081154     -0.8046831813     -0.0016555194     -0.0202847776      0.0081713197      0.1145470130
H       0.2943862760      2.1859499954      0.6851228213     -0.0019201111     -0.0022513543     -0.0098449801      0.1092802387
H      -0.6266259736     -0.1575253591      1.7638674526      0.0005842181     -0.0059256127     -0.0142592586      0.1040157759
H      -1.9615669768     -0.9530528078      0.9243265559      0.0117284289      0.0050930556     -0.0108680487      0.1061786113
H       1.2665787842     -1.3254501869     -2.2822645203      0.0115646828      0.0101181510      0.0046883387      0.1031022568
H       2.6920110017     -0.3155715414     -1.8661111373     -0.0003118590     -0.0062304831      0.0017367743      0.2263329893
H      -2.1092753196      1.5898290003      0.8096987925      0.0003823029     -0.0077922092     -0.0088763267      0.0886464004
H      -2.0427460955      0.8234979104     -0.7896411214      0.0080740714     -0.0052318418      0.0049053244      0.0886538285
H       1.4707912355      0.6636834541      1.4200971594      0.0059914829     -0.0124206461      0.0102488958      0.1028413277
H       2.0375577824     -1.0344566831      1.3404181865      0.0030490630      0.0094239630     -0.0070618818      0.0710062682
H       2.9639419167      0.2595321359      0.4831553906     -0.0090333702      0.0019389943      0.0105674864      0.2083212944
H       3.1609425301     -2.7841328568     -1.8232771567     -0.0035579674     -0.0019964014      0.0154284917      0.0813276554
H       3.5324438648     -1.9861384396     -0.2911845509     -0.0021240612     -0.0083224709     -0.0010410873      0.0847355208
H       2.0530299764     -3.0067412438     -0.4562349282     -0.0034292581     -0.0009656786     -0.0135888654      0.0320289342
S       4.7539327418      1.6600831689     -1.2525286401     -0.0136900785      0.0003940142      0.0075530868      1.7419876935
O       3.5618632170      1.7336935089     -2.1351875441     -0.0061489412      0.0047042609      0.0042086878     -0.8165496501
O       6.0385411611      1.9676356258     -1.8702024253      0.0130322679      0.0122158800     -0.0084239481     -0.7461869180
O       4.7266995853      0.4925160914     -0.3367472438      0.0025899171     -0.0017613051      0.0015162807     -0.8135968454
C       4.4627564058      3.0925497041     -0.0732563676      0.0128179265      0.0167887737      0.0080978996      1.1168365083
F       3.2315906661      2.9840450244      0.5411412132     -0.0058793349     -0.0111861179      0.0046695621     -0.4756573299
F       4.4835126932      4.2855618452     -0.7161637987     -0.0091245349      0.0175827458      0.0154899643     -0.4404937685
F       5.3977942517      3.1218761187      0.9083779002     -0.0018371534      0.0233450549      0.0169337463     -0.4406773372
