48
Properties=species:S:1:pos:R:3:forces:R:3:charge:R:1 energy=-262.2990067731913 homo_lumo=4.78461847021266 dipole="-2.4422569585036635 2.18846507363869 1.5210890288979952" free_energy=-262.2990067731913
N       0.0167224585     -1.4990899446      0.1982381348     -0.0034549230      0.0034997859     -0.0034337499     -0.5121677467
C       0.8771171330     -2.6053084177      0.7937667253     -0.0009245615      0.0035911959      0.0010836206     -0.0566079623
C      -1.2503428290     -1.5824118370      1.0243057147      0.0036475567     -0.0027591506     -0.0023873209      0.0108136449
C       0.6452908062     -0.1298270394      0.3413619397      0.0011449417     -0.0028631326     -0.0036715415     -0.0030919963
C      -0.1014474120     -3.7374233392      1.1041179447     -0.0039467948     -0.0035047132      0.0064329067     -0.1594058075
C      -1.4988450613     -3.0759256476      1.2262356981     -0.0051825960      0.0103954167     -0.0026359289     -0.1506043188
C      -0.2853538731     -1.8036784266     -1.2393343131     -0.0054594392     -0.0017397443      0.0015373999      0.0281832102
C       1.9738739617      0.0332162504     -0.3684435288     -0.0008622116      0.0025994040      0.0060854860     -0.2253108058
C       2.5682754209      1.4192280506     -0.1139124202      0.0061153304     -0.0079983165     -0.0062290597     -0.1612445984
C       3.9265950217      1.5758197021     -0.7983682589     -0.0018075278      0.0137089563      0.0080981251     -0.2217727034
C       4.5544482365      2.9454596925     -0.5609039756      0.0009827991     -0.0011248316     -0.0044927478     -0.0675221172
H       1.3269670342     -2.1787032530      1.7031147195     -0.0014538919     -0.0029157749      0.0034710983      0.1058458138
H       1.6604661924     -2.8818851536      0.0786910223      0.0021796806     -0.0017448813      0.0052020159      0.2625804537
H      -2.0526187673     -1.0336826809      0.5115862496      0.0003731377      0.0023076123     -0.0058448007      0.1075810889
H      -1.0221079301     -1.0831615519      1.9780243023     -0.0050862865      0.0046729148     -0.0042258174      0.1305789215
H       0.7631958596      0.0290293636      1.4251773793      0.0006721150     -0.0002685943      0.0037476391      0.1159980427
H      -0.1033167413      0.5901550849     -0.0308949911      0.0027890814     -0.0009788177     -0.0011053619      0.1202170003
H       0.2049859507     -4.2495940490      2.0263859267     -0.0059444364     -0.0031296307     -0.0056345543      0.1032963838
H      -0.0711354432     -4.4881203681      0.3041893879     -0.0037469857     -0.0006535982     -0.0030271515      0.1472216594
H      -2.1908298425     -3.4705800484      0.4677679117     -0.0041096531      0.0019249925      0.0001837732      0.0876298198
H      -1.9645286222     -3.2479506157      2.2070885401     -0.0036546253      0.0017857947     -0.0012838190      0.1025297541
H       0.6584768385     -1.9311968280     -1.7806155562      0.0073975780     -0.0060136853     -0.0016721660      0.1697473433
H      -0.8514715631     -2.7395471366     -1.2879959409      0.0064427443      0.0038322288      0.0019031132      0.1346289137
H      -0.8797068762     -0.9770689502     -1.6500372190      0.0038585345     -0.0010702266     -0.0003223997      0.0599852039
H       2.6813842627     -0.7358122113     -0.0242119576      0.0047763311     -0.0014324446      0.0035143664      0.1758674449
H       1.8619422511     -0.1196521239     -1.4524088326      0.0044616366     -0.0025911711     -0.0041811792      0.1285143302
H       2.6856696490      1.5840122948      0.9737295649      0.0004686005      0.0003041811      0.0032869946      0.0797745729
H       1.8767730284      2.2020403468     -0.4797532924     -0.0032289320      0.0004262904      0.0005689494      0.0775288913
H       3.8073824020      1.3982368724     -1.8817363887     -0.0018130745      0.0012673219     -0.0051596505      0.0981706067
H       4.6029334385      0.7838827722     -0.4344948294      0.0027676315      0.0001528574      0.0004602097      0.1268370873
H       3.9116288607      3.7516550034     -0.9498559457     -0.0035423563      0.0023207598      0.0018509342      0.0299844202
H       5.5319228085      3.0236292865     -1.0604557261     -0.0086090491      0.0033438306      0.0025164685      0.0475468483
H       4.7109332458      3.1285041845      0.5143811086     -0.0020298870      0.0026790929      0.0019871124      0.0313963548
N       3.9928194069     -4.8502005385     -2.1551358549     -0.0061937474     -0.0006737530      0.0056351710     -0.8281306254
S       2.7643301535     -5.7103835551     -1.5668915952      0.0078682176      0.0044402356      0.0059375163      1.6177419799
S       4.0753268307     -3.2626447100     -2.0084897652     -0.0040648361     -0.0079834992     -0.0080289306      1.6389276117
C       1.3457191196     -5.4871580271     -2.8558233574     -0.0051595247     -0.0080386350     -0.0164125224      1.1528505819
C       4.9706317002     -2.9598951730     -0.3623996216      0.0154614899     -0.0067959129      0.0104799277      1.1665238580
O       3.1102220717     -7.1155440819     -1.6803238662     -0.0138230323     -0.0000427360     -0.0045455088     -0.7079217140
O       2.1797348009     -5.2024313646     -0.3220659508     -0.0137068168      0.0055530070     -0.0034984157     -0.7698778882
O       2.7833724861     -2.5773943651     -1.8190303035      0.0017686669      0.0010473231      0.0128245732     -0.8123286792
O       5.0125664994     -2.7373511585     -2.9857670948      0.0090070463     -0.0027410610      0.0084323603     -0.7148634048
F       0.8862353463     -6.6950639595     -3.2461087377      0.0008795039      0.0058907471     -0.0054245052     -0.4291281221
F       1.7407418371     -4.8010185971     -3.9485640806      0.0025667246     -0.0012609981     -0.0049348723     -0.4326478910
F       0.2923072977     -4.8089420619     -2.2986658620     -0.0009068423      0.0035639464     -0.0048243393     -0.4689596572
F       5.4364574149     -1.6804624131     -0.3402977912     -0.0060898571      0.0010962111      0.0074056198     -0.4534327089
F       6.0116744141     -3.7982886087     -0.2053387828      0.0150251469      0.0099475746     -0.0017871544     -0.4273964493
F       4.1356670627     -3.1044359989      0.7055463848      0.0141473932     -0.0220263722      0.0021181161     -0.4560866456
