58
Properties=species:S:1:pos:R:3:forces:R:3:charge:R:1 energy=-309.79723158962554 homo_lumo=3.624168514848997 dipole="-1.7670688528240506 6.200201814062371 -1.5579128702908571" free_energy=-309.79723158962554
N      -0.8760149435     -0.1793013165      0.0548534371      0.0719318167     -0.0257950471      0.0097225065     -0.5244228036
C      -2.0121305299     -0.2940572548     -0.9104391029     -1.6347837577     -0.7380800342     -1.5829182066     -0.0083623229
C      -1.2077366387      1.0088599982      0.9009531837      0.0223278209      1.8753517948      1.4422137226     -0.0064170624
C       0.3960087747      0.0611855265     -0.7018506201      1.6236676351      0.1395163200     -0.4423676045     -0.0451068071
C      -2.8330807670      0.9775579975     -0.8268016549     -0.0744746802      0.4950996997     -0.6727263786     -0.1413726758
C      -2.6316772421      1.4308492900      0.5910436312     -0.5881679997      0.0135364675      0.6134911580     -0.1422983063
C      -0.8037197089     -1.4029230273      0.9180412414      0.2798541199     -1.8937956377      0.7838894858     -0.0998248215
C       1.6590156617      0.1735118196      0.1856075101     -0.4047484804     -0.1222751683     -0.1068052050     -0.2233091691
C      -0.4481665975     -2.6972725120      0.1642425531      0.0453015678      0.3727125612     -0.1113268606     -0.1510557692
C       2.8682626303      0.6262029697     -0.6412220130     -0.0569109416      0.0209960010     -0.0875444897     -0.2137343873
C       4.1235653924      0.7186315496      0.2212636192      0.1706263379      0.0093269790     -0.0018314247     -0.0935427995
H      -2.6968792000     -1.1360633621     -0.6556866429      0.7098682633      0.1196897440      0.2295542135      0.1616253891
H      -1.6837545807     -0.4641429441     -1.9612274028      0.2587410187     -0.1042415445      0.6372114316      0.1452400383
H      -1.1010679663      0.8164686203      1.9930336784      0.2508879304     -0.2896068825     -0.5898397213      0.1481315267
H      -0.5574320793      1.8845510268      0.6723564211      0.1079939260     -0.7133162788     -0.1708639353      0.1495632177
H       0.5669966591     -0.7490646932     -1.4453199004     -0.3796277163      0.0916412995      0.4269987438      0.1706590471
H       0.2992603070      0.9966293257     -1.3011400049     -0.3471163964     -0.2617450050      0.3718201700      0.1463356578
H      -2.4244728972      1.7383179086     -1.5286805956     -0.2577588574     -0.1784791547      0.1130971531      0.1024297486
H      -3.9071296829      0.7972373163     -1.0508327852      0.4608807210      0.0740084095     -0.1627950373      0.1066249865
H      -3.3391629005      0.8958936421      1.2628449287      0.1335852999      0.2844030624     -0.1371484424      0.1102303482
H      -2.7735197051      2.5289240925      0.6935488686      0.0240345385     -0.4464659181      0.2108631342      0.1023414503
H      -0.0635682525     -1.2666886615      1.7370220808     -0.1765616983      0.3390025206     -0.4406771752      0.1749932326
H      -1.7807971804     -1.5635018863      1.4292706284      0.1625847673      0.5130066333     -0.3714509294      0.1523031988
H       1.4964065256      0.8982786367      1.0105244285      0.0141228511     -0.1774056715     -0.1168074822      0.1156884840
H       1.8950241065     -0.8142687710      0.6334237507     -0.1122411450      0.2346027623     -0.0196240941      0.1559280071
H      -0.5802635587     -3.5625379542      0.8469182387      0.1275273202      0.1929617855     -0.1473713783      0.1655375626
H       0.6109173842     -2.6922212109     -0.1638976279     -0.3180866930     -0.1415381004      0.0890163313      0.0925906428
H      -1.1026020084     -2.8519874844     -0.7173915261      0.1746891572     -0.0374951786      0.2280845747      0.0571168638
H       3.0507418676     -0.0977101222     -1.4652440134     -0.1208615277      0.2272160984      0.1041820924      0.1085652387
H       2.6665548903      1.6246030406     -1.0873721703     -0.0201109324     -0.2601112831     -0.0295562442      0.0898651231
H       4.3609914661     -0.2719576125      0.6647413484      0.0036647067      0.3424364021     -0.0666841321      0.0656086646
H       3.9777796138      1.4599632018      1.0356008875      0.1343867915     -0.2493003336     -0.1754168939      0.0455753643
H       4.9814511625      1.0423335958     -0.4048219011     -0.1834641506     -0.1042191722      0.2956598039      0.0637700091
P       1.1809193573     -7.0225443628      1.6780240817      0.5576256753      1.9856840077      0.8541735498      1.6643930793
F       1.6774906285     -5.3770173428      1.5842970565      1.5706095895      0.9720644373      0.4060329390     -0.5447060242
F       2.5243863774     -8.0875631546      1.8566970802     -0.4297300614      0.1957459666     -0.8671730093     -0.5142976685
F      -0.3018889758     -6.1623125594      1.8190699027     -0.5042800223     -0.1398997396     -0.3979303335     -0.5355311962
C       1.7265405161     -6.7022534723      3.5108204420     -0.5149772990     -0.3567390245      0.2084633011      0.5379764713
C       1.7741765302     -6.7291963215     -0.1404982052     -0.3874621607     -0.8423566010     -0.4348311159      0.5357680974
C      -0.1174986614     -8.4393177905      1.4751510883      0.7093627656     -0.7097047005     -0.2355247216      0.5365287692
C       0.9967926629     -5.5752265813      4.2903029150     -0.1501591869      0.3532392091      0.3167399513      1.3315188924
C       1.8220042591     -7.9590683443     -1.0717945170      0.3830218811     -0.5145833757     -0.6241512613      1.3330635193
C      -0.8556504619     -8.9010554248      2.7456298759     -0.5506925947     -0.3986199151      0.6424641050      1.3645586768
F       3.0767185054     -6.3749341982      3.5274952051     -0.5809348212      0.0806165236      0.1947095442     -0.4385399993
F       1.5905055633     -7.8635601569      4.2451793990      0.0850387666      0.4610930196      0.4320098340     -0.4495137718
F       3.0670230362     -6.2133364582     -0.1320071905     -0.6066601219     -0.4870795058     -0.2120961993     -0.4375546058
F       0.9375550228     -5.7981193713     -0.7403426444      0.2112298294     -0.1809973832     -0.3105779844     -0.4581364550
F       0.5242751115     -9.5633362298      0.9865623140     -0.5128707033     -0.1726779098      0.1716882643     -0.4447790831
F      -1.0735527618     -8.0701053116      0.5382524193      0.2036261628     -0.2865069582      0.4902403365     -0.4425636939
F       1.4356469470     -5.5908563074      5.6025602028     -0.3083935578      0.2154133938     -0.5497274305     -0.4530669126
F      -0.3704711703     -5.7483919950      4.3056765155      1.1939418390      0.5107047160      0.3765858968     -0.4446833149
F       1.2840486683     -4.3262414307      3.7697688845     -0.4345857078     -0.6858042906      0.8072076791     -0.4538385683
F       2.4283886211     -7.5917837668     -2.2603051170     -0.2719509816     -0.3670075186      0.3075036139     -0.4573764119
F       2.5659948452     -8.9859140789     -0.5216633700     -0.7337568440      0.8888430187     -0.9680902428     -0.4332675326
F       0.5543732700     -8.4106214170     -1.3808300557      1.1976505066      0.2584379795      0.0034255224     -0.4457271184
F      -0.0087555249     -9.6139250018      3.5722929200     -1.0119914890      0.5111132430     -0.6810374951     -0.4377841852
F      -1.8869944140     -9.7480628690      2.3802482181      0.4718789029      0.3930881630      0.3259577641     -0.4513779704
F      -1.4055167089     -7.8453842470      3.4371634309      0.3126980196     -1.2857048860     -0.3781113937     -0.4423398704
