45
Properties=species:S:1:pos:R:3:forces:R:3:charge:R:1 energy=-254.81590227689375 homo_lumo=5.008536079549104 dipole="0.12249111129008372 0.6955525009741863 2.0205291357151434" free_energy=-254.81590227689375
N       0.7786113170      2.5792754220      0.2799708152      0.4011957297      0.0884539872     -0.1364513006     -0.5104141395
N      -1.3546350560      2.6769695933      0.5348250289     -0.4400893565      0.1849748042      0.1028856976     -0.5118772990
C       2.0960433134      2.5244144195     -0.3509993359      0.4446272709     -0.1831843133      0.1156268000     -0.0085858184
C      -2.7833908969      2.7187213748      0.2293502610     -0.2350379671     -0.3337523927     -0.4663285884      0.0031607952
C       2.7643178678      1.1710171888     -0.0971103154     -0.6185776831      0.0364734484     -0.3647230088     -0.1826896113
C      -3.2164362675      1.4583545355     -0.5256591757      0.2333308894     -0.0399704519      0.5526338715     -0.2086060916
C       1.9382924919      0.0128986052     -0.6630324700      0.8053633865     -0.1015999623      0.4065744264     -0.2288756593
C      -2.8202629340      0.1715690801      0.2016803756     -0.3407995919      0.1324337675     -0.6438826693     -0.1974572551
C      -0.3731025661      2.7488526504     -0.3631084965     -0.0205738973      0.2589799668     -0.1416708834      0.5894590852
C       0.5292378673      2.3817236944      1.6123991644      0.0823059020     -0.0796374116      0.2963675758      0.2006260958
C      -0.8185930817      2.4379397789      1.7715215836      0.0341527628     -0.0277580218      0.2807911759      0.2115696230
C       2.6237252604     -1.3344254958     -0.4244673338     -0.5927446384      0.1132011799     -0.2267351351     -0.1929159386
C      -3.1459273634     -1.0551485016     -0.6555358848      0.3031223930     -0.0576961931      0.5915908756     -0.2086086387
C       1.7728377826     -2.4785102423     -0.9733607198      0.3619952589      0.1941751978      0.2167847140     -0.0705229678
C      -2.7344081559     -2.3460784290      0.0489244153     -0.1907079259      0.2858095758     -0.2927936306     -0.0656325319
H       2.7038021641      3.3366642029      0.0598401403      0.0572395745      0.2445669176      0.1026144895      0.0918465496
H       1.9465291837      2.6826936917     -1.4215326637     -0.0868759782      0.0048864266     -0.1123873416      0.1646089200
H      -2.9724815131      3.6065852043     -0.3804923543     -0.0370687181      0.2424764123     -0.0463270881      0.1101175723
H      -3.3162082688      2.8167323634      1.1792325631     -0.0180961330      0.0646539502      0.2166282927      0.0919552923
H       2.9224819188      1.0341083186      0.9780970464      0.1442524912     -0.0570783299      0.2926733192      0.0772032712
H       3.7466117524      1.1989234192     -0.5784026205      0.3000043247      0.0351903677     -0.0675037914      0.0879260957
H      -4.3024359241      1.5057421323     -0.6478345420     -0.3259833106      0.0417106551     -0.0506581618      0.0687429416
H      -2.7604857443      1.4696345194     -1.5175503485      0.0223392987      0.0299207649     -0.1679808191      0.2049233691
H       1.7898919202      0.1669555506     -1.7347903018     -0.1263072719      0.0403736924     -0.1616550012      0.1558267681
H       0.9508679027      0.0069228299     -0.1920903969     -0.2272986343     -0.0426116899      0.0016638172      0.1564783781
H      -3.3377539744      0.1110576361      1.1666905731     -0.1392008331     -0.0667011383      0.3156198378      0.0516762182
H      -1.7430556754      0.1857858767      0.3946027024      0.2434405665     -0.0704262967      0.0487424537      0.1554963252
H      -0.4966533606      2.9207619587     -1.4210027024     -0.0675136483      0.0956649258     -0.1708592654      0.1613145824
H       1.3154058373      2.2230750705      2.3291681106      0.1812440720     -0.0557661800      0.1349329142      0.0361034594
H      -1.4302570951      2.3340891957      2.6504562172     -0.1517034651     -0.0327214200      0.1859220349      0.0296549201
H       2.7856929553     -1.4810106700      0.6499724691      0.1212807758     -0.0323476002      0.2777274855      0.0583481431
H       3.6038884192     -1.3400380926     -0.9138080030      0.2922401694      0.0163401797     -0.0712392841      0.0665124432
H      -4.2191779545     -1.0804157933     -0.8724817776     -0.2890747181      0.0269370536     -0.0926801400      0.0626498064
H      -2.6077105782     -0.9722706335     -1.6041816140      0.0894357867      0.0882679698     -0.2239661056      0.1387784782
H       1.6100321972     -2.3508696663     -2.0437937610     -0.1159181875      0.0158440675     -0.3221807375      0.0385469844
H       0.8015950616     -2.5017772210     -0.4768594194     -0.3056834139     -0.0303480746      0.0921923860      0.0740844747
H       2.2724813998     -3.4332421659     -0.8064029645      0.0691604914     -0.3663650193      0.0093618694      0.0150055365
H      -3.2644215488     -2.4557820060      0.9969223045     -0.1370881914     -0.0860181283      0.3115821114      0.0066959839
H      -1.6617664415     -2.3441568025      0.2496052992      0.3239739145     -0.0320464883      0.0577613028      0.0624843113
H      -2.9669561603     -3.2050208758     -0.5808153517     -0.0161412947     -0.3543256842     -0.1116804581      0.0242546509
B      -0.5016354776      1.3220881620     -3.0405377371      0.0144468885     -0.0937884409      0.4321483744      1.4543551530
F       0.7633504513      1.9506055275     -2.9501200797      0.6744181329      0.3546934813     -0.2768761590     -0.5802873266
F      -0.5995655019      0.5173245034     -4.1344820008     -0.0765449439     -0.6003877533     -0.8505398748     -0.5243986869
F      -1.4831959878      2.3407187032     -3.0304015145     -0.5287885212      0.6444834125     -0.2148536432     -0.5741990523
F      -0.6776785714      0.5812550565     -1.8346255889     -0.1117517564     -0.4959812139      0.1711472618     -0.5853352115
