43
Properties=species:S:1:pos:R:3:forces:R:3:charge:R:1 energy=-230.95973337401125 homo_lumo=5.990759839928621 dipole="-2.454554567806701 -0.5353494564498916 2.4567491677178857" free_energy=-230.95973337401125
N       0.4024552396      0.6252343102      0.0133924825      0.0097711616      0.0101399585      0.0000009787     -0.4897998740
C      -0.8100863050      1.2836247913      0.6395524071     -0.0013893078     -0.0062959736      0.0072260248     -0.0124601449
C       0.0874882460      0.3180688994     -1.4457183132      0.0084206922     -0.0157874827     -0.0029461408     -0.0572144318
C       0.7527277993     -0.6314744491      0.7876688711      0.0102753132     -0.0012170682      0.0010416358     -0.0390274894
C       1.5694800276      1.6080163186      0.0170278735      0.0032504519     -0.0090302524      0.0039414812     -0.0923909552
C      -2.0912889108      0.4765433089      0.4834980146      0.0010215370      0.0032851638     -0.0027166875     -0.1622064737
C      -1.1593882588     -0.5279938166     -1.6144966855     -0.0023356119      0.0064065497     -0.0109311955     -0.1745435893
C      -2.3746341159      0.1488505898     -0.9817425682      0.0090876869     -0.0172648584      0.0091239674     -0.1645930110
C       1.9870187817     -1.3736496522      0.3036465676     -0.0002995507      0.0092975831     -0.0073107750     -0.2651841825
C       2.0873311448      2.0201093822      1.3834079569     -0.0131232923     -0.0085875782     -0.0039415997     -0.2576996342
C       2.2233544620     -2.6079100159      1.1735440502     -0.0043372410      0.0078163987     -0.0031996685     -0.0659306763
C       3.2060813528      3.0491465258      1.1931864017     -0.0018873149     -0.0032863415      0.0107118483     -0.0698127993
H      -0.5735930661      1.4624055536      1.6969770156      0.0009122505      0.0008331937     -0.0023801876      0.1368290496
H      -0.9071531085      2.2571931300      0.1327152948      0.0025337416     -0.0002755452      0.0021777456      0.1332773546
H      -0.0376266840      1.2992653812     -1.9277536283      0.0037425992     -0.0015122235      0.0003821043      0.1588697883
H       0.9901210015     -0.1249613553     -1.8845714249     -0.0072167137      0.0094659032     -0.0018244449      0.2267358201
H       0.8702356962     -0.3163145783      1.8358917817      0.0002325309      0.0012882507     -0.0016666838      0.1333728502
H      -0.1246836895     -1.2887220471      0.7388172322     -0.0007827780      0.0034986305     -0.0018192487      0.1678456787
H       2.3620550077      1.1488308709     -0.5853512142     -0.0030679500      0.0099777103     -0.0021341160      0.2742290611
H       1.2184258883      2.4799722762     -0.5543980951      0.0059636844      0.0010758371      0.0021841447      0.1502302348
H      -2.0427069918     -0.4471932666      1.0843996594     -0.0006293774      0.0035617894     -0.0046218653      0.0948633164
H      -2.9067418173      1.0804880703      0.9158383943      0.0009187404     -0.0034098519      0.0029889502      0.1095580620
H      -1.3055407543     -0.6621712183     -2.6989275466      0.0037241885     -0.0025230597      0.0043555213      0.1189018098
H      -1.0139845132     -1.5399368418     -1.1983817469      0.0004927746      0.0026094020      0.0006453769      0.0941665159
H      -3.2699447158     -0.4873793330     -1.0653430788      0.0036311372     -0.0024242669      0.0007296616      0.0863212087
H      -2.5905310980      1.0849183386     -1.5291489619      0.0019430568     -0.0037077304      0.0015540449      0.0949485134
H       1.8682637364     -1.6783631102     -0.7467423490      0.0076399727      0.0024976795      0.0104133906      0.1458406452
H       2.8733569960     -0.7225570866      0.3313171768     -0.0047614888     -0.0105543575     -0.0030259607      0.1455851995
H       1.2893185355      2.4589689078      2.0065657519      0.0086090620     -0.0097434297     -0.0027517948      0.0872162103
H       2.4895402610      1.1473462240      1.9249457904      0.0018184049      0.0046988708     -0.0008857721      0.1020932774
H       3.1150252358     -3.1488627295      0.8262838127     -0.0051862142      0.0042048333      0.0016215210      0.0640265731
H       1.3699899093     -3.3031314891      1.1277912118     -0.0052211848      0.0019608501      0.0078413547      0.0317885776
H       2.3857145536     -2.3345494733      2.2282005970     -0.0063496678      0.0019591020      0.0048331228      0.0351954988
H       3.6348229643      3.3372831810      2.1634423087     -0.0042401577     -0.0052887557      0.0033686494      0.0390725339
H       2.8241674565      3.9568590325      0.7018029745      0.0010350543      0.0013245436      0.0026219044      0.0447811094
H       4.0043631354      2.6435006421      0.5553367946      0.0016532246      0.0017207530     -0.0006973688      0.0923936055
P       3.5935262555      1.2184517522     -3.2499606917      0.0070918844      0.0032700414     -0.0128375155      2.1812952590
F       4.0898516575      2.5077701654     -4.1234470256     -0.0121154681     -0.0010904255      0.0094913739     -0.4946745824
F       5.0319715810      0.4621233288     -3.4468063474     -0.0090964351      0.0007038866      0.0065022723     -0.4959168611
F       4.1463043720      1.9270742556     -1.8421425507     -0.0072864445     -0.0025867546     -0.0102069658     -0.5264320070
F       3.0567262379     -0.0908204819     -2.3077580189      0.0005193708     -0.0014540583     -0.0103419033     -0.5432599788
F       2.1094501815      1.9570988334     -2.9883007724     -0.0075261906      0.0045285903     -0.0120248825     -0.5356778139
F       2.9749888538      0.4793433165     -4.5804488593      0.0025638685      0.0099144928      0.0045077021     -0.5026132483
