61
Properties=species:S:1:pos:R:3:forces:R:3:charge:R:1 energy=-330.1222510413361 homo_lumo=6.166971718039702 dipole="-1.7871621754469336 -2.8141725846505623 0.9085148097188617" free_energy=-330.1222510413361
N      -1.1304377419      1.9398405344     -0.1955745018      0.0019109089      0.0035611331     -0.0014148632     -0.4881630463
C      -2.1346252688      2.3909582147     -1.2473771478      0.0017492844      0.0028267675     -0.0054550728     -0.0290521922
C      -0.8882389563      3.0889531101      0.7803951528     -0.0064536345     -0.0000567644      0.0016145292     -0.0810710548
C      -1.6168616955      0.7331614583      0.5742967944      0.0001160001      0.0072041781      0.0103678529     -0.0307262890
C       0.1618482282      1.6433898550     -0.9512508649     -0.0005825294      0.0034338665     -0.0077739853     -0.0587068339
C      -3.4253414765      2.9411667048     -0.6649080027      0.0118991705      0.0001550121      0.0118343230     -0.1732882235
C      -2.1678628053      3.6648467863      1.3661407407     -0.0024590888     -0.0091185414     -0.0061444755     -0.1627282465
C      -3.1278196231      4.1155154678      0.2671002364      0.0097595895     -0.0060346573      0.0004611561     -0.1685667961
C      -1.8037523721     -0.5414226336     -0.2301920887      0.0004845621      0.0021764149     -0.0109224613     -0.2171861003
C       1.3283820785      1.1650875146     -0.1089378727      0.0020418455     -0.0010365213      0.0162934310     -0.2195635903
C      -2.3470688009     -1.6578436311      0.6650023920      0.0000677289      0.0031288208      0.0015057218     -0.1580601026
C       2.5816862938      1.0620460153     -0.9861593451     -0.0038458899     -0.0014693027     -0.0033427883     -0.1687362631
C      -2.5398645111     -2.9714526923     -0.0897576446      0.0003471792      0.0005888779     -0.0025267085     -0.1659239978
C       3.8103859056      0.6229206973     -0.1914411700     -0.0047125855     -0.0004351603      0.0022834367     -0.1669381778
C      -3.0895159031     -4.0910430801      0.7917149070     -0.0019662642     -0.0016282180      0.0010219863     -0.2057226109
C       5.0790348376      0.5535717410     -1.0408582669     -0.0050189850     -0.0008407331     -0.0019082439     -0.2061294550
C      -3.2818087897     -5.4004425674      0.0303577887      0.0049383915      0.0064417042     -0.0104598914     -0.0671777076
C       6.3018901759      0.1066569766     -0.2416582166     -0.0147854871      0.0008000354      0.0057996108     -0.0660930265
H      -1.6122123255      3.1794692198     -1.8091767046     -0.0000924942      0.0072409743     -0.0037635242      0.2010789165
H      -2.3012371461      1.5331369534     -1.9130584764     -0.0048408924      0.0036776135     -0.0024687979      0.1217032072
H      -0.2243697445      2.6990909944      1.5629115188     -0.0036236090     -0.0012488453      0.0004183863      0.1171246971
H      -0.3480411511      3.8602843037      0.2182769419     -0.0070344455      0.0046473736     -0.0110345129      0.2798556040
H      -0.8823938626      0.5730425075      1.3774485466      0.0065866335      0.0025859657     -0.0029039887      0.1387724197
H      -2.5633676886      1.0226863789      1.0485238302     -0.0007298095      0.0040644421     -0.0026509454      0.1700384675
H      -0.1024060278      0.9035635429     -1.7223617294     -0.0003978408      0.0075296030      0.0000517850      0.1149099786
H       0.4202237344      2.5900176498     -1.4459741264      0.0161794598     -0.0006817709      0.0072625956      0.2355791987
H      -4.0496828455      3.2598485308     -1.5167337197      0.0193735085      0.0139197779      0.0027459932      0.1074726078
H      -3.9994170395      2.1576122687     -0.1384213056      0.0170702881     -0.0092171446      0.0046898939      0.0833003994
H      -2.6638526869      2.9477612010      2.0438302143     -0.0000581093     -0.0050992807      0.0058537252      0.0743857060
H      -1.8587049536      4.5224838690      1.9863430800      0.0022014030      0.0030064477     -0.0141646440      0.1227130040
H      -4.0579001664      4.5145718358      0.7020523943     -0.0001809506     -0.0148108030      0.0043091537      0.0777705805
H      -2.6543041912      4.9285587011     -0.3110105320      0.0148899573     -0.0007838565      0.0002297436      0.1332397095
H      -2.5076185036     -0.3809031723     -1.0638848053     -0.0000175249      0.0039291670      0.0008118723      0.1107538257
H      -0.8465193605     -0.8689495454     -0.6675525988      0.0010654706      0.0067935564     -0.0037421280      0.1201353790
H       1.1223261799      0.1836622032      0.3539334424     -0.0042580680     -0.0004283772      0.0130909685      0.0860906407
H       1.5377850224      1.8894661723      0.6935221283      0.0031493100      0.0018147976     -0.0015536774      0.1356591228
H      -3.3115041697     -1.3432874355      1.1051758385      0.0014093277      0.0017861841     -0.0046214539      0.0870749295
H      -1.6550132423     -1.8215000819      1.5118820577     -0.0030412743      0.0032123663     -0.0019310965      0.0915125752
H       2.7701284054      2.0495363845     -1.4416270282      0.0019636851     -0.0006718094      0.0078316228      0.1461294915
H       2.4015488872      0.3495292879     -1.8127681472      0.0023056150      0.0001049068     -0.0030916425      0.0726121674
H      -3.2258761906     -2.8067220071     -0.9419234645      0.0007232854     -0.0010968275     -0.0005207493      0.0882411242
H      -1.5736295192     -3.2885188693     -0.5250196625     -0.0024525429     -0.0022418632      0.0012957258      0.0902140324
H       3.9721394672      1.3332021344      0.6406374400     -0.0020576539     -0.0009185853      0.0000608615      0.0952684861
H       3.6236622942     -0.3665739276      0.2689258054     -0.0004519471      0.0009821481      0.0011647617      0.0715336507
H      -2.4022622899     -4.2507054105      1.6425287834     -0.0031743587     -0.0091414241      0.0001730850      0.0872563790
H      -4.0522956508     -3.7672579048      1.2274901792     -0.0047803081     -0.0074206105     -0.0024216459      0.0863595162
H       4.9129243020     -0.1388445639     -1.8863686173      0.0008774260     -0.0035322293     -0.0003658840      0.0806757121
H       5.2653530957      1.5476581591     -1.4847922185      0.0021713648     -0.0010148297      0.0000860502      0.1001399808
H      -3.6788927070     -6.1934080625      0.6815350543     -0.0021882884      0.0053909487      0.0120252924      0.0425235956
H      -2.3269966938     -5.7561282462     -0.3892615743      0.0010749575      0.0023279269      0.0013414684      0.0370218416
H      -3.9858810558     -5.2689266462     -0.8069996541      0.0020175025      0.0021079919     -0.0004875948      0.0363730844
H       6.5058410401      0.8028462953      0.5879125459     -0.0111654539      0.0012945955     -0.0037408533      0.0372534234
H       6.1469700715     -0.8946355434      0.1925799472     -0.0093881885      0.0028425262     -0.0030840615      0.0274952327
H       7.2033989203      0.0637100476     -0.8713589925     -0.0083147280      0.0059360268     -0.0127054384      0.0388308378
P       1.2363269371      5.6276743616     -1.3744864644     -0.0016771039     -0.0051394898      0.0022405410      2.1853795946
F       2.4692599672      6.5089120869     -0.7669716456     -0.0115612709     -0.0022951469      0.0118748516     -0.4936188726
F       2.1339808033      5.1551796268     -2.6661237110      0.0116802620      0.0081875954      0.0033885976     -0.5032040255
F       1.7771042049      4.2761568412     -0.5298985380     -0.0099859512     -0.0059306203     -0.0038504639     -0.5365350030
F      -0.0485228995      4.6792060800     -1.9639976726      0.0095838428     -0.0154174071      0.0035734005     -0.5471527409
F       0.2784962712      6.0020327145     -0.0614310479     -0.0132407045     -0.0043552507     -0.0021575453     -0.5234849579
F       0.6431310385      6.9117610838     -2.1946007901     -0.0030999775     -0.0116336753     -0.0044932857     -0.4946498059
