40
Properties=species:S:1:pos:R:3:forces:R:3:charge:R:1 energy=-223.26533040918596 homo_lumo=3.931738492560031 dipole="-2.2659628532777583 0.8795869916466619 -1.5160503128372442" free_energy=-223.26533040918596
N      -0.0465296421     -0.3198590917     -0.2016915930      0.0006198764      0.0067602152     -0.0003743313     -0.4851091326
C      -1.4616353147     -0.0981185607     -0.6879342602      0.0010043393     -0.0017551469      0.0069568037      0.0124112521
C      -0.1302060798      0.0801404124      1.2628339192      0.0006467953      0.0000282515     -0.0019221537     -0.0417720334
C       0.9187494862      0.5661843924     -0.9553741220      0.0025022680      0.0022265851     -0.0017089283     -0.0062315987
C      -2.3639765503     -0.5509169518      0.4636380795      0.0037017439     -0.0016727135     -0.0018239974     -0.1579594849
C      -1.4756519448     -0.4662295773      1.7343993143      0.0019940505      0.0000180293     -0.0055564995     -0.1475818173
C       0.3410448986     -1.7922152675     -0.2901255630      0.0002439597      0.0118935537      0.0083903637     -0.1263279111
C       2.3549172533      0.4592233660     -0.4813989990     -0.0027926398      0.0016944555     -0.0025580394     -0.2469682142
C       0.5426372386     -2.2997848769     -1.7034541618     -0.0021810061      0.0037658735      0.0118903631     -0.1016753056
C       3.2595931630      1.4312951665     -1.2392397323     -0.0081112220     -0.0020179710     -0.0003051353     -0.2013970456
C       4.6968416284      1.3543975217     -0.7271005280     -0.0018507944      0.0017857869     -0.0064045791     -0.0721944925
H      -1.6150114481     -0.6338126128     -1.6334344240      0.0076160658      0.0087618667      0.0051998136      0.1290110727
H      -1.5571508123      0.9828027890     -0.8714810108     -0.0031047794     -0.0105697691     -0.0004660872      0.1186449290
H       0.7670768291     -0.3006497916      1.7987918925     -0.0005351388      0.0031328164     -0.0064820304      0.2229918353
H      -0.1265231448      1.1823370914      1.2666123310     -0.0013723800     -0.0098657092      0.0036378115      0.1051325653
H       0.8164415177      0.3099396172     -2.0218289328      0.0068646414     -0.0016700244     -0.0006547758      0.1286867737
H       0.5357165961      1.5913585535     -0.8196840182      0.0090448681      0.0041851376     -0.0026020924      0.1110724212
H      -3.2455282120      0.1037695907      0.5257333982      0.0046298000     -0.0062482706      0.0024017924      0.0980292822
H      -2.7340546758     -1.5739251098      0.3026007615      0.0155152814     -0.0005274739     -0.0063893275      0.0862063493
H      -1.3558300369     -1.4553041914      2.2009948183      0.0146337080      0.0074946915     -0.0141869556      0.0934920124
H      -1.9051196623      0.1991828299      2.4968424025      0.0045937160     -0.0149748753     -0.0016931563      0.1006125212
H       1.2771296717     -1.9206486108      0.2984012513     -0.0071168054      0.0042347678      0.0028069583      0.2560735126
H      -0.4684735821     -2.3403670728      0.2135305695      0.0021317008      0.0085427986     -0.0058981309      0.1374453248
H       2.4118315560      0.6634962419      0.6011251588      0.0015236197     -0.0057450644     -0.0080078943      0.1708080185
H       2.7326672221     -0.5694818455     -0.5970872780     -0.0048577582      0.0071977786      0.0020337717      0.1737875364
H       0.7367919490     -3.3812667444     -1.6340452005      0.0039217257      0.0159917334     -0.0014137604      0.0840484720
H       1.4262241697     -1.8500440340     -2.1792415165     -0.0119714589     -0.0058340251      0.0073879475      0.0594170955
H      -0.3310124319     -2.1623821836     -2.3598894911      0.0073859392     -0.0044002882      0.0046148952      0.0281424975
H       3.2344300753      1.2031704266     -2.3215908126     -0.0031931635     -0.0060778834      0.0048250115      0.0730742621
H       2.8792085385      2.4642366210     -1.1281896330     -0.0011871540     -0.0057594011      0.0064148814      0.0703863423
H       5.0922097520      0.3315305994     -0.8251382695      0.0003460669      0.0012826469     -0.0062055031      0.0560637894
H       4.7441862147      1.6205626494      0.3403913630      0.0015614417     -0.0090491310     -0.0024799942      0.0536680135
H       5.3566399387      2.0367613633     -1.2833560232      0.0020987312     -0.0000233298      0.0030106981      0.0335249062
C       3.1699489031     -1.6840372263      2.0684650118     -0.0202549678     -0.0031656991      0.0007457062      0.9004614952
O       2.4641040124     -0.7722983916      2.5711615183     -0.0037886745     -0.0167711824      0.0068868921     -0.8185726239
O       3.0331229623     -2.3276542075      0.9983060039     -0.0080077764     -0.0046233342      0.0165570332     -0.8126318295
C       4.4589161991     -2.0403218014      2.8837940259      0.0019183861     -0.0003457473      0.0037029994      1.2973208857
F       4.8436549595     -3.3408604621      2.7301853184      0.0002787663      0.0087328766     -0.0031561401     -0.4577181037
F       4.3227435364     -1.8244072712      4.2244745736      0.0020582747      0.0031067623     -0.0056637419     -0.4578583804
F       5.5128378285     -1.2593719619      2.4588485049     -0.0165100465      0.0102604128     -0.0115104886     -0.4665151926
