39
Properties=species:S:1:pos:R:3:forces:R:3:charge:R:1 energy=-218.53393238698936 homo_lumo=0.3128558899292184 dipole="2.5748854984768714 -0.3357615452380136 -3.3375134277618086" free_energy=-218.53393238698936
N       1.9021344966     -0.9440522450     -0.2979081979      0.6379008630      0.8365653495     -0.7390426317     -0.5108790289
N       3.1536524008      0.8869191708     -0.1472006487     -0.5747995699     -0.3709369782     -0.7423469691     -0.5524540808
C      -0.3839528668     -1.8734815013     -0.1416104529     -0.0084621941      0.3131989439      0.0528290147     -0.1939298955
C      -1.0441262253     -0.5027646888     -0.3503831238      0.0368257285     -0.2909221522      0.2380140974     -0.1881527737
C       0.9864616954     -1.9544675117     -0.8261935088     -0.7267627062     -0.7922649055     -0.2267890576     -0.0238795142
C      -2.4544428490     -0.4653592091      0.2472853031      0.1713906377      0.3093985324     -0.0514151035     -0.1708443818
C      -3.0862061861      0.9191672096      0.0614126555     -0.0831207101     -0.0943293893      0.1158534842     -0.2049855418
C       2.3482040695      0.1538353567     -0.9394987018     -0.5457312898      0.3353321399     -1.3828931871      0.5665053999
C       2.4480796368     -0.9058462193      0.9346954553      0.7216376282      0.2494834081      1.5129851963      0.2644850501
C      -4.4904978695      0.9707097970      0.6546446683     -0.1550853133      0.1968407931      0.0190310670     -0.0810572563
C       3.2253278565      0.2308826727      1.0272339343     -0.0405994184     -1.1058363906      1.4637053463      0.2505876953
C       3.8002786070      2.1501191229     -0.4776114189      0.2280693633      0.5228318765     -0.1818804001      0.0662699106
H      -0.2684135071     -2.0770108668      0.9444457470     -0.0919287881      0.1282918855     -0.1831895554      0.1537188675
H      -1.0359892086     -2.6662733944     -0.5688338575      0.2735650135      0.0954459444      0.0684693774      0.0984066048
H      -1.1017194206     -0.2837383662     -1.4394626259      0.0374164730      0.0087117139      0.1151605546      0.0600831785
H      -0.4255033862      0.2831567079      0.1358502355     -0.1911892515     -0.1731622901     -0.0430273781      0.1399216973
H       0.8572981458     -1.8163672378     -1.9223660015      0.3044645667      0.1910801264      0.3768873910      0.1083658392
H       1.4223463474     -2.9640371277     -0.6652620972      0.1621155565      0.4030929422     -0.0191964139      0.1241507162
H      -3.0872860996     -1.2302681799     -0.2545904350      0.0973497437      0.0985816483      0.1270961821      0.0656055989
H      -2.4031423457     -0.7047147954      1.3322579241      0.0530267965      0.0947062277     -0.2531423474      0.1529161881
H      -2.4571918975      1.6885952715      0.5602519428     -0.0608802368     -0.2544952345     -0.0992126807      0.1128673749
H      -3.1444538230      1.1618732029     -1.0222129704      0.1098824544     -0.0189864819      0.1498961913      0.0583869534
H       2.0766438685      0.4225409210     -1.9530186776     -0.0223701132     -0.0017276802      0.0052290890      0.0936366959
H       2.2882772939     -1.6436234924      1.7101336414     -0.2737248163     -0.0528018462     -0.0106512914      0.0734147407
H       3.7924077218      0.5583155963      1.8887431029      0.0223026551      0.2045395714     -0.0324501063      0.0659031324
H      -4.4562341461      0.7605578249      1.7448814358     -0.0520281375      0.0637429441     -0.3100302285      0.0659273494
H      -4.9211968576      1.9826519948      0.5011237629     -0.0353205690     -0.3106488586      0.1245323596      0.0323657059
H      -5.1473160485      0.2261562705      0.1564941195      0.0849131654      0.1902153178      0.1954571497      0.0207130920
H       4.9005169806      2.0441506545     -0.3749618264     -0.3981349854     -0.0423888458     -0.0255203759      0.0858232400
H       3.5636902852      2.4475400286     -1.5216612094      0.0209405574     -0.2577672560      0.4514678383      0.0795888060
H       3.4422177979      2.9440750346      0.2111204789      0.0413474207     -0.3474085201     -0.1927900650      0.1045163609
S      -0.2098374941      0.8737786363      3.8781526706     -8.8198848347     -6.0431262073      1.4445720893      1.5894304791
O      -0.1028847506     -0.4176175541      3.0560643083      2.5268251742      1.8093719935     -0.4287114319     -0.7996489910
O      -0.5370143382      0.3612834294      5.2883666145      2.6718605720      2.0595414783     -1.0961353201     -0.7383157034
O      -1.5404067498      1.4797528507      3.4082210892      3.0365491860      1.4792646091     -0.2253154346     -0.7599611730
C       1.2251950678      1.9762471630      3.7732972482      0.1381715668      0.5171070632      0.4578991144      1.1167601234
F       1.3779763418      2.4100358309      2.4706466818      0.4104430546      0.0552381593      0.6192298209     -0.4566650473
F       2.3588677672      1.2935223852      4.1697978648     -0.2952166018      0.7603096328     -0.4068419235     -0.4466444589
F       1.0303343522      3.0645993995      4.6014637210      0.5882413591     -0.7660892649     -0.8877334616     -0.4229329538
