55
Properties=species:S:1:pos:R:3:forces:R:3:charge:R:1 energy=-301.6491049383993 homo_lumo=0.0015297860661905986 dipole="-6.732417981575936 -1.572531778087262 0.5223308439178688" free_energy=-301.6491049383993
N      -1.1107618084      0.8197416706     -0.1995637909      0.0056010413      0.2971057137     -0.2533302970     -0.5181428568
C      -1.5902814309      1.8712747171      0.7569924322     -0.8692818957      0.9839071269      1.2745321421     -0.0268092044
C      -2.0880847416      0.7187014918     -1.3324841144     -1.3924324391     -0.1965021181     -1.0526300029     -0.0196462732
C       0.1923816001      1.2757818939     -0.7962841209      1.7702914814      0.3627957319     -0.1672412069     -0.0446197233
C      -0.9596048418     -0.4893316481      0.5283162778      0.3879287571     -1.4917442241      0.3609797394     -0.0484346786
C      -3.0357859625      1.6603583054      1.2503629992     -0.0109880954     -0.1240726214     -0.1607053511     -0.1596832401
C      -3.5374317572      0.4526193796     -0.8910408214      0.0844249206      0.0748453700      0.0695898306     -0.1627880164
C      -4.0066014630      1.5302415002      0.0812094102     -0.2720611733     -0.0654398077      0.1299426047     -0.1572733256
C       1.3854315660      1.3661668930      0.1870786304     -0.4452723444     -0.1110393792     -0.2144053611     -0.2177956057
C      -0.3675716999     -1.6562453960     -0.2999834003     -0.0554932841      0.4348878484      0.1131895350     -0.2182185005
C       2.6458176938      1.8691131785     -0.5275195167     -0.1770985626     -0.0842033013      0.1855644868     -0.1639347642
C      -0.2286846979     -2.9169372457      0.5637843652     -0.0092281510      0.1506258026     -0.1230806777     -0.1651445757
C       3.8366938943      1.9148030852      0.4365181008      0.0587201270      0.1093529073     -0.2305143184     -0.1947114233
C       0.3565617583     -4.0797980536     -0.2462629304     -0.0199368707     -0.0196931545      0.1350145786     -0.2121027969
C       5.0949533534      2.4173588472     -0.2617006028      0.0655507473     -0.0626953639      0.1950548101     -0.0874452585
C       0.4747154253     -5.3404549021      0.6049419150      0.0826852889     -0.2006477687     -0.0728745670     -0.0873663475
H      -1.5435034168      2.8793675816      0.2835847456      0.1883724993     -0.5516324902     -0.2130958752      0.1368270862
H      -0.9460286674      1.9121267713      1.6611006945      0.1791337803     -0.2483879331     -0.5052531908      0.1459844496
H      -1.7876567881     -0.0612704726     -2.0622084944      0.3421537796      0.0703455363      0.4381586476      0.1373385105
H      -2.0986084810      1.6711085383     -1.9131272810      0.3572880000     -0.1082808648      0.4996460321      0.1345381945
H       0.0649257568      2.2824143122     -1.2582014617     -0.4192069783     -0.3115591622      0.2963866234      0.1424863969
H       0.4855291030      0.6132592426     -1.6409017202     -0.4145250061     -0.0368019653      0.3823176663      0.1520942188
H      -1.9337477698     -0.8380338678      0.9211617462     -0.0399615842      0.4386451859     -0.2937428863      0.1675069510
H      -0.3338573446     -0.3509085757      1.4371084369     -0.0636765090      0.3846951846     -0.4292608057      0.1489396688
H      -3.3360154058      2.5345706160      1.8677816839      0.3203640198     -0.1546320722     -0.0522332275      0.1110128381
H      -3.1055678009      0.7686713968      1.9076258205      0.0583226351      0.1801218637     -0.1192586811      0.0980922395
H      -3.6429714723     -0.5547467102     -0.4382993375      0.0513148567      0.1537254344     -0.0881907740      0.0939034319
H      -4.1951853406      0.4707958175     -1.7866798982      0.3184083829     -0.0971512138      0.0243604142      0.1013673414
H      -4.0792738729      2.5049596883     -0.4502608364     -0.0189029815     -0.2131164921      0.1016999354      0.0879605597
H      -5.0169434390      1.2710612203      0.4643049817      0.1612326949      0.1569578591     -0.1246949573      0.0879470515
H       1.1562075588      2.0684634986      1.0138247918      0.0109956011     -0.2124200079     -0.0815415329      0.1128868407
H       1.6130674990      0.3694827631      0.6164092512     -0.1075521835      0.2102594704      0.0007963563      0.1229551157
H      -1.0311875226     -1.8984990732     -1.1543710962      0.1498581054      0.1157677184      0.0557447944      0.1091138212
H       0.6375673715     -1.3966362734     -0.6885655038     -0.2447281899      0.0067743218     -0.0123548045      0.1347361810
H       2.4589347408      2.8885701776     -0.9316288651      0.1024405053     -0.2440582090     -0.0218454318      0.0897811275
H       2.8863876109      1.1903006545     -1.3755232158     -0.0151353217      0.2321496940      0.1075186403      0.0950108740
H       0.4383324338     -2.7007123899      1.4275462724     -0.2184992448     -0.0917976633     -0.1129532397      0.0993613668
H      -1.2291292058     -3.2079450066      0.9536803229      0.2353216605      0.0422884951      0.0324181244      0.0843014754
H       4.0331730264      0.8965514118      0.8377602930     -0.1670978539      0.1912781055      0.0139021040      0.0797335221
H       3.6050708948      2.5903172630      1.2887014495     -0.0828124938     -0.2335953446     -0.0755202295      0.0756928213
H       1.3658843407     -3.8038688314     -0.6223999839     -0.2852840659      0.0098248500     -0.0287171777      0.1013880210
H      -0.2975108085     -4.2960992281     -1.1189321780      0.1972222917      0.1563397604      0.1047185915      0.0902964714
H       5.9366463660      2.4234978024      0.4618672401     -0.0143537602      0.1262133703     -0.5875393008      0.0957639833
H       5.3587729363      1.7504976828     -1.1099447600      0.1799011922      0.3201247044      0.2851666874      0.0525054102
H       4.9419604949      3.4505625995     -0.6398598398      0.2121766088     -0.3048177388      0.0812718295      0.0293518755
H       0.9024469230     -6.1628586194     -0.0064120893     -0.1250145643      0.1407289112      0.3043532179      0.0571301950
H       1.1428745271     -5.1584072818      1.4735355770     -0.2216463688     -0.1521125118     -0.1969039111      0.0486410659
H      -0.5263373207     -5.6539452928      0.9707930114      0.3227790582      0.0160602279     -0.0223848487      0.0411024410
C      10.3085290076      2.9317787476     -1.2420489709      1.2320244727     -0.0567736009     -0.3162048664     -0.1598851575
C       8.8491963127      2.7684050855     -0.9607708001      0.5485259735      0.0291742856     -0.1144876474      0.8862748145
O       8.2319988332      3.6657654139     -0.4103831529     -1.0061548395      3.8021609990      1.9733294268     -0.7881011752
O       8.2716384812      1.7418343759     -1.2800039019     -0.9010251890     -4.0439936187     -1.5910820169     -0.7845244950
H      10.4619652114      3.8031328582     -1.9123962656      0.0802699653     -0.1434607351      0.2574709213      0.0255889910
H      10.8542472824      3.1018316220     -0.2903568496     -0.0537360168      0.0945566805     -0.2886133649      0.0246627035
H      10.7174668834      2.0233407567     -1.7336544190     -0.0522024793      0.2689162031      0.1275328121      0.0143493623
