31
Properties=species:S:1:pos:R:3:forces:R:3:charge:R:1 energy=-163.11856858144876 homo_lumo=3.9269891020517456 dipole="-5.564707006840606 -1.1661300461699193 -0.4405460209419869" free_energy=-163.11856858144876
N       0.1598219040      0.2805854317     -0.0667108970      0.2465038622      0.3739670965     -0.0446198806     -0.5556171687
C      -0.4575035699     -1.0232251397     -0.4317235632     -0.4685701442     -2.1828739417     -0.4917773924     -0.0044594300
C      -0.9269933362      1.0711095048      0.5869852464     -1.4224891976      1.6651399781      1.0187941037      0.0202125798
C      -1.9613581282     -0.8386022858     -0.4212438629     -0.4038144546     -0.0740621066     -0.7435967783     -0.1438273624
C      -2.1829408292      0.2136759365      0.6318621904     -0.4836473387     -0.0673111179      0.6740240172     -0.1543002025
C       1.2921120902      0.1019547170      0.8933291390      1.8345514458     -0.5237478500      1.0328783714     -0.1001382139
C       0.6184237526      0.9913696143     -1.2890464026      0.4507950674      0.6458252733     -1.3019654065      0.0082192307
C       2.4656288281     -0.7335274042      0.3535708013     -0.2755128572      0.1497262143     -0.2633436777     -0.1349007912
H      -0.2186090138     -1.8133738075      0.3170896915      0.3135313851      0.6191348136     -0.1259627419      0.1562132743
H      -0.1221726254     -1.4018509489     -1.4240704687      0.2314732952      0.3760726978      0.5049836885      0.1469204600
H      -1.1655127541      2.0089202927      0.0324190324      0.5860605139     -0.4776360019     -0.0606676895      0.1426752192
H      -0.6715244727      1.3945735835      1.6225383638      0.4019378266     -0.2388450125     -0.5729068400      0.1493845176
H      -2.4929236214     -1.7831765523     -0.1734185473      0.2145412191      0.2942680111     -0.3397864290      0.1081490297
H      -2.3037467385     -0.4625649624     -1.4102961197     -0.0164679224     -0.2357848980      0.2254118564      0.1041134685
H      -3.0999442041      0.8075976691      0.4259011692      0.3258559520     -0.1741094306      0.2991276314      0.1040036157
H      -2.2713305684     -0.2710303161      1.6297511170     -0.0914930874      0.2188847973     -0.2691986326      0.1086584435
H       1.6936943472      1.0946563646      1.1995940536     -0.3489380182     -0.1658708438     -0.3266896276      0.1842738703
H       0.9262587752     -0.3921544846      1.8228581676     -0.3807839428      0.2444611738     -0.4841267044      0.1331157331
H       1.3434303346      0.3836127115     -1.8709362876     -0.1885949064      0.1014484300      0.5116911237      0.1373809956
H      -0.2366247881      1.2044192799     -1.9699761541      0.1506037512     -0.1977857879      0.5109688981      0.1127842868
H       1.1020627546      1.9585800603     -1.0266157087     -0.1930395526     -0.4592514014      0.1187004345      0.1375788595
H       3.1847051150     -0.9201887651      1.1788380844     -0.1561359497      0.2285450284     -0.2876786491      0.1349134713
H       2.1271000717     -1.7159177078     -0.0326992726      0.0879667174      0.1910243178      0.1036348534      0.0471206342
H       3.0086703562     -0.1875948905     -0.4431082768      0.0756763441     -0.1761761152      0.2972745267      0.1267820043
P       6.1356283680      1.4564611683      0.4431510228      1.3349068784      0.3420589427      0.0572966386      2.1124601447
F       5.8133550584     -0.0702113808      1.1620423381      0.0274650579      1.0512380140     -0.7213150594     -0.5192541571
F       7.5132616136      0.7475735411     -0.2995180513     -1.1970582310      0.9002272980      0.6558345273     -0.5028408231
F       5.2728443350      1.1113806727     -1.0016711246      0.1339413431     -0.0555480257      1.2380108496     -0.5240754253
F       6.4662709509      3.0211882855     -0.1847401581     -0.5186860699     -1.4644223530      0.3178895096     -0.5048510822
F       4.6825927479      1.9971139557      1.1843161016      0.9313669215     -0.1318399219     -0.5870221340     -0.5284916607
F       7.0967244388      1.9329576366      1.7853506564     -1.2019459082     -0.7767572784     -0.9458633870     -0.5022035218
