31
Properties=species:S:1:pos:R:3:forces:R:3:charge:R:1 energy=-164.79030528673692 homo_lumo=6.381967406130785 dipole="-0.8937822392592393 1.6614841713160668 -2.3243034650807264" free_energy=-164.79030528673692
N       0.7034690883      0.0622041215      0.3084728084      0.2067255582      0.2884464143     -0.0855409622     -0.5389932921
C       0.4052522298     -1.3821662727      0.0359509005     -0.2539348805     -0.4510216730     -0.1142877254     -0.0179761816
C      -0.1194626189      0.3786673576      1.5224976843     -0.4790186033     -0.0140918152      0.3459056199     -0.0010262740
C      -1.0571836566     -1.5832312836      0.4266456920      0.0490309549      0.0253710614     -0.1152990556     -0.1274445976
C      -1.4133031775     -0.4076650718      1.3492020061      0.0598191923      0.1485742582     -0.0478362335     -0.1413003815
C       2.1551156682      0.3045841985      0.6058019377      0.5736833793     -0.1472537229     -0.3137012406     -0.0892110031
C       0.2552913714      0.9027443024     -0.8301779953     -0.0414969563     -0.0268043173     -0.0710658786      0.0886030375
C       3.0915026179     -0.1456421472     -0.5026706553     -0.4212701071      0.1818171325      0.1987506457     -0.0742867185
H       1.0617651644     -1.9766886200      0.6708915465      0.1601037853     -0.0239811697      0.1619099140      0.2319526134
H       0.6060346768     -1.6012377176     -1.0131646783      0.1022830566      0.0161238940     -0.2428467104      0.0923813246
H      -0.2625613874      1.4576427758      1.5905147084      0.0473508333      0.2972259947     -0.0313838357      0.0820507990
H       0.4317160526      0.0220722587      2.3931997453      0.1747977986     -0.0642094659      0.0807987020      0.2282022812
H      -1.1619796746     -2.5338334449      0.9514384793      0.0027047015     -0.2250478446      0.0457914693      0.1210056278
H      -1.7032567752     -1.5987048936     -0.4539048798     -0.1765660063     -0.0379662689     -0.1994167197      0.0675330679
H      -2.1968776174      0.2125872389      0.9068837530     -0.2265648802      0.1335795567     -0.0605553840      0.0671205496
H      -1.7591524702     -0.7614177700      2.3208454360     -0.0894750469     -0.0143525892      0.2490532238      0.1147564017
H       2.2631316293      1.3754298048      0.7973538451     -0.0638790991      0.2663695675      0.0739284135      0.1053124402
H       2.3887429437     -0.2456682100      1.5186435838     -0.0851172096     -0.0411813568      0.1712371947      0.2411527668
H       0.7865758758      0.6054845537     -1.7316700397      0.1229048203     -0.0833947525     -0.2073585610      0.0902733863
H      -0.8136238172      0.7638473546     -0.9768567765     -0.2934561231     -0.0570462366     -0.0301521886      0.1082968879
H       0.4644790653      1.9471722983     -0.6042656772      0.0507832546      0.2723722662      0.0853348087      0.0724157219
H       4.1104836732      0.0487496333     -0.1690154879      0.3042147209      0.0233101810      0.0564358465      0.0767130145
H       2.9933138299     -1.2141498573     -0.6860391467      0.0543127094     -0.3349408516     -0.0186299833      0.0648112387
H       2.9261240771      0.3957141370     -1.4337125739      0.0481207528      0.1742167233     -0.3084631845      0.0287543620
P       1.8898281491     -2.3548226809      3.5596880679     -0.1168681422      0.0527870911     -0.1167004961      2.1947629362
F       1.9993965309     -0.6761554759      3.5443575255      0.0579167850      0.0841675802      0.1196874034     -0.5332737463
F       2.5514526645     -2.3448096962      2.0107440645      0.1303459149     -0.1106579158     -0.0522067820     -0.5360680533
F       3.3811291544     -2.4489491240      4.1945678787      0.2137606491     -0.0046655292      0.0780875756     -0.4919455584
F       1.7486900931     -3.9725243063      3.4848217565     -0.0221831167     -0.2373892263     -0.0194695355     -0.4941052399
F       1.1971383084     -2.2977313574      5.0275956515     -0.1037115544      0.0192789044      0.2206015415     -0.4930265616
F       0.3724461620     -2.1955630413      2.8419988771      0.0146828590     -0.1096358901      0.1473921180     -0.5374408492
