47
Properties=species:S:1:pos:R:3:forces:R:3:charge:R:1 energy=-257.5126527511275 homo_lumo=4.2304674791654655 dipole="-2.5839031823652676 0.009473447284525028 -1.9268839618287519" free_energy=-257.5126527511275
N       0.2544022444      0.1769423925     -0.2073515147     -0.0035201208      0.0024824889     -0.0034868798     -0.4865349818
C      -0.9615954503     -0.1942401587     -1.0301945683     -0.0025729829     -0.0035736022      0.0116319297     -0.0052445117
C      -0.1948613864      0.8173385503      1.1003112117      0.0054652911     -0.0089682525      0.0088953568     -0.0487704803
C       1.1141443118     -1.0364740957      0.1153552823     -0.0016157207     -0.0103652025     -0.0106436725     -0.0997374981
C       1.0389514465      1.1999610253     -1.0149265220      0.0074508690     -0.0010388852      0.0133580208     -0.0136995638
C      -1.9432811813     -1.0852472938     -0.2883635619      0.0172353460     -0.0040404522      0.0085369250     -0.1721985811
C      -1.1912601323     -0.0394897270      1.8649596751     -0.0010492951     -0.0014038209     -0.0022113518     -0.1646271095
C      -2.3978235673     -0.4287127448      1.0142330998     -0.0115396032      0.0034691081      0.0070023393     -0.1634487398
C       1.7494934782     -1.7324479980     -1.0733974688     -0.0023022569     -0.0030624125      0.0177232280     -0.2191706903
C       2.3374303691      1.6732424618     -0.3927467712     -0.0009684912      0.0009824964      0.0027788878     -0.2920188945
C       2.5462229151     -2.9405748273     -0.5659844205      0.0006086658     -0.0031979290      0.0095869304     -0.2135337523
C       2.9780786126      2.7304862558     -1.2899979270     -0.0127606342     -0.0039231014     -0.0208886201     -0.0637767189
C       3.2739247806     -3.6640158908     -1.6936007569     -0.0042971396      0.0024698621     -0.0122049679     -0.0684496420
H      -0.5951353527     -0.6610840710     -1.9543129328      0.0097676729      0.0029251628     -0.0038853557      0.1377660680
H      -1.4438486606      0.7609432691     -1.2946163290      0.0011013531      0.0064277535     -0.0004954665      0.1255140264
H      -0.6470938487      1.7817951720      0.8160928177     -0.0025213789      0.0014430546     -0.0024902270      0.1039020060
H       0.7158745019      0.9812289117      1.6973523327     -0.0017475838      0.0008603416     -0.0057057611      0.2327720471
H       0.4699308299     -1.7335134221      0.6650439972      0.0048897937     -0.0000250680     -0.0010073206      0.1530227695
H       1.8946523952     -0.6826275631      0.8038162496     -0.0022302841      0.0012950475      0.0130833078      0.2743032250
H       0.3447126892      2.0437725564     -1.1654245771     -0.0037523641     -0.0034541700      0.0056925655      0.1196923700
H       1.2177787575      0.7370195171     -1.9981979341      0.0012815767     -0.0013667701     -0.0001984826      0.1324318859
H      -1.4939580500     -2.0728538665     -0.0907117023     -0.0024409315     -0.0040421039     -0.0001711052      0.1081138763
H      -2.7995920179     -1.2615398566     -0.9605431588     -0.0003522587     -0.0040898560     -0.0031404209      0.1037693302
H      -1.5043220459      0.5477818450      2.7435420123      0.0089749535      0.0003923676      0.0058090646      0.1157467794
H      -0.6886287125     -0.9335825475      2.2673583744      0.0118973530     -0.0103853223      0.0073333935      0.1131443737
H      -2.9868441336      0.4758461904      0.7737572769     -0.0045856423      0.0086646567      0.0036669139      0.0858764201
H      -3.0624688450     -1.1062416902      1.5727836915     -0.0109732564     -0.0008145200      0.0060234314      0.0887849599
H       2.4475861552     -1.0525254560     -1.5891998255      0.0012274166      0.0010883688     -0.0013020475      0.1210955702
H       0.9984206335     -2.0706525119     -1.8104516360      0.0005288168      0.0005939365      0.0052562018      0.0832098230
H       2.1634276568      2.0936662126      0.6084690770     -0.0066057657      0.0052054277     -0.0019541323      0.1488038601
H       3.0364223727      0.8363849300     -0.2398998707     -0.0040342883     -0.0023824795     -0.0078175710      0.1850749987
H       1.8618498431     -3.6405131252     -0.0527177134     -0.0021892455      0.0067058958     -0.0014267371      0.0727050185
H       3.2703509627     -2.5833663132      0.1861092540     -0.0081579911     -0.0033407814     -0.0056471729      0.1623491819
H       3.9310901613      3.0538368959     -0.8504469641      0.0177684954      0.0164903406     -0.0069290734      0.0735123426
H       3.1846837209      2.3362576535     -2.2984334052      0.0099767569     -0.0042528552      0.0113849857      0.0251202701
H       2.3320304632      3.6171494403     -1.3976271685      0.0097958896      0.0002342653      0.0009020095      0.0196639913
H       3.9788209799     -2.9861059471     -2.2006969945      0.0038526327     -0.0084134131      0.0048487719      0.0390906839
H       2.5696989216     -4.0507446044     -2.4489116415      0.0024018906      0.0033844075      0.0032882021      0.0211041036
H       3.8512155653     -4.5140589653     -1.3018341171      0.0097061081     -0.0130986579     -0.0100609642      0.0474213796
S       3.8095310300     -0.0111140806      2.6239458949      0.0037183253      0.0104386724     -0.0059996299      1.7445353745
O       4.0849266588     -0.5598795872      1.2744571735     -0.0115228622     -0.0023346980     -0.0176065633     -0.8171952038
O       4.2244852497     -0.8372336042      3.7554959725     -0.0067106543     -0.0030172058     -0.0032046542     -0.7528149513
O       2.4681517357      0.6176258876      2.7394096076     -0.0164072200      0.0080831867     -0.0125797330     -0.8279898387
C       4.9606204599      1.4708125753      2.7067460806     -0.0156205447     -0.0035815355     -0.0126057576      1.1235917244
F       4.7379628546      2.3335608770      1.6631476960      0.0002750484      0.0003363781     -0.0000920039     -0.4675840535
F       6.2605277982      1.0866156151      2.6461541414      0.0094858627      0.0098921255      0.0018622122     -0.4418172267
F       4.7803317333      2.1723915654      3.8558306611      0.0030683979      0.0103077502      0.0050909945     -0.4435060219
