43
Properties=species:S:1:pos:R:3:forces:R:3:charge:R:1 energy=-235.82787956730215 homo_lumo=0.06588135548150972 dipole="-3.3949782207922596 0.17702592637424072 -3.999296695831712" free_energy=-235.82787956730215
N      -1.3798805254      0.1779561196     -0.0583655490      0.0079483630      0.1239987656     -0.0815652853     -0.5207795556
C      -1.6489295418     -1.0128857730     -0.9228707176      0.0814331136     -1.8116188453     -1.4740691158     -0.0012172934
C      -2.4810837405      0.1799099985      0.9531924346     -1.5970287051      0.5338434595      1.6642345578     -0.0098157522
C      -0.0621976809      0.0234806467      0.6408475711      1.8488856001     -0.0044505224      0.4684296799     -0.0871168182
C      -3.0148530740     -1.5667355152     -0.5632540562     -0.5845965529     -0.0538380758     -0.5781952113     -0.1322111148
C      -3.2074827237     -1.1480162448      0.8671245894      0.0043955869     -0.5089598693      0.6536571539     -0.1360071203
C      -1.4408043324      1.4237968697     -0.8896552988      0.0814454311      1.6913943175     -0.7392660205     -0.0787050675
C       1.1686640484      0.0407058614     -0.2982461956     -0.4163195479      0.0199098815      0.0942291763     -0.2129885485
C      -1.1550950991      2.7226899898     -0.1141157183      0.1228147453     -0.2758982013      0.1193511936     -0.1215856891
C       2.4435107082     -0.3263003882      0.4701199902     -0.0664168722      0.1381063750     -0.1088173592     -0.1816821631
C       3.6690768495     -0.3161984977     -0.4500823926     -0.0337035273     -0.0521767117      0.1088623448     -0.2072128986
C       4.9339906880     -0.6899026029      0.3174288150      0.2531937604      0.0231300359     -0.0642367970     -0.0833225643
H      -1.6108707100     -0.7842311268     -2.0126591341      0.2367131250      0.3026013772      0.5449007177      0.1277827121
H      -0.9145748195     -1.8336508667     -0.7526255848      0.0661481032      0.7384419841      0.2246300045      0.1518793906
H      -2.1238479775      0.3491945368      1.9949855695      0.3035878140      0.0957675444     -0.5770331937      0.1579025482
H      -3.2371542862      0.9734858529      0.7512150869      0.6396286437     -0.0554812234     -0.3081208759      0.1316855020
H       0.0726446925      0.8236538990      1.4020297911     -0.3411211343     -0.2046997358     -0.3100409850      0.2032035655
H      -0.0574180065     -0.9321426666      1.2156288045     -0.3473716467      0.3109496059     -0.2883562232      0.1807066813
H      -3.7940534922     -1.0972106051     -1.2038249844      0.1449068798     -0.2339602473      0.1187867668      0.0863141164
H      -3.0562622461     -2.6725202053     -0.6728905237     -0.0122038296      0.3927792203     -0.1895939477      0.0929039309
H      -2.7273133171     -1.8864534614      1.5466225399     -0.2474643112      0.1846714420     -0.1025921001      0.1086350166
H      -4.2853860232     -1.0483881585      1.1214431950      0.4257904140     -0.0353915144      0.1434067487      0.0911684788
H      -2.4483813455      1.5194582836     -1.3564731417      0.1974612739     -0.5021590793      0.3622224169      0.1345091418
H      -0.7284987370      1.3667988451     -1.7417026122     -0.1005280924     -0.3913946321      0.4566919054      0.1593304032
H       1.3044261778      1.0548328918     -0.7284446175     -0.0885664048     -0.2064292203     -0.0124978685      0.1103968391
H       1.0338746941     -0.6749881504     -1.1355994784     -0.0319269196      0.1524032637      0.0658010873      0.0935653388
H      -1.7857420062      2.8061643158      0.7937189659      0.1948033871      0.0431070258     -0.2251162792      0.0756044972
H      -0.0874472272      2.7897483625      0.1773105011     -0.3261425076      0.0035045437     -0.0010108517      0.0904418210
H      -1.3759912754      3.5923624012     -0.7680474614      0.0187181030     -0.3237834833      0.1383065901      0.0825317298
H       2.3278756253     -1.3391448543      0.9146370879      0.0697108609      0.3608837471      0.1216788090      0.1139036267
H       2.5966031165      0.4064554756      1.2923893273     -0.0388394404     -0.4686039361      0.0850383285      0.1521312525
H       3.5235265491     -1.0434133655     -1.2783951538     -0.0377682411      0.2280431522      0.0340628325      0.0672748712
H       3.8005782667      0.6964033160     -0.8897644437     -0.1065002132     -0.2086174714     -0.0280634413      0.0730301494
H       5.8074761477     -0.6611551456     -0.3673130062     -0.1494804948     -0.0533199022      0.2591674309      0.0337918061
H       5.1085758400      0.0279212727      1.1469676261     -0.0338171660     -0.3535415485     -0.1464080551      0.0729847236
H       4.8426721169     -1.7156247247      0.7339659551      0.0949457504      0.3552245226     -0.0013128883      0.0517556913
C       0.8723286701      0.4053527247      5.2247751584     -1.3107076260      0.3106290414      0.1066999867     -0.2025168781
C       2.3249840178      0.0840387011      5.0649965108      0.2342377542      0.0860441010      0.3849739771      0.8694131606
O       3.0833982539      0.2051009117      6.0135518092      0.9472111607      0.8972972948      3.8771181558     -0.7601304803
O       2.7560215996     -0.3007780175      3.9900177172     -0.0052204684     -1.2680891262     -4.8766620147     -0.8149533792
H       0.4252743548     -0.2642276062      5.9893220948      0.0078711659      0.2861837092     -0.1158682485      0.0245022443
H       0.7575601493      1.4597687908      5.5528424968     -0.0945071067     -0.2817003728      0.0491245116      0.0179696969
H       0.3312030006      0.2667968698      4.2641293331     -0.0116202281      0.0151993086      0.1474523862     -0.0050736130
