43
Properties=species:S:1:pos:R:3:forces:R:3:charge:R:1 energy=-238.4581245748912 homo_lumo=3.3132764538032213 dipole="-1.741696599423991 -0.08820687520713755 1.0445734556461816" free_energy=-238.4581245748912
N      -0.1800794450      0.1500245651     -0.2314901501     -0.0085366603     -0.0059455947      0.0165282135     -0.4833018004
C      -0.1110236002     -0.8847366852     -1.3421769120     -0.0024081208     -0.0095377400      0.0049443911     -0.0479845027
C      -1.6460847701      0.1552492454      0.1333829286     -0.0060720019     -0.0023455666      0.0012552035      0.0151148588
C       0.6595633759     -0.2665300578      0.9529149960      0.0178488005      0.0047772655     -0.0070665499     -0.0035877435
C      -1.3716870901     -0.6425299731     -2.1665496122      0.0021459052      0.0043947841     -0.0025409722     -0.1457040660
C      -2.3962092662      0.0016579662     -1.1928744043      0.0040824376      0.0046414649      0.0014172794     -0.1550021978
C       0.2526719992      1.5004770011     -0.7887268343      0.0047404182      0.0026438930     -0.0036926097     -0.1318649152
C       2.1404079563     -0.3671252075      0.6498182132     -0.0094514980     -0.0025655138      0.0186615778     -0.2438505538
C       0.3123444634      2.6062165846      0.2448806002      0.0059464331      0.0033521327     -0.0033034909     -0.0985766925
C       2.9128138947     -0.8734041750      1.8654059757      0.0076313883      0.0049780748     -0.0143674602     -0.1588007653
C       4.4096817831     -0.9835949507      1.5749782428     -0.0030619975     -0.0011394924      0.0084590571     -0.2108599079
C       5.2027884999     -1.4848110348      2.7781424310      0.0102111212      0.0014600098     -0.0079012051     -0.0627207015
H       0.8690237082     -0.7829666264     -1.8774242605     -0.0056237800      0.0014311540      0.0078165465      0.2301468300
H      -0.1553868971     -1.8613246759     -0.8340648431     -0.0040502347     -0.0151301894      0.0097869362      0.0977042395
H      -1.8048986867     -0.7142981634      0.7882037005     -0.0039734078     -0.0188480657      0.0016401325      0.1136947412
H      -1.8826454879      1.0681284015      0.6941610376     -0.0018922355      0.0033320217      0.0043100562      0.1261010048
H       0.4519299943      0.4548969995      1.7589753404     -0.0010801816      0.0050728585      0.0038684348      0.1236864530
H       0.2551849187     -1.2437902932      1.2653552014     -0.0019130858     -0.0058846105      0.0084467566      0.1064729242
H      -1.1613622672      0.0236132157     -3.0159984034      0.0104005330      0.0130809055     -0.0010438869      0.0896189446
H      -1.7368669598     -1.5913296319     -2.5846588751      0.0025169668      0.0051116376     -0.0052264404      0.0944974538
H      -3.2872567545     -0.6265239802     -1.0471164200      0.0022994204      0.0056978772     -0.0065226011      0.0929107571
H      -2.7440450627      0.9753987938     -1.5676238498      0.0019852834      0.0075831643     -0.0006132224      0.0817192486
H      -0.4733156333      1.7390092431     -1.5790312396     -0.0098073566     -0.0063817494     -0.0015341925      0.1303352418
H       1.2631070571      1.3573759090     -1.2545052561     -0.0110217882     -0.0056213286      0.0004988180      0.2634106482
H       2.5417337794      0.6039610758      0.3199097097      0.0035218482      0.0175797918      0.0073501264      0.1708323245
H       2.3060512744     -1.0328704032     -0.2139387733      0.0013873613     -0.0110905240     -0.0039806058      0.1727950767
H      -0.6270075092      2.7673302677      0.7973634865     -0.0091099022     -0.0054412521     -0.0038406257      0.0218828332
H       1.1284544331      2.4481872330      0.9637849004      0.0074722861     -0.0054765847      0.0105023254      0.0562639440
H       0.5428018261      3.5400404100     -0.2898983816      0.0060422425     -0.0009321996     -0.0138565086      0.0782774537
H       2.5293360026     -1.8652308190      2.1743556458     -0.0027539819      0.0001787586      0.0071846940      0.0664647909
H       2.7586442872     -0.1950647403      2.7270825395     -0.0007172966      0.0029779834      0.0073136081      0.0688230637
H       4.5577868703     -1.6587070529      0.7137139886     -0.0054673540     -0.0067154244      0.0001813912      0.1035613627
H       4.7867913832      0.0034449983      1.2543680375     -0.0014127997      0.0072636024      0.0054475745      0.1010908931
H       6.2773796417     -1.5586161152      2.5512990947     -0.0024135004      0.0008163398     -0.0029101869      0.0380467045
H       5.0854841613     -0.8052263377      3.6380719525      0.0062835716      0.0026121065      0.0066106762      0.0273372938
H       4.8550286400     -2.4827321449      3.0915121920      0.0036349923     -0.0069443146      0.0027919790      0.0276196251
C       4.5039693074      0.3563498518     -3.3979204377     -0.0016262661     -0.0012684357      0.0018148893     -0.0941687557
C       3.2508720131      0.3369910858     -2.5156437960     -0.0077330085      0.0048680938     -0.0161494107      0.9099505538
O       3.0014464020      1.3855094966     -1.8441089638     -0.0034375403      0.0106640272     -0.0205939733     -0.8314503117
O       2.5752503250     -0.7411178313     -2.5285014337     -0.0129060473      0.0068318869     -0.0229814635     -0.8393192520
H       4.2651075947     -0.0471798901     -4.3926209903      0.0122441946     -0.0014390606     -0.0100012735      0.0357690649
H       4.9121610098      1.3720777406     -3.4861105384      0.0095112348     -0.0045181484     -0.0033777449      0.0267115750
H       5.2702536778     -0.3016251794     -2.9585897203     -0.0034363930     -0.0041240388      0.0146737570      0.0363522607
