59
Properties=species:S:1:pos:R:3:forces:R:3:charge:R:1 energy=-322.9604978848531 homo_lumo=3.9260997264113047 dipole="-0.9491508010575086 -2.449096609549789 -4.037497514248489" free_energy=-322.9604978848531
N      -0.5268317406      1.7835878500     -0.2049425263      0.2442520074      0.1360577098     -0.3415957234     -0.5167442357
C      -1.3877900781      2.3195362976     -1.3093814953     -1.2398225926      0.6428329974     -1.1188194258     -0.0272745731
C      -0.2127306636      2.9037930803      0.7410362411      0.0686465086      1.4644506326      1.4865840868     -0.0834584460
C      -1.2046248521      0.6690255940      0.5453947617     -0.6275755088     -1.3649170626      0.3925753971     -0.0619941770
C       0.7542044377      1.3223084585     -0.8440762601      1.4951280810     -0.7759715057     -0.2719821063     -0.0384217285
C      -2.6759847345      3.0066514165     -0.8253305879      0.0241022516      0.0514517419      0.0210528759     -0.1781160978
C      -1.4566568621      3.6402412735      1.2805064682     -0.0924318398     -0.0424319549     -0.1082585700     -0.2001823410
C      -2.3508636405      4.1362959612      0.1475600171     -0.1880147446      0.0703742938      0.1549021557     -0.1584832897
C      -1.5111674343     -0.6068103358     -0.2768216024      0.1666023931      0.4266616964      0.1154914538     -0.2195636909
C       1.7732610359      0.6315223310      0.0986741936     -0.3248191351      0.2207138681     -0.1131779380     -0.2274324154
C      -2.2005101843     -1.6578587959      0.6038533087      0.1092084445      0.1483054835     -0.1470890681     -0.1668460126
C       3.0499748805      0.2601606073     -0.6693002328     -0.2241207460      0.0569538996      0.1093729582     -0.1646497029
C      -2.4860005775     -2.9415426413     -0.1842402620     -0.0784286746      0.1266412310      0.4102622272     -0.1681394489
C       4.0554139734     -0.4644018167      0.2347674577      0.0406224060      0.1353727827     -0.3807308998     -0.1726907895
C      -3.1906348559     -3.9787377692      0.6973531235      0.0297355160     -0.1046367513     -0.2129473880     -0.2090091395
C       5.3308852838     -0.8161926884     -0.5405652498     -0.0009643872     -0.0710720412      0.2162687595     -0.2077885157
C      -3.4591118891     -5.2661237708     -0.0765765624     -0.1188183156     -0.2054346942      0.1180643432     -0.0849948757
C       6.3367967596     -1.5417697209      0.3487506393      0.2362191853     -0.0643839407     -0.0858328046     -0.0858567559
H      -0.8214186292      3.0779100625     -1.8995562084      0.2090741126     -0.3414401707      0.5255807472      0.1469594806
H      -1.6570518003      1.5289831406     -2.0401881635      0.3574932980     -0.1050880172      0.4603433477      0.1407410302
H       0.3509757743      2.5327023067      1.6218528124     -0.1078199558     -0.1272559624     -0.3014865941      0.2293799167
H       0.4348564233      3.6634018560      0.2459169236     -0.1979378004     -0.5332937026     -0.1920569401      0.1376721234
H      -0.5949776944      0.3767396487      1.4287836920      0.1124253917      0.4258051134     -0.4273712272      0.1737871521
H      -2.1639652256      1.0110205060      0.9805871103      0.3694946803      0.3541096212     -0.3097016288      0.1908332478
H       0.5384776193      0.6279170442     -1.6870969171     -0.3298018304      0.2211773209      0.3824384316      0.1406354019
H       1.2729660446      2.1887514474     -1.3177154607     -0.5326551959     -0.0367100999      0.3584093274      0.1501393147
H      -3.2040889212      3.4356851637     -1.7049227641      0.1988773093     -0.3331605132      0.0761831454      0.1107480104
H      -3.3707759658      2.2778186066     -0.3600926609      0.1489369171      0.0832486234     -0.0915239651      0.1045880334
H      -2.0350050135      2.9907606111      1.9699466526      0.2307736678      0.1579474288     -0.0565869939      0.1167775905
H      -1.1227641552      4.5170410603      1.8764429870      0.1998060070     -0.4869968302      0.0705680662      0.1986598982
H      -3.2944995267      4.5422969585      0.5716276572      0.2933759251      0.0250777713     -0.1519777740      0.1018898735
H      -1.8370150613      4.9596402055     -0.3964653285     -0.1413236133     -0.1494355820      0.0866393109      0.0893185516
H      -2.1908893766     -0.3715068465     -1.1206456192      0.2216895574     -0.0350598869      0.0597861575      0.1141223853
H      -0.5772751605     -1.0504494625     -0.6791660603     -0.2008910135      0.1439177138     -0.0194484156      0.1200910215
H       1.3446713585     -0.3010272846      0.5206423985      0.0455550070      0.2611253222      0.0011668073      0.1233084205
H       2.0551916070      1.3068196310      0.9322968545     -0.1806042036     -0.1938174397     -0.0989674034      0.1499919288
H      -3.1593298822     -1.2425984248      0.9871024439      0.2602482948     -0.1281552935      0.0413979708      0.0963688830
H      -1.5466134091     -1.8985815901      1.4715177996     -0.2489808971      0.0840639048     -0.1205490836      0.1028717645
H       3.5190296524      1.1862220328     -1.0706043471     -0.0966423956     -0.2564674815     -0.0096507601      0.0950660589
H       2.7860177110     -0.4016865763     -1.5242181896      0.1258857725      0.2014819819      0.0926678388      0.0854163718
H      -3.1317877337     -2.7024052801     -1.0586406121      0.2169448296     -0.1001758468      0.1209425950      0.0873788561
H      -1.5265197861     -3.3647404473     -0.5571594458     -0.2507309998      0.0890022910     -0.0203977538      0.0889229757
H       4.3164007611      0.1896049418      1.0966499222     -0.1107138104     -0.2340731742     -0.1385007431      0.1083496457
H       3.5930514571     -1.3981899370      0.6260792383      0.1242739816      0.2449900903      0.0176554986      0.0900736320
H      -2.5557217076     -4.2148183473      1.5800529750     -0.2063037940      0.1765848350     -0.1354724712      0.0945014046
H      -4.1588523485     -3.5668927140      1.0593974530      0.3026212952     -0.0309749224      0.0322230337      0.0926336339
H       5.0762253337     -1.4706141408     -1.4035306942      0.0275620582      0.2616047378      0.1034478153      0.0843369663
H       5.8007230651      0.1139897312     -0.9301058219     -0.1990155365     -0.2143062292     -0.0247573262      0.0915827998
H      -3.9687294327     -5.9983655242      0.5845756329      0.1348077576      0.0801045021     -0.3171011978      0.0508858907
H      -2.5030737500     -5.7100762233     -0.4287110589     -0.3326301067      0.0573789169      0.0248077650      0.0406652220
H      -4.1131111549     -5.0606261554     -0.9512928138      0.2133434200     -0.1669077309      0.2005767688      0.0401018001
H       6.6273908601     -0.8984790192      1.2070272405     -0.0481423896     -0.2848357566     -0.1923627226      0.0486078689
H       5.9007495210     -2.4899925167      0.7303962113      0.2056593907      0.2648184218     -0.0190356718      0.0401130186
H       7.2475291685     -1.7813481950     -0.2397974932     -0.1720808411     -0.0125831987      0.3008814124      0.0469907744
B       0.5599102241      4.3356187440      4.5586029394      0.1294141773      0.4823212744      0.7279402609      1.3138647218
F      -0.7898177020      4.7123885917      4.7904389790     -0.2698016455     -0.0342327613     -0.1936432747     -0.5653392288
F       0.6087277906      2.9740287836      4.1593449344     -0.0498059420     -0.6502077543     -0.5144552134     -0.5773999337
F       1.3106295123      4.5038640861      5.7522261900      0.0040920324     -0.0641811533     -0.0858681393     -0.5514291837
F       1.1101486489      5.1513692656      3.5340036164      0.0240062384      0.0536312503     -0.5068813340     -0.5725610883
