44
Properties=species:S:1:pos:R:3:forces:R:3:charge:R:1 energy=-236.7904954494661 homo_lumo=5.514410893335551 dipole="-2.141026860115165 -1.5824872404696102 1.4086640304875298" free_energy=-236.7904954494661
N       1.0362125175      0.2743431748     -0.1438029849     -0.0893549467     -0.0520063863      0.0467258901     -0.5028497569
C      -0.4448174477      0.2522918777      0.1118147438     -0.3881878040     -0.4204863481     -0.0959767931     -0.0707016993
C       1.3487012439     -0.0261463345     -1.5927569822     -0.1218939460      0.1772934096     -0.5291946222     -0.1209241742
C       1.6936758772     -0.7795786210      0.7104849842      0.5080696588     -0.1276991143      0.1628483460     -0.0694393060
C       1.5530917863      1.6532810450      0.1895337872      0.0874596769      0.2446142330      0.5785407225     -0.1475938319
C      -1.1559056741     -1.0318472467     -0.2904715182      0.3169455212      0.3378448772      0.0925207742     -0.0780596585
C       0.6197869974      0.8409594790     -2.6059697180      0.0904221088     -0.1949718078      0.4719603144     -0.0981907783
C       3.2145237857     -0.7618900380      0.7077617000     -0.5251927224      0.0236481215     -0.0610621105     -0.1086915690
C       1.4336799443      2.0628602420      1.6475144147     -0.1193537940     -0.3174445507     -0.3906471195     -0.0852384751
H      -0.5853421577      0.4187150213      1.1819275903      0.0394183488      0.1023144242      0.1805758009      0.1518341019
H      -0.8740258681      1.0998308383     -0.4267662826     -0.0037340543      0.2247244363     -0.0855033169      0.1465087913
H       2.4231586657      0.1147895851     -1.7180731506      0.1559045898     -0.0050134296      0.0288234590      0.2703775353
H       1.1147025705     -1.0801757110     -1.7581562333     -0.0521435170     -0.2691882827      0.0959757810      0.1080989089
H       1.3189618787     -0.6466496882      1.7285280933     -0.1832407742      0.0504350585      0.1757703450      0.1269689017
H       1.3443849019     -1.7459296453      0.3401771483     -0.1537046149     -0.1330271878     -0.0841653494      0.1454784834
H       2.5982629417      1.6822151312     -0.1214665723     -0.0395152160     -0.0282347251     -0.1629717311      0.2570521770
H       0.9994427768      2.3586391167     -0.4318793340      0.0238613833      0.0637411853     -0.2189243850      0.1909531852
H      -2.2125416824     -0.9069218567     -0.0535305924     -0.3231738686     -0.0101894456      0.0623514190      0.0696415007
H      -1.0693623969     -1.2310044282     -1.3564215675     -0.0212758875     -0.0751785509     -0.3295227214      0.0606402407
H      -0.7839732151     -1.8922636964      0.2628276392      0.0267856729     -0.2822865347      0.1643717713      0.0492074306
H       0.9830065108      0.5485687319     -3.5913308892      0.1154591312     -0.0392420293     -0.2900788450      0.0684634645
H      -0.4587612331      0.6942914343     -2.5818753282     -0.3809591215     -0.0893026335     -0.0583738550      0.0263543047
H       0.8433118137      1.8967187984     -2.4703081997      0.1270373748      0.3191996655     -0.0499114367      0.1224805465
H       3.5486368274     -1.6024046121      1.3163321384      0.1127005292     -0.2566393011      0.1946407598      0.0475639497
H       3.6241653903     -0.8819967455     -0.2926525912      0.2050368324     -0.0029096714     -0.2627711878      0.1116642634
H       3.6119572109      0.1513725158      1.1431818056      0.1566499600      0.2151742841      0.1173871187      0.0779271363
H       1.8608908228      3.0626804352      1.7271722467      0.1202273048      0.2908785648      0.0389109650      0.0894566319
H       0.3978740849      2.1103672385      1.9805770387     -0.2935358601      0.0958919684      0.1792660709      0.0306451651
H       1.9918059609      1.4037277020      2.3096679567      0.1981588870     -0.1540653337      0.2626722510      0.0395224321
N       3.4615221323      2.1115344061     -2.1339988369      0.3711694270      0.2987692784     -0.1020923775     -0.9156681078
S       4.9348934612      1.4803887621     -2.1784170335     -0.2337455526     -0.3145391124     -0.1419898968      1.6409397773
S       3.2896770401      3.7106360788     -2.1129107128     -0.4574108617     -0.2208326892      0.0663953673      1.6195397860
C       5.7915508420      1.8878912266     -0.5564597480     -0.6306442714     -0.1131544331     -0.6978972797      1.2024447120
C       3.6532120939      4.3608912628     -3.8331185906     -0.1331967518     -0.5383700882      0.7984343255      1.2057811048
O       4.7180685042      0.0510922676     -2.0782465324     -0.1482093631     -1.1342031996      0.2105487713     -0.7856553053
O       5.7957932891      1.9764716472     -3.2174823067      0.7607766591      0.5979661290     -0.6572062984     -0.7247734332
O       4.1830963769      4.4051818113     -1.2202384418      0.8407372653      0.5820820447      0.4707917310     -0.7355164782
O       1.8646403203      3.9208039451     -1.9468979006     -1.0938373092      0.2701409842     -0.1145200000     -0.7861870782
F       6.5614821813      0.8664135762     -0.2111519475      0.8969167420     -1.0803019400      0.2970824264     -0.4397449846
F       4.8627421999      2.0349338825      0.3959311424     -0.7889570529      0.2206150145      1.0984750162     -0.4700314055
F       6.5222644864      2.9756080786     -0.6224763074      0.8086298602      1.1102528510     -0.1142108242     -0.4216009266
F       2.9289760930      5.4491935916     -4.0378046030     -0.7798695687      1.2508944753     -0.1686849456     -0.4357029918
F       3.3105504770      3.4467331281     -4.7283941662     -0.3989676480     -0.9672530111     -1.0303227317     -0.4380321511
F       4.9271431776      4.6572826729     -3.9696712576      1.3977375732      0.3500588007     -0.1490415991     -0.4249424196
