61
Properties=species:S:1:pos:R:3:forces:R:3:charge:R:1 energy=-337.5050720779156 homo_lumo=3.5441914689859395 dipole="-1.8443470481244166 -0.658507367276811 0.4015567288370563" free_energy=-337.5050720779156
N       1.0442974944      0.8251774251      0.2634977116      0.0876317013     -0.0754733701     -0.0653426248     -0.4977219620
C       0.5546674635      1.9989595849     -0.5372440210     -0.4904928046      0.5222082316     -0.0544441893     -0.0192159260
C       1.9096407425      1.3179216173      1.3933417286      0.0533750733      0.3678613332      0.6370611836     -0.0606786638
C      -0.0713959233      0.0019106639      0.8316430239     -0.3802406355     -0.1729885562     -0.4330533047     -0.0221107664
C       1.9047081792      0.0268926682     -0.6849132625      0.3028402785     -0.5722931596      0.1116854992     -0.0355561372
C      -0.1478309752      3.0561419232      0.3000465403      0.4870010489     -0.1090317817      0.0388213213     -0.1569071885
C       1.2578910183      2.4065915911      2.2343160583     -0.0184191891      0.0526287861     -0.4833780083     -0.1444824100
C       0.8201706168      3.5768869935      1.3592929406     -0.2710639647     -0.2487739526      0.1289177309     -0.1513908504
C      -1.0185176877     -0.6203748430     -0.1922883532      0.0732904291      0.0354567839      0.6803083460     -0.2075243211
C       2.6755002200     -1.1268136677     -0.0545759435     -0.0629535823      0.3348263086     -0.4479903463     -0.2434907152
C      -2.1206598115     -1.3920138461      0.5436134721      0.1240725570      0.1004587651     -0.7830740711     -0.1482042083
C       3.5897692206     -1.7365165534     -1.1245272811     -0.0879761618     -0.2623931041      0.4266322127     -0.1461211331
C      -3.0822880384     -2.0545903808     -0.4473518324     -0.0620770928     -0.0552646136      0.8925011713     -0.1564659105
C       4.6381680169     -2.6794487304     -0.5236704008      0.0493421969      0.4681841463     -0.1988846138     -0.1260567943
C      -4.1774336654     -2.8382886448      0.2829282087      0.0334691230      0.0354694831     -0.7300624599     -0.1978333888
C       5.6926713544     -1.9355069535      0.3210344192     -0.2839609039     -0.3005814279      0.2288496792     -0.2196950705
C      -5.1372435007     -3.5022773908     -0.7026967285      0.1853168166      0.1220107746      0.4207034254     -0.0451952121
C       5.5505279866     -2.2102106187      1.8178984036      0.1812931611      0.1414992261     -0.3812676211     -0.0536461336
H       1.4525478211      2.4454186266     -0.9807542607      0.3438474093      0.0117654017      0.0204329715      0.2047339959
H      -0.0913029716      1.6196338170     -1.3306799907     -0.1108418347     -0.2212513954     -0.1582965697      0.0999604772
H       2.1522585676      0.4594899779      2.0213627524      0.0273952044     -0.2713155464      0.0329212062      0.1058354174
H       2.8231060197      1.6981764479      0.9289051687      0.1882923590      0.0094594148     -0.2182805003      0.2635232402
H       0.3921219434     -0.7884799820      1.4275304963      0.1481888598     -0.0967083569      0.1379225350      0.1347257790
H      -0.6401021584      0.6457348135      1.5060162987     -0.0463936570      0.1200748078      0.1423566249      0.1592962885
H       1.2636268919     -0.3257464891     -1.4955673461     -0.2570665993     -0.0368858113     -0.1563479984      0.0971417665
H       2.6313148296      0.7367834338     -1.0854170759      0.1960872712      0.1988094983      0.0630988200      0.2280557049
H      -0.4373631610      3.8651746554     -0.3756987612     -0.1515966230      0.1639402246     -0.2205270599      0.0884715165
H      -1.0584861489      2.6642460897      0.7648849634     -0.3161716962     -0.0494328447      0.1151251404      0.0681436262
H       0.4038467747      2.0141029238      2.7972376149     -0.2120918471     -0.0517489362      0.2353245902      0.0615799991
H       2.0066884215      2.7396043748      2.9578461337      0.2057694708     -0.0063707211      0.2370270708      0.0929599830
H       0.3407673345      4.3463501318      1.9689472160     -0.1135471588      0.2451085382      0.1670502100      0.0563359038
H       1.6975173024      4.0070307393      0.8656711849      0.2161877635      0.0895628697     -0.1309788052      0.1323471155
H      -1.4774143045      0.1524520352     -0.8140291949     -0.1231666969      0.1761117467     -0.1777856068      0.1070497891
H      -0.4789101979     -1.3089224863     -0.8470627597      0.1286933525     -0.1613285848     -0.1799404980      0.1121391839
H       2.0031287629     -1.8865258337      0.3555640941     -0.1424166385     -0.3102232730      0.1112202700      0.0596048212
H       3.3038880582     -0.7362109714      0.7461605611      0.1527759564      0.1137043403      0.1143520827      0.1994465610
H      -2.6764277629     -0.7053641367      1.1911383616     -0.1552446429      0.1431085766      0.2132225373      0.0817809255
H      -1.6652944994     -2.1579168580      1.1805163461      0.0857540850     -0.2012928654      0.2076879198      0.0854576066
H       4.1051488170     -0.9225501709     -1.6439547821      0.1274538223      0.2096008117     -0.1002028724      0.1120509067
H       2.9848624667     -2.2796049013     -1.8589737042     -0.1979237752     -0.1297120301     -0.2407205912      0.0524699381
H      -3.5409008890     -1.2854590204     -1.0781635784     -0.1165503480      0.1844526126     -0.2151646477      0.0832015403
H      -2.5213645055     -2.7314092718     -1.1007922324      0.1329557667     -0.1689973163     -0.2143758197      0.0851290164
H       4.1387699612     -3.4464488201      0.0795167828     -0.1040247160     -0.2504728649      0.1348438033      0.0526152447
H       5.1358898136     -3.1932127073     -1.3521905711      0.0833183530     -0.2129862395     -0.1990218151      0.0633967863
H      -3.7160456954     -3.6045581348      0.9149999550      0.1253676877     -0.1518970771      0.2183975035      0.0820927154
H      -4.7368116539     -2.1591532581      0.9352562547     -0.0988744281      0.1623498093      0.2253601417      0.0811862011
H       6.6920301039     -2.2507463555      0.0041513078      0.2744098493     -0.0239081133     -0.0669604240      0.0635055073
H       5.6176923487     -0.8577558306      0.1434585061      0.0059668605      0.2677584992     -0.1033277651      0.1482596195
H      -5.9044006372     -4.0558065527     -0.1611151927     -0.3036946668     -0.2169019005      0.0542813310      0.0329398860
H      -4.6001209469     -4.1960890375     -1.3508003167      0.1167110332     -0.2224402958     -0.2247131969      0.0294342397
H      -5.6247818898     -2.7516376606     -1.3262242117     -0.1732538753      0.1882492899     -0.2211120238      0.0287104706
H       4.5646664375     -1.9148286761      2.1799373385     -0.3025823711      0.0773992478      0.1478557558      0.0247597516
H       5.6918345024     -3.2716382920      2.0307609198      0.0109965768     -0.3276973788      0.1204885242      0.0092696816
H       6.3019968793     -1.6444494582      2.3701094915      0.1944111692      0.1499911590      0.2903824657      0.0270744301
C       5.7311934711      3.1272867934     -1.0820244102     -0.4547822480     -0.2865225432      0.0631308722     -0.0775297561
C       4.4548633206      2.3840642218     -0.6320258471      1.0929491724      0.4889416389     -0.4394880153      0.9363849300
O       3.3830671942      3.0325845020     -0.6657498364     -1.1106217525      0.7773050132     -0.1274305159     -0.8598488346
O       4.5869767483      1.1986935898     -0.2573792686      0.2731725742     -1.0633517529      0.3836195189     -0.8593235158
H       5.4871211736      3.8540103339     -1.8545370304     -0.0354081117      0.2855218810     -0.2007434261      0.0223839629
H       6.1406320401      3.6534800270     -0.2199341057      0.1905531705      0.2062938381      0.2419016075      0.0296026240
H       6.4700820292      2.4170119094     -1.4478977528      0.2845478685     -0.1918672445     -0.0705686817      0.0259417453
