61
Properties=species:S:1:pos:R:3:forces:R:3:charge:R:1 energy=-337.5540456481397 homo_lumo=3.4990077228139485 dipole="0.06547644652671211 1.271502204363446 -1.491188325526507" free_energy=-337.5540456481397
N      -0.4798746603      1.6979848084     -0.2600873579      0.0021169625      0.0017278040      0.0044810733     -0.4786935418
C      -1.1401269592      2.8884769262     -0.9246838849     -0.0101359811      0.0060956864     -0.0005315329      0.0017396619
C      -0.0968510913      2.0825248804      1.1678147530     -0.0101658256      0.0023146457      0.0098857064     -0.0765073193
C      -1.4763203939      0.5249320168     -0.2783196962     -0.0093495161     -0.0009193868      0.0112265834     -0.0589990883
C       0.7768987840      1.3855900565     -1.0621131582      0.0022686126      0.0023419326     -0.0095191808     -0.0081679581
C      -2.3588834110      3.3905434405     -0.1710222595     -0.0089937571      0.0079159558      0.0080077639     -0.1560153301
C      -1.2578009894      2.6667219950      1.9543869023      0.0089266015      0.0091941790      0.0013713112     -0.1711537949
C      -1.9627454485      3.8159073757      1.2414131319     -0.0037702060     -0.0136822519      0.0094106564     -0.1561742403
C      -0.8987897220     -0.8763806546     -0.3325592951      0.0195964379     -0.0116855488      0.0001261878     -0.2428042118
C       1.8812311651      0.6500080772     -0.3084988252      0.0119537353      0.0025226936      0.0105783153     -0.2389602464
C      -2.0413598960     -1.8833532491     -0.1733059324     -0.0164047649      0.0057739708      0.0034598595     -0.1612354371
C       2.8033226862     -0.0937433464     -1.2732555354     -0.0074632173     -0.0102005483     -0.0131663734     -0.1640233802
C      -1.5284058651     -3.3198508175     -0.1170622456      0.0170195628      0.0015156968     -0.0017535394     -0.1748026897
C       3.9412893572     -0.8018143422     -0.5397367180     -0.0040624221      0.0038518459      0.0092213116     -0.1679690596
C      -2.6347226639     -4.3336274229      0.1654974022     -0.0039218661      0.0053356209      0.0002268000     -0.2057833634
C       4.8653582361     -1.5790809440     -1.4737094493     -0.0074293410      0.0025712687     -0.0060660465     -0.2024840102
C      -2.1247687868     -5.7713400005      0.2127724014      0.0088349977      0.0074854330     -0.0017171057     -0.0639496940
C       5.9915053674     -2.2966528601     -0.7332463749     -0.0066489474      0.0063289883      0.0025377287     -0.0652600700
H      -0.3759328335      3.6827739145     -0.9550959630      0.0037131110     -0.0089475477     -0.0066493407      0.1229436474
H      -1.3764293833      2.5857145829     -1.9570400242      0.0150211680      0.0009456920     -0.0063894424      0.1075739881
H       0.2590754562      1.1522319529      1.6650484988      0.0093675873     -0.0057017098     -0.0126670274      0.2580518232
H       0.7205907360      2.8142060619      1.0525787385      0.0025247897     -0.0015624210      0.0066352004      0.0907507110
H      -2.0415446290      0.5940513313      0.6620081221      0.0088960653      0.0046112633     -0.0050256126      0.2224490478
H      -2.1351840683      0.7098120505     -1.1423384856      0.0013604726     -0.0081554597     -0.0026910442      0.0883099030
H       0.4367776959      0.8156584882     -1.9399305391      0.0036624570     -0.0092319537      0.0035393566      0.1223204730
H       1.1506318389      2.3561398753     -1.4244160930      0.0097814250     -0.0038341511     -0.0028403503      0.1148443278
H      -2.7728042506      4.2391177856     -0.7409238077     -0.0107000230     -0.0030722693     -0.0128152540      0.0931442715
H      -3.1409712474      2.6142278876     -0.1365690668     -0.0037197046     -0.0032757446      0.0027345860      0.1068830194
H      -1.9474419746      1.8457493330      2.2147434280      0.0000339818      0.0032223541      0.0071390530      0.1441935699
H      -0.8353558736      3.0045361014      2.9154474027      0.0062189691     -0.0114596363      0.0147004297      0.0997845019
H      -2.8533025534      4.1311301130      1.8081571603      0.0020482729      0.0114521898      0.0069975973      0.0795902933
H      -1.2914333836      4.6937489584      1.1758566279     -0.0060627361     -0.0057992721     -0.0018503430      0.0700953716
H      -0.3584762468     -1.0714467278     -1.2756178858      0.0017874538      0.0116939324     -0.0015503909      0.0749152391
H      -0.2143847003     -1.0108279109      0.5186736264      0.0078084543      0.0014039107      0.0015929581      0.2190582415
H       1.4693193724     -0.0545860366      0.4284050834     -0.0046792356     -0.0009046766      0.0022188935      0.2160437539
H       2.4756924432      1.3758313518      0.2721177905     -0.0146746447     -0.0032780072      0.0044673602      0.0956156173
H      -2.7745251737     -1.7819624624     -0.9971159397      0.0038408545      0.0044058273     -0.0110797712      0.0482236712
H      -2.5596569245     -1.6522030625      0.7735433490     -0.0050578275      0.0019472524      0.0035863717      0.1333459481
H       3.2250928936      0.6012655153     -2.0249812358     -0.0028943829      0.0097186475      0.0027580571      0.0632742184
H       2.2133284937     -0.8428013821     -1.8342314007     -0.0060525712     -0.0048708921      0.0050142242      0.0930908729
H      -1.0245221000     -3.5781837659     -1.0686475725      0.0052681067     -0.0071945581     -0.0031357270      0.0644775297
H      -0.7593407337     -3.3891720745      0.6744760083     -0.0029133751     -0.0009211728      0.0066118453      0.1192640567
H       4.5323207181     -0.0564637519      0.0248152738      0.0030545686      0.0035588976     -0.0047148127      0.0849480487
H       3.5099035252     -1.4851692381      0.2148054111     -0.0002506842     -0.0038589782     -0.0040217319      0.1077503610
H      -3.1130384307     -4.0761204961      1.1277520902     -0.0040023480      0.0018760722     -0.0004858284      0.0962180495
H      -3.4201201240     -4.2418093748     -0.6077175630     -0.0004876643     -0.0031089361     -0.0012376066      0.0735095265
H       4.2679143481     -2.3160250290     -2.0410692067     -0.0023415919     -0.0046873513     -0.0053138908      0.0821906394
H       5.2942429476     -0.8855155940     -2.2207762287      0.0018515121     -0.0025398911     -0.0035579763      0.0773784877
H      -2.9393530303     -6.4819045880      0.4207331464      0.0001326413     -0.0081363312      0.0001634951      0.0311967207
H      -1.3629677512     -5.8904542775      1.0001854705      0.0006219711     -0.0000207742     -0.0025575863      0.0366251473
H      -1.6620065636     -6.0570245993     -0.7462294553     -0.0002234881     -0.0037801026      0.0057176651      0.0255909887
H       6.6189259185     -1.5791309663     -0.1801977668     -0.0003818461     -0.0001671007     -0.0011974671      0.0330622962
H       5.5852563323     -3.0159446009     -0.0038552302     -0.0008333393      0.0042713961      0.0002794101      0.0387392999
H       6.6411244754     -2.8493128569     -1.4287526905      0.0091407943     -0.0028097458      0.0023229406      0.0342307722
C      -0.5941407936     -1.9541080045      4.0710474782     -0.0017461082      0.0006205610     -0.0099372050     -0.0934017219
C      -0.5950699475     -0.8668512895      2.9875019753     -0.0011889204      0.0048116813     -0.0039016276      0.9043611816
O      -1.7134294393     -0.3581777333      2.6802871591     -0.0145085530      0.0050957063     -0.0043004175     -0.8396266453
O       0.5365947056     -0.5974001221      2.4618297296      0.0169308896      0.0028187827      0.0047728241     -0.8491628893
H      -1.4538588425     -1.8400497757      4.7454459172     -0.0050362122      0.0031695705     -0.0001753013      0.0282313070
H      -0.6755297664     -2.9390746530      3.5822899002     -0.0048133868     -0.0019424468     -0.0114267686      0.0408287697
H       0.3477509055     -1.9440966876      4.6371713577     -0.0028679685      0.0051494069      0.0004907368      0.0303293365
