61
Properties=species:S:1:pos:R:3:forces:R:3:charge:R:1 energy=-337.5182303565679 homo_lumo=3.2691280058930743 dipole="-0.2110832581598118 0.5661035872414109 1.956828662370209" free_energy=-337.5182303565679
N      -0.6243032786      1.6551539114     -0.2483421271      0.0009625591     -0.0057256731      0.0099242660     -0.4856716028
C      -1.5684591549      2.0636541562     -1.3765949288      0.0048392039     -0.0018271326     -0.0093135441     -0.0556262133
C      -0.2915792705      2.8707023421      0.5845984701     -0.0037408281      0.0067637277      0.0059255228     -0.0053214382
C      -1.2619280919      0.5886224863      0.6237897111     -0.0039210039      0.0004343418      0.0123623600     -0.0335057575
C       0.6400751679      1.1192248219     -0.9030091556     -0.0003218513      0.0002024750     -0.0199225950     -0.0820977296
C      -2.8051875601      2.7866921666     -0.8830035267     -0.0082473954      0.0066872771      0.0062585466     -0.1722967693
C      -1.5216434399      3.5979177384      1.1079933875     -0.0102196468      0.0048217030     -0.0013680833     -0.1583738092
C      -2.4466514974      4.0074831901     -0.0369111526     -0.0005801742      0.0008413752     -0.0045785418     -0.1613445854
C      -1.4015647741     -0.7713123732     -0.0424574389      0.0016635267     -0.0135135688     -0.0106973580     -0.2341479657
C       1.7239880186      0.6627803962      0.0519275181      0.0150626662     -0.0052606257      0.0192001202     -0.2129436696
C      -2.3984111324     -1.6438655104      0.7200308290     -0.0155543705      0.0026021227      0.0186739760     -0.1614041429
C       2.8640791130      0.0363900671     -0.7577600158      0.0040638097     -0.0054046293     -0.0150338534     -0.1617001796
C      -2.5535032671     -3.0299987774      0.0967057546      0.0106620667     -0.0006194969     -0.0101209950     -0.1662911924
C       4.0151095817     -0.4496366987      0.1178463618     -0.0026714881      0.0011560349      0.0176577700     -0.1635522342
C      -3.5561185656     -3.9129799316      0.8372869744     -0.0042102868      0.0060806070      0.0071324053     -0.2026966265
C       5.1547520323     -1.0810575838     -0.6795370376     -0.0050001996      0.0019379994     -0.0092735909     -0.2040939250
C      -3.7064008185     -5.2946993471      0.2054461327      0.0084829590      0.0045450896     -0.0092064735     -0.0654065721
C       6.2968706315     -1.5674560630      0.2084089347     -0.0055549710      0.0031703054      0.0091677435     -0.0646000897
H      -0.9623223021      2.6823658494     -2.0582481106      0.0001456057     -0.0099721194      0.0070557713      0.1563444907
H      -1.7630327637      1.1452335609     -1.9573642146      0.0161285564      0.0030346882     -0.0106347241      0.2189041927
H       0.3595861474      2.5383682237      1.4045259995      0.0042217932     -0.0046247114     -0.0017124939      0.1280972742
H       0.2887698750      3.5308357194     -0.0801573003      0.0006181020     -0.0084996597     -0.0068474332      0.1321516792
H      -0.6524519459      0.5278372772      1.5391342026     -0.0079944775     -0.0030475933     -0.0012018314      0.1084323995
H      -2.2497293869      0.9713685161      0.9117866930      0.0092304184     -0.0055669642     -0.0046724486      0.1673493934
H       0.2883437725      0.3181831517     -1.5804267459      0.0026849424      0.0208286365     -0.0133735016      0.2578585904
H       0.9859918290      1.9130614622     -1.5823545984     -0.0030694451     -0.0016411018      0.0148307185      0.1490026416
H      -3.3695283111      3.0891369777     -1.7805737382     -0.0080997800     -0.0096343074     -0.0053684442      0.1074702304
H      -3.4716565777      2.1101883646     -0.3184907326      0.0032313077      0.0051033743     -0.0016314506      0.0815469721
H      -2.0617624752      2.9674805693      1.8354972092      0.0046985570      0.0104764695     -0.0010949677      0.0918991842
H      -1.1691486909      4.4826525518      1.6639634406      0.0061470874     -0.0027992731      0.0108412241      0.1002800129
H      -3.3519923015      4.4980143240      0.3552562622     -0.0028580829      0.0037968196      0.0039649818      0.0762840494
H      -1.9242547672      4.7443324855     -0.6747158316     -0.0154206553      0.0046092538      0.0064840230      0.0914828395
H      -1.7113270929     -0.6641998753     -1.0952306416      0.0119046834     -0.0067187555      0.0117653208      0.1836284825
H      -0.4232444274     -1.2794566475     -0.0771188384     -0.0149238788      0.0005723916      0.0088089607      0.1196285455
H       1.3433358680     -0.0910745419      0.7643978181      0.0079496960      0.0032653721     -0.0089779304      0.0940938729
H       2.1288625433      1.4998494427      0.6492119699     -0.0006146961     -0.0133697325     -0.0079875494      0.0796853059
H      -3.3849950203     -1.1420157106      0.7359387705      0.0038999442     -0.0095468626      0.0028251750      0.0782286586
H      -2.0835270621     -1.7504263668      1.7762832779     -0.0117520238     -0.0030058340      0.0002985628      0.0684586225
H       3.2382070563      0.7748837959     -1.4906536908     -0.0043733764     -0.0137362295      0.0086785067      0.0997007050
H       2.4619179695     -0.8049340639     -1.3505975356      0.0085538889      0.0095487725      0.0042428600      0.1105206267
H      -2.8637710329     -2.9185161892     -0.9587205681      0.0092905743      0.0032040086      0.0096829481      0.1039817523
H      -1.5688912926     -3.5342612477      0.0746924717     -0.0065662042      0.0101811900      0.0034575886      0.0881466596
H       4.4119575706      0.3978141669      0.7095501234     -0.0049371349     -0.0086799470     -0.0018609094      0.0783718681
H       3.6327657482     -1.1875406401      0.8499242080      0.0027864504      0.0069244521     -0.0036491593      0.0795359727
H      -3.2393148284     -4.0200720996      1.8915327316     -0.0034093300      0.0055081091     -0.0056775094      0.0784837464
H      -4.5394347202     -3.4071759955      0.8584170278      0.0092496501      0.0030454722     -0.0001548335      0.0810699294
H       4.7582492245     -1.9254091858     -1.2722336345     -0.0037695441      0.0084540058      0.0017522411      0.0889647749
H       5.5383375380     -0.3446739235     -1.4095066781     -0.0084766643     -0.0015488125      0.0037734838      0.0875094575
H      -4.4340306974     -5.9113653760      0.7543839327     -0.0069605129     -0.0079504418     -0.0009018599      0.0344369003
H      -2.7439425445     -5.8314365770      0.1991491617     -0.0047891369      0.0018664075     -0.0008856538      0.0340560806
H      -4.0491946550     -5.2136772236     -0.8386285252      0.0031492253      0.0019473565      0.0022395254      0.0384017801
H       6.7273401754     -0.7348996081      0.7884059903      0.0007489938     -0.0033807377     -0.0008866972      0.0310130062
H       5.9418180574     -2.3256107011      0.9257574063      0.0029960087      0.0000738587     -0.0027004612      0.0315956242
H       7.1052617338     -2.0183967144     -0.3862072307      0.0107465421     -0.0050116298     -0.0039362935      0.0377734976
C      -0.2439936966     -0.0539399555     -5.4584001806      0.0027866439      0.0038666449     -0.0072707169     -0.0919898835
C      -0.3291245840      0.4906944104     -4.0251203795     -0.0020615350      0.0091115745      0.0111746904      0.8889135465
O       0.1397422777      1.6481943856     -3.8325780220     -0.0006878497      0.0108901390     -0.0153901059     -0.8269682159
O      -0.8657121867     -0.2779712796     -3.1508994337      0.0012725684     -0.0074828732     -0.0071227239     -0.8611354546
H      -0.7631686734      0.6357418012     -6.1410012432     -0.0015284310      0.0027748366     -0.0131472554      0.0344549452
H       0.8099500217     -0.0817243936     -5.7749400938      0.0086802664     -0.0027838325     -0.0051435925      0.0334318642
H      -0.6816433754     -1.0577607146     -5.5420640176     -0.0045433230     -0.0069743473      0.0035662892      0.0199778815
