61
Properties=species:S:1:pos:R:3:forces:R:3:charge:R:1 energy=-334.88963472379925 homo_lumo=0.0030815823368599256 dipole="-6.113666847455079 -1.3133863339198315 -0.45730068382770817" free_energy=-334.88963472379925
N      -0.5262435980      1.7822111701     -0.2011236665      0.1890436841      0.1924090060     -0.2471071675     -0.5197918112
C      -1.3908325522      2.3179835749     -1.3031803403     -1.2348326202      0.7349631430     -1.0583553427     -0.0240391914
C      -0.2061215568      2.9016918556      0.7452045811      0.0393680949      1.3468348553      1.2977942277     -0.0376397149
C      -1.2019163939      0.6673053869      0.5514628016     -0.6228182711     -1.3643004545      0.3960627955     -0.0501110856
C       0.7511846233      1.3202674479     -0.8464684010      1.6422487772     -0.7992996299     -0.2731009356     -0.0494828029
C      -2.6712074284      3.0161309747     -0.8150124923      0.0955049618      0.0055702713      0.0534980897     -0.1664820859
C      -1.4460701678      3.6449221895      1.2827736266     -0.0891708434     -0.0786569202     -0.1410884182     -0.1648711667
C      -2.3274586157      4.1500471443      0.1450473043     -0.2438378377      0.1427425368      0.1444507805     -0.1620877886
C      -1.5108915532     -0.6100571226     -0.2681538610      0.2143512403      0.3731591675      0.1186325931     -0.2159651294
C       1.7784931529      0.6449524520      0.0961482995     -0.3739558038      0.1682250865     -0.1394713708     -0.2227688316
C      -2.1870592960     -1.6667973673      0.6162777117      0.1036341370      0.1516637850     -0.1106738047     -0.1624990788
C       3.0520056122      0.2691868154     -0.6734592838     -0.1165676185      0.1237663982      0.0337902099     -0.1683673419
C      -2.4823310719     -2.9468502511     -0.1750973973     -0.0666973181      0.1087881217      0.3933491888     -0.1694372927
C       4.0594579733     -0.4416147068      0.2384047421      0.0608107850      0.1096992784     -0.2997699259     -0.1688794125
C      -3.1833909031     -3.9878848834      0.7054489812      0.0335584193     -0.0888712005     -0.2175795018     -0.2081876695
C       5.3348444965     -0.8087320519     -0.5288450270      0.0745893741      0.0439864517      0.0833450695     -0.2061262386
C      -3.4612082299     -5.2711862130     -0.0719839584     -0.1157427934     -0.2056379413      0.1202904181     -0.0855182036
C       6.3246020168     -1.5447170160      0.3693450661      0.1752787193     -0.0717801191     -0.0297266997     -0.1013331264
H      -0.8239003723      3.0689620576     -1.9023704369      0.2242803118     -0.3299675565      0.5060929800      0.1458652151
H      -1.6697763429      1.5247428059     -2.0270329489      0.3361152077     -0.1475765683      0.4391212242      0.1394919913
H       0.3523670588      2.5291405184      1.6304833816     -0.0352830839     -0.2784548732     -0.5469309346      0.1577931771
H       0.4461995331      3.6573662914      0.2494418982     -0.1984183074     -0.5719428694     -0.1814015932      0.1570620907
H      -0.5900772125      0.3767463719      1.4336114507      0.1634589138      0.3488748949     -0.4478544962      0.1522639250
H      -2.1607289297      1.0087289033      0.9869932916      0.2479559968      0.3520617055     -0.3137231787      0.1691009524
H       0.5315499946      0.6175116135     -1.6811419284     -0.3399707289      0.2413929622      0.3948287405      0.1486874492
H       1.2629969109      2.1842432384     -1.3310498547     -0.4904280194     -0.0084710365      0.3350898350      0.1574569829
H      -3.2054634427      3.4418244237     -1.6918248121      0.1934230410     -0.2910256320      0.0483385665      0.1076501429
H      -3.3658195196      2.2957267989     -0.3361843200      0.1250796326      0.0743912337     -0.0904734723      0.0933607285
H      -2.0349506521      2.9956014946      1.9635427983      0.1438098767      0.0938211934     -0.1142743562      0.0986880070
H      -1.1097037726      4.5157055749      1.8861808251      0.1445952043     -0.3586547604     -0.0753412974      0.1241373892
H      -3.2633066850      4.5797232665      0.5626685641      0.2381048022      0.0206850623     -0.1398532103      0.0927392360
H      -1.7944187649      4.9558201837     -0.4065410385     -0.1459616293     -0.1499010311      0.1106086855      0.0968399942
H      -2.1984054231     -0.3771914635     -1.1060690119      0.1877933094     -0.0008235569      0.0507085967      0.1074429350
H      -0.5797019630     -1.0497070042     -0.6794104137     -0.1822644468      0.1607722409     -0.0038982775      0.1294332941
H       1.3548648715     -0.2824144992      0.5331637628      0.0242336520      0.2134317965      0.0008068143      0.1124864785
H       2.0634432409      1.3308440250      0.9194447499     -0.0905909425     -0.1622827184     -0.1149160351      0.1303838603
H      -3.1398463269     -1.2547508983      1.0167198780      0.2193342582     -0.1126000631      0.0267537654      0.0837748784
H      -1.5208795758     -1.9120023190      1.4729131782     -0.2288440726      0.0727210147     -0.1151126697      0.0963803553
H       3.5170833269      1.1914158152     -1.0870848403     -0.0251997600     -0.2597909127      0.0642433236      0.1260718834
H       2.7863493729     -0.4027906294     -1.5194679770      0.0827282587      0.1728378005      0.0942609228      0.0766348461
H      -3.1335669968     -2.7022857346     -1.0433131691      0.2094302169     -0.0912293197      0.1131367024      0.0884081229
H      -1.5271341451     -3.3702587392     -0.5572248583     -0.2449134499      0.0933567058     -0.0196193211      0.0950918809
H       4.3217990871      0.2262225009      1.0887071692     -0.0033820974     -0.1485191300     -0.2180270628      0.1143021124
H       3.5959113061     -1.3676244605      0.6451408262      0.0602755811      0.1643740067      0.0147273773      0.0626239841
H      -2.5440118639     -4.2304871354      1.5822298645     -0.1867080539      0.1718738381     -0.1174151563      0.0928058717
H      -4.1478178877     -3.5767387364      1.0761379460      0.2763992522     -0.0150075007      0.0342865611      0.0889254678
H       5.0803521938     -1.4614977077     -1.3922398748     -0.0333847715      0.1624945305      0.0889164098      0.0536071648
H       5.8177152559      0.1140057175     -0.9174071637     -0.1730618916     -0.0651212319      0.1685072972      0.1437659739
H      -3.9734371987     -6.0019713275      0.5888105692      0.1369737943      0.0815951943     -0.3172120804      0.0507445194
H      -2.5093934316     -5.7203030368     -0.4277246353     -0.3257004886      0.0612972300      0.0225065913      0.0442918700
H      -4.1165240862     -5.0602675236     -0.9439347367      0.2083852335     -0.1613990037      0.1924462058      0.0410489357
H       6.5872657798     -0.9202370477      1.2495269384     -0.0097227021     -0.1924900768     -0.2671887144      0.0693376297
H       5.8866898583     -2.5033434693      0.7202693997      0.1776627495      0.1805944323      0.0008130097      0.0197653274
H       7.2514706942     -1.7645960897     -0.2013128450     -0.1793901242      0.0113950954      0.2981428158      0.0448098306
C       8.6584932985      1.8274452301      0.9395812709      0.7146750695     -1.0539347524      0.1837621465     -0.2233305541
C       7.6537266467      2.8908466061      0.6263537666      0.5409173503     -0.0315130225      0.2341560049      0.8661075131
O       7.9193967093      4.0620121746      0.8423482744      2.1478327289      3.3224494283      1.2000942037     -0.7618693430
O       6.5678011239      2.5930104459      0.1551764763     -3.8444739308     -2.6041116589     -1.7477412979     -0.8082610175
H       9.5875250301      2.0086385094      0.3594325397     -0.1169859072     -0.0555307930      0.2730679611      0.0218278607
H       8.8958726901      1.8457827413      2.0241212063      0.1101373930     -0.0085169966     -0.2826233114      0.0164395784
H       8.2637158328      0.8242207596      0.6751844881      0.1763174867      0.2051828628      0.0938495183      0.0593994310
