35
Properties=species:S:1:pos:R:3:forces:R:3:charge:R:1 energy=-201.24769235770287 homo_lumo=1.4403255760611318 dipole="-0.33425619466056466 1.4680563743017963 1.9874847302746432" free_energy=-201.24769235770287
N       1.5585877392     -1.4029631466      0.0132532520      0.0003157072      0.0042199813     -0.0090724191     -0.4894488566
C      -0.6716578662     -0.2951667723      0.1267311810      0.0044408815     -0.0061032245     -0.0019058514     -0.1697514254
C      -2.0930724013     -0.2999596665     -0.4360208977      0.0035771097     -0.0012194445      0.0026413463     -0.1780052310
C       0.1672488293     -1.4033576660     -0.4971338379     -0.0017369269     -0.0028231748     -0.0046133409     -0.0370524741
C      -2.9699847195      0.7943847590      0.1711132334      0.0016084655      0.0000723800      0.0026921620     -0.2055993897
C      -4.3887997028      0.7935267005     -0.3905848964     -0.0031043606      0.0044620924      0.0037637658     -0.0684183786
C       1.9715959512     -2.3586047792      0.8703022381     -0.0083388725     -0.0025900607     -0.0052254468      0.3057660275
C       2.4276377939     -0.5077480230     -0.4983459762     -0.0037239684     -0.0055405574     -0.0126301205      0.3015735690
C       3.2817762827     -2.3926332805      1.3080665387     -0.0096876386      0.0162317669     -0.0012163963     -0.0211577398
C       3.7487571616     -0.4938674886     -0.0858672160     -0.0079936774     -0.0022158533      0.0022755512     -0.0097038252
C       4.1846205776     -1.4493266870      0.8232678933     -0.0211876009      0.0032325225      0.0014175619      0.0361844394
H      -0.7001731331     -0.4206889586      1.2243158613      0.0069853118     -0.0096343221      0.0032562623      0.0961949414
H      -0.2030197518      0.6858591398     -0.0711362159      0.0057999741     -0.0015966994      0.0058468432      0.1022888020
H      -2.5589949986     -1.2860970123     -0.2538071237      0.0007418692     -0.0001937921      0.0046958451      0.0979503149
H      -2.0536953015     -0.1738752760     -1.5337738297      0.0034469426      0.0014341579      0.0027023940      0.1035263984
H      -0.2415977772     -2.4022702370     -0.2977783987     -0.0010409062     -0.0020888046     -0.0056940267      0.1330785887
H       0.2581955497     -1.3046926293     -1.5896152061     -0.0131729935     -0.0023593061     -0.0091504979      0.1627146135
H      -2.5006721534      1.7783648531     -0.0113947872      0.0051044305      0.0005466124      0.0045861373      0.0871682682
H      -3.0057483707      0.6640966882      1.2681537875      0.0056347515      0.0000140163      0.0040854847      0.0866071463
H      -4.3831460949      0.9574837723     -1.4800704121     -0.0001618765     -0.0002340147      0.0016089139      0.0401188571
H      -4.9968047453      1.5876998089      0.0680104057     -0.0144739198     -0.0029666734     -0.0081701410      0.0423705788
H      -4.8893449192     -0.1691714737     -0.1989861674     -0.0003000856      0.0007098270     -0.0003558365      0.0385752416
H       1.2252557037     -3.0881980504      1.1728612125     -0.0046716724      0.0046881287     -0.0148638641      0.1004699500
H       2.0261075423      0.1851358185     -1.2319497194      0.0033665551     -0.0141197189     -0.0192019130      0.1074456871
H       3.5934852621     -3.1830649409      1.9893381145     -0.0109630437      0.0022641591      0.0021563650      0.0566244770
H       4.4299733623      0.2368867524     -0.5190052167     -0.0001955934     -0.0053768253     -0.0069510471      0.0564748306
H       5.2314564342     -1.4811448439      1.1291840410     -0.0117197732      0.0096999362      0.0112996056      0.0596178745
S       2.2166332395     -3.3753859722     -2.6905837396      0.0178922252      0.0008218257      0.0184111641      1.7475042797
O       1.6852730447     -3.8602613138     -1.3945940043      0.0092136695      0.0061705817      0.0006397091     -0.8077803935
O       2.2993155105     -1.8941038974     -2.7878703341      0.0095532547      0.0001171857      0.0152692724     -0.8069258918
O       1.7247376650     -4.0601124779     -3.8837519261     -0.0171035509      0.0131497822      0.0062671571     -0.7447085938
C       4.0200930649     -3.8880857644     -2.6056954830     -0.0004007099      0.0045909142      0.0064334760      1.1260408012
F       4.1399729514     -5.2298453187     -2.4384037034      0.0217497113      0.0008941961     -0.0003663712     -0.4419009004
F       4.6578784560     -3.2861641007     -1.5479504587      0.0159194867     -0.0117835035     -0.0071529160     -0.4664018894
F       4.6905400111     -3.5415335136     -3.7330546717      0.0146268245     -0.0024740909      0.0065211716     -0.4414406975
