35
Properties=species:S:1:pos:R:3:forces:R:3:charge:R:1 energy=-200.96446898244133 homo_lumo=1.5529285565081998 dipole="-1.0012818444399076 1.3701626950843422 1.6016011061229196" free_energy=-200.96446898244133
N       2.2430385177     -0.2044968056     -0.2901929540     -0.0862902136      0.1152152661     -0.2187178729     -0.4908602739
C      -0.1941940225     -0.1374419756      0.0209363168     -0.0489929280     -0.1023949626     -0.6809429876     -0.1608299402
C      -1.5421026188     -0.3173303188     -0.6836430908      0.1575426122      0.1696439751      0.8091952135     -0.1688421405
C       0.9515307092     -0.3586382776     -0.9674603687     -0.5951998780      0.1081424631      0.5166508576     -0.0406698745
C      -2.7064480492     -0.1081840355      0.2895998760     -0.0869634267     -0.1513371391     -0.6823846871     -0.1987350694
C      -4.0517993859     -0.2899447427     -0.4105971823      0.3091123217      0.0888813303      0.3614471064     -0.0465990995
C       2.6735782203     -1.2030238460      0.4971773265      0.2272627867     -0.2682152421      0.2210953177      0.2939169888
C       3.0050701282      0.8726792614     -0.5274999040      0.3360004086      0.2246898811      0.1447443347      0.2917142473
C       3.9019149869     -1.1165165715      1.1230005414      0.0278692921      0.1827074029      0.0459908587      0.0069200662
C       4.2366986910      1.0062169479      0.0758565957     -0.0074477903      0.0283345289      0.1552756401     -0.0008849975
C       4.6987920743     -0.0014376240      0.9141386626     -0.2762386330      0.0064559046     -0.0883062117      0.0596867367
H      -0.1082051737     -0.8518536273      0.8454877074      0.0003655093     -0.1665070362      0.2512389889      0.1029970496
H      -0.1213443199      0.8715487762      0.4399645284      0.0176808979      0.2573601526      0.1725015559      0.0915359048
H      -1.5954567780     -1.3243680669     -1.1095809697     -0.0357475724     -0.2645913452     -0.1742193680      0.0984726549
H      -1.6188957258      0.3992630640     -1.5079804521     -0.0522202121      0.1600554263     -0.2666394929      0.0901336222
H       0.9266443624     -1.3693315084     -1.3856489909      0.1260065456     -0.1348296672     -0.1247340046      0.1720749311
H       0.9041760662      0.3645846426     -1.7833830146      0.0517477935      0.0774093180     -0.1244447822      0.1207460058
H      -2.6486724819      0.8996148677      0.7147432909      0.0562817592      0.2388876778      0.1708818627      0.0821440828
H      -2.6239743305     -0.8245338966      1.1139077885      0.0635095218     -0.1427331418      0.2540276848      0.0838384323
H      -4.1599818292      0.4294223860     -1.2232455149     -0.0825374166      0.1946517821     -0.2654608666      0.0313250588
H      -4.8645492372     -0.1375558894      0.2994893427     -0.3430803167      0.0235068298      0.1273347893      0.0347410683
H      -4.1344199515     -1.2958763609     -0.8237071651     -0.0771548076     -0.2974941945     -0.1514356469      0.0337387326
H       2.0190403535     -2.0547822011      0.6210747895     -0.1260493710     -0.0494104584     -0.0157980771      0.1043384494
H       2.6147059502      1.6085399363     -1.2194553579     -0.1088640310      0.0499337169     -0.0890633568      0.0890709586
H       4.2382015341     -1.9387151320      1.7409033334      0.0424004414     -0.2030364721      0.1333061948      0.0487814792
H       4.8410132521      1.8780046337     -0.1371510941      0.1144255076      0.2101880104     -0.0739303743      0.0458180568
H       5.6741840363      0.0748077877      1.3784252807      0.2423897786      0.0085095759      0.1047603570      0.0483000048
S       3.8821103030     -2.1833246086     -2.4176466163      0.1545297330      0.1836561601     -0.0965545481      1.7816517130
O       2.7970175923     -2.6282308612     -1.5391676493     -1.0501750936     -0.5894229548      0.6745573168     -0.8177055315
O       4.5688093068     -3.2322882608     -3.1170569798      0.5934982051     -1.1594685995     -0.9359223951     -0.7557519088
O       4.7141791442     -1.1518392093     -1.8247272042      0.7219342235      0.9476752160      0.3851654258     -0.8010608779
C       2.9462569894     -1.2444142167     -3.7320304104      0.4314658033     -0.4848635525      0.7953967317      1.1413121225
F       2.6965566099      0.0084068928     -3.2915109869     -0.2128206249      1.2929220008      0.1875117793     -0.4804443459
F       1.7604559821     -1.8012994783     -3.9755048698     -1.2270550575     -0.6561457852     -0.3785692441     -0.4533371471
F       3.6058886360     -1.1426100272     -4.8731760227      0.7428142320      0.1016239326     -1.1439580996     -0.4375371596
