43
Properties=species:S:1:pos:R:3:forces:R:3:charge:R:1 energy=-238.30704155833146 homo_lumo=3.1081276641536832 dipole="0.5898054037331272 -1.8659195544966927 0.6103148973420636" free_energy=-238.30704155833146
N       1.4258184515      0.6016816407      0.3276407731      0.0017612987     -0.0068185546      0.0016619515     -0.5094804754
C       1.9840097485     -0.7867355367      0.1575311229      0.0054923053      0.0097714201      0.0012071779      0.0119941903
C       2.3860968303      1.4582327354     -0.4894659228     -0.0035356135      0.0027246947      0.0025160637     -0.0053346960
C       0.0058915754      0.7374685227     -0.1866650449      0.0047848550      0.0045142497     -0.0066291899     -0.0489531370
C       3.5039688188     -0.6171664266      0.2111394075     -0.0126542683     -0.0005339535     -0.0076465605     -0.1421888313
C       3.7620516874      0.8522918936     -0.2179150068      0.0035155934      0.0038202701      0.0004411768     -0.1527497941
C       1.4906488680      1.0556691739      1.7555449131      0.0023250889      0.0209781707     -0.0069226702      0.0588646691
C      -0.9746991611     -0.2563276910      0.4087359173      0.0003812960      0.0019929179      0.0026160313     -0.2010304578
C      -2.3828904716      0.0329468000     -0.1204248722      0.0059015265     -0.0094498216      0.0084714538     -0.1594343106
C      -3.4248638917     -0.9584875866      0.3911153604     -0.0015323638      0.0119828444     -0.0045556234     -0.1626152622
C      -4.8337181713     -0.6505174449     -0.1128491987     -0.0043665053      0.0012259008     -0.0026206702     -0.2033954069
C      -5.8786360998     -1.6377161439      0.3991885914     -0.0024440537     -0.0056975283      0.0072864097     -0.0648236225
H       1.6490171901     -1.1263737103     -0.8340109924      0.0077745451      0.0007506646     -0.0163594694      0.1283159537
H       1.5693188335     -1.4521300336      0.9251183435     -0.0077530677      0.0042815750      0.0142415186      0.1117356618
H       2.2119026127      2.5024545875     -0.1877113744     -0.0090014157     -0.0022375746      0.0063311800      0.2002777028
H       2.0661258436      1.3704417837     -1.5353188966     -0.0002860523     -0.0162441609     -0.0150289183      0.1301436575
H       0.0695560698      0.6409637330     -1.2801516264     -0.0023843914     -0.0108812729     -0.0048053919      0.1199597708
H      -0.2489052758      1.7915554833      0.0195490429      0.0033295453     -0.0097908588     -0.0029649324      0.2477723665
H       3.9882174064     -1.3428232221     -0.4569380771      0.0090700968     -0.0116575799     -0.0087840699      0.0949758101
H       3.8855259921     -0.8072666184      1.2249991456     -0.0030496777     -0.0031579375      0.0068012296      0.0813135079
H       4.2944711145      1.4019740696      0.5727603263     -0.0046049728      0.0035800750     -0.0015990594      0.0787819342
H       4.3802234185      0.9155069623     -1.1240267724      0.0129862623     -0.0036096627     -0.0060308095      0.0990143125
H       0.8573031030      0.4044422771      2.3683700081     -0.0157571287     -0.0039651309     -0.0001481539      0.0638437336
H       2.5292190188      0.9927742331      2.1015483287     -0.0005439428      0.0082925481     -0.0030982708      0.0852592471
H       1.1358062871      2.0996736677      1.7510522505     -0.0072622921      0.0068102188     -0.0019639586      0.1379815701
H      -0.7014000740     -1.2964872014      0.1523730012     -0.0066481199      0.0090066849     -0.0009759516      0.0797965988
H      -0.9955799379     -0.1867471238      1.5103933737     -0.0027072275      0.0105255770     -0.0032183963      0.0968171993
H      -2.3704369901      0.0166053226     -1.2255350603      0.0042262736     -0.0001280398     -0.0009832590      0.0961730307
H      -2.6710949038      1.0595154175      0.1684656508      0.0051503282     -0.0006655059     -0.0008320952      0.1077789251
H      -3.4253644674     -0.9547804584      1.4980364496     -0.0019737655      0.0051071521     -0.0003172355      0.0814621048
H      -3.1432107977     -1.9841148709      0.0839252432      0.0012328669      0.0037577232      0.0002382689      0.0788080762
H      -5.1100291046      0.3749084450      0.1931959695      0.0051844062      0.0020880640      0.0023003155      0.0897093027
H      -4.8316827285     -0.6516116546     -1.2184049118      0.0073208222      0.0002537848      0.0044389241      0.0864919747
H      -5.9186945571     -1.6338231140      1.5008801756      0.0003498401      0.0011449914     -0.0058011838      0.0325214006
H      -6.8825738037     -1.3870956674      0.0246862840     -0.0123557361     -0.0110764920      0.0027329572      0.0385823543
H      -5.6441923876     -2.6654636203      0.0770496251      0.0007720848      0.0025632123     -0.0009113841      0.0308502884
C      -0.1238987563      5.4805024516     -1.0123065473      0.0063092398     -0.0037376011      0.0004093740     -0.0885638454
C       0.3246092507      4.0271449344     -0.7941884788      0.0000812079      0.0077773068     -0.0007070455      0.8679397118
O       0.3940124295      3.2771704388     -1.8053863974      0.0045273720     -0.0108557291      0.0104329363     -0.8157336595
O       0.5719173680      3.6949181849      0.4219666405      0.0048184681     -0.0023018443      0.0120602142     -0.8697147559
H      -1.1863627596      5.5726862821     -0.7337358824      0.0042723231     -0.0031019527      0.0016514242      0.0331738507
H       0.4425959470      6.1661618646     -0.3653241179      0.0000507488     -0.0056738862      0.0042773733      0.0256040553
H      -0.0150679147      5.7678920324     -2.0672927608     -0.0027578005     -0.0013649590      0.0127883188      0.0280752930
