33
Properties=species:S:1:pos:R:3:forces:R:3:charge:R:1 energy=-188.13949971246743 homo_lumo=3.041350405623531 dipole="-1.6719644041141524 1.4555543774454505 -1.3222629099161265" free_energy=-188.13949971246743
N       0.7372516024     -0.8339789436     -0.4346029771      0.0112315186      0.0103442915     -0.0074543303     -0.5025810679
N       2.2677797007      0.6446459747     -0.8503762207     -0.0109736546     -0.0058364379      0.0005519849     -0.4992245348
C      -0.1882366133     -1.6930474915      0.3093263883     -0.0023235711      0.0005075365      0.0075843475     -0.0228011715
C      -1.5942306592     -1.1013078518      0.3699525369      0.0176008572      0.0092506709      0.0095611484     -0.2115349085
C       1.5463467865      0.0756962728      0.1202629431      0.0073192635     -0.0029064900      0.0026769225      0.6050634192
C       0.9614694111     -0.8578873144     -1.7952092127     -0.0026930354      0.0057693998     -0.0102017320      0.2167461372
C       3.4417210278      1.4911386924     -0.6065731401      0.0079150184     -0.0008219240      0.0051370070     -0.0646743370
C       1.9324038544      0.0630669850     -2.0553233823     -0.0071254301      0.0040034159     -0.0093961878      0.2153303259
C      -1.6521283355      0.2350245700      1.1043218304      0.0117953981     -0.0127030712     -0.0091139274     -0.0975481951
C       3.4144695860      2.7554395797     -1.4436384522      0.0120240022      0.0127376164     -0.0098621461     -0.0869842390
H       0.2589448526     -1.8283388793      1.3070423631      0.0094893109     -0.0006918974     -0.0071680150      0.1630897539
H      -0.1790806306     -2.6730843503     -0.1898102196     -0.0002190158     -0.0080057666     -0.0046998610      0.1157236939
H      -1.9893924255     -0.9894185202     -0.6552554180      0.0020192338     -0.0088809272     -0.0060292641      0.0951088860
H      -2.2355707022     -1.8422032099      0.8760575582      0.0019938129     -0.0133452873      0.0125342202      0.1044649670
H       1.6966350626      0.2012933064      1.1865977774      0.0117254342     -0.0085166316     -0.0084361592      0.1210855241
H       0.4344182207     -1.5405965976     -2.4493109099     -0.0042409050      0.0066574663     -0.0107706417      0.0394842330
H       3.4422849376      1.7169195239      0.4684101139     -0.0005292471      0.0025150653     -0.0032812216      0.1322360248
H       4.3215125477      0.8573891029     -0.7993397452     -0.0036574754      0.0008197072      0.0015066288      0.1516611012
H       2.4330844708      0.3209718059     -2.9785808991     -0.0144798178      0.0104926726     -0.0112799682      0.0496964815
H      -1.0521934304      1.0010669124      0.5884087362     -0.0008604174     -0.0034379141     -0.0002704031      0.0637806196
H      -1.2701248206      0.1354511396      2.1326062327      0.0033837772     -0.0043675232      0.0048954153      0.0510862332
H      -2.6847720573      0.6087838289      1.1605880800     -0.0098620769     -0.0117456455     -0.0023970227      0.0576506178
H       3.4584820239      2.5345539401     -2.5202500858      0.0051568050     -0.0005771060     -0.0019116385      0.0505519261
H       4.2893950098      3.3730193682     -1.1955191939      0.0015323768     -0.0010978856     -0.0033103686      0.0681793911
H       2.5041333488      3.3394797578     -1.2427920515      0.0054344641      0.0097773589     -0.0025208633      0.0558341526
S       3.7245926465     -2.0802011033      1.2950146030     -0.0045196449     -0.0021210200      0.0180514118      1.7472996243
O       3.8068204783     -1.5655188683     -0.0887031808     -0.0109275717     -0.0096517397      0.0069715809     -0.8079499196
O       3.9947869860     -3.5046199400      1.4751578871     -0.0036997877     -0.0045183409      0.0236251276     -0.7518288698
O       2.5737052116     -1.5430821620      2.0721495414     -0.0050657264      0.0035316418      0.0229937059     -0.8225215402
C       5.1807406316     -1.2265250728      2.1221116133     -0.0158530528      0.0042765702     -0.0042306222      1.1185297480
F       5.0503085173      0.1421592273      2.0436314041     -0.0060033790      0.0117831554     -0.0017260457     -0.4706463805
F       6.3566024136     -1.5492062582      1.5238487610     -0.0065019362     -0.0013019645     -0.0103298197     -0.4434636387
F       5.2749635177     -1.5481804429      3.4358372205      0.0009144726      0.0080610041      0.0083007374     -0.4408440577
