44
Properties=species:S:1:pos:R:3:forces:R:3:charge:R:1 energy=-237.86430864325428 homo_lumo=1.3965545849690157 dipole="-4.157419292124357 -2.5931212280411797 1.739776457864903" free_energy=-237.86430864325428
N      -1.3854587341      0.1707207969     -0.0620017983     -0.0185328586      0.1014235646      0.0219218057     -0.5249878563
C      -1.6725205024     -1.0202766793     -0.9204060313      0.1030524260     -1.8241211854     -1.4669091860     -0.0029223926
C      -2.4885794534      0.1950963638      0.9466512705     -1.5802904295      0.5888162344      1.6015927902     -0.0020435963
C      -0.0724182561     -0.0022167251      0.6419962932      1.8410917608     -0.1528451992      0.3598237678     -0.0515752071
C      -3.0457264612     -1.5526582307     -0.5558399504     -0.6147494046     -0.0624942539     -0.5921866384     -0.1403660625
C      -3.2254777325     -1.1274282075      0.8738261327     -0.0453964103     -0.5141817134      0.6935232403     -0.1408604182
C      -1.4253126232      1.4130332179     -0.9004894332      0.1254997963      1.8143846652     -0.8227076311     -0.1008870648
C       1.1595941434     -0.0304171840     -0.2940872604     -0.4678894892      0.1742733923      0.0837908538     -0.2420284357
C      -1.1380849385      2.7148191539     -0.1300421454      0.1049037246     -0.3205605164      0.2092595862     -0.1185370005
C       2.4324147031     -0.3858427593      0.4839360458     -0.1357142896     -0.0024087664     -0.1342435521     -0.1677148858
C       3.6606881042     -0.3801552311     -0.4340405124      0.0832485147      0.1524379134      0.0281866866     -0.2374944390
C       4.9290443967     -0.7282131987      0.3395486653      0.1422570881     -0.0683848980     -0.0544497330     -0.0826706024
H      -1.6320878336     -0.7969335059     -2.0110781732      0.2756628460      0.2770623237      0.5899497506      0.1476883016
H      -0.9515559334     -1.8512245646     -0.7440992440      0.0832220184      0.7489319961      0.1745930363      0.1551399255
H      -2.1311432862      0.3741162723      1.9864789108      0.2318193243      0.1107062709     -0.6456659420      0.1416096140
H      -3.2377412738      0.9915940631      0.7310174981      0.6869416098     -0.0759291898     -0.2611267410      0.1495535703
H       0.0787169741      0.8081010497      1.3893561970     -0.3796602694     -0.1015426929     -0.4073479475      0.1605934752
H      -0.0894901387     -0.9485895774      1.2312071449     -0.4301781490      0.2219884448     -0.3233243708      0.1381413094
H      -3.8197236774     -1.0722321880     -1.1947532784      0.1528774950     -0.2676514155      0.1386910482      0.1025499612
H      -3.1047237944     -2.6578565180     -0.6639457282     -0.0254842278      0.4455456395     -0.1997274250      0.1005759165
H      -2.7448496582     -1.8660696620      1.5530831612     -0.2643000829      0.1621813966     -0.1129817171      0.1030590415
H      -4.3004840751     -1.0192424805      1.1370331158      0.4670863876     -0.0627254447      0.1424402115      0.1002030122
H      -2.4273893935      1.5149716919     -1.3775998436      0.1872722551     -0.5286768642      0.3715719510      0.1395884438
H      -0.7050510547      1.3450605796     -1.7447022625     -0.0268984785     -0.3095267987      0.4671390707      0.1914020306
H       1.3027052764      0.9669979679     -0.7517880934      0.0650372936     -0.0757467520     -0.0682498104      0.2175555403
H       1.0204151143     -0.7688013869     -1.1108781652     -0.0160925796      0.1474746642      0.1283625994      0.0991976404
H      -1.7923140494      2.8190811938      0.7592428209      0.1283734280      0.0029645550     -0.2143954356      0.0502145632
H      -0.0772137048      2.7676490234      0.1876976288     -0.2442294492      0.0870681220     -0.1972795476      0.1123689102
H      -1.3284140261      3.5811392024     -0.7981662417      0.1275709653     -0.3667924522      0.1380146674      0.1009705153
H       2.3172349054     -1.3954467572      0.9362019860      0.0337214787      0.1741551305      0.0672093101      0.0650033961
H       2.5814381732      0.3542471576      1.3011394208      0.0060711646     -0.2104627200     -0.1386710403      0.0973642431
H       3.5227136273     -1.1208386694     -1.2516995142     -0.0676576068      0.2119223223      0.1102462020      0.0699434644
H       3.7830626828      0.6255012042     -0.8900877872     -0.1267161668     -0.1730798101      0.0233135192      0.1996970886
H       5.8031336736     -0.6976312530     -0.3446550448     -0.1840585055     -0.0101400882      0.3038123445      0.0564403291
H       5.0948600570      0.0030909861      1.1592418554      0.0315089858     -0.2446852125     -0.2231614286      0.0461763091
H       4.8499393713     -1.7496058207      0.7692114622      0.1195517059      0.2419928288     -0.0092016511      0.0159321886
S       3.4526174749      3.8645044477     -2.1553608695      1.4373007290    -10.3666468914     -0.5582814314      1.5871889367
O       2.1489780274      3.1271125267     -1.8234389292     -0.4006083725      2.7736823555      0.1960067357     -0.8225717156
O       3.8661001357      3.2508323329     -3.5007563786     -0.5396342207      3.2663132430      0.7525729763     -0.7544366144
O       4.4593971083      3.2576943045     -1.1675728039     -0.7382520951      3.1176385792     -0.2340300785     -0.7759403603
C       3.3322221434      5.6736732179     -2.1271439888      0.0813071007      0.8299831608     -0.0501237808      1.1144158592
F       2.9847934478      6.0920176431     -0.8574086144      0.1974829029      0.1027988526     -0.9347214559     -0.4361445190
F       2.3677043889      6.0852751486     -3.0260118964      0.7129224580      0.0953303703      0.7180088878     -0.4340892286
F       4.5504014966      6.2232601262     -2.4752851394     -1.1194403737     -0.1104731610      0.3287555032     -0.4273031870
