44
Properties=species:S:1:pos:R:3:forces:R:3:charge:R:1 energy=-240.77765404616719 homo_lumo=3.956706433471302 dipole="-2.653416394916829 -0.23660358202665838 1.6768193410520802" free_energy=-240.77765404616719
N      -0.3177922762     -0.0881423148     -0.4496617407      0.0021557418      0.0010265095     -0.0033604427     -0.4873492528
C      -0.1991616570     -1.3922516743     -1.2200927055      0.0014049909      0.0113968401     -0.0065899185     -0.0275018750
C      -1.7595785519     -0.0954561922      0.0055897751      0.0043707363      0.0021273184     -0.0003674588      0.0111113705
C       0.6082507694     -0.0637472508      0.7444911699     -0.0043321244     -0.0085807639      0.0131667391     -0.0063807196
C      -1.5147562405     -1.5024379822     -1.9877448143      0.0082893897      0.0182821588      0.0132020845     -0.1449769002
C      -2.5530940463     -0.6997448699     -1.1566524824      0.0079910027     -0.0094084662     -0.0028430947     -0.1597599487
C      -0.0618539791      1.0717861912     -1.4103609921      0.0061606820      0.0134554921      0.0079032450     -0.1194785259
C       2.0771524983     -0.1501041022      0.3939298270      0.0201817316     -0.0033237444     -0.0121928794     -0.2480355557
C       0.0362675768      2.4278673282     -0.7482442541     -0.0145180118     -0.0138370282      0.0143413731     -0.1046727142
C       2.9307359035     -0.2209028591      1.6600347425      0.0048045433      0.0076506335      0.0013954165     -0.1598169377
C       4.4137743837     -0.3695412475      1.3256238072      0.0100379125      0.0002184225      0.0096420063     -0.2114558842
C       5.2926292977     -0.4253432307      2.5701368445     -0.0098693396      0.0038258086      0.0116594911     -0.0621577400
H       0.7001562799     -1.3514316155     -1.8563763362     -0.0096660860     -0.0058569836     -0.0028342312      0.2121559597
H      -0.1037342685     -2.1839063219     -0.4604363829     -0.0006745048      0.0034948990     -0.0070953492      0.1096564046
H      -1.7970689128     -0.7380128574      0.8979307016     -0.0090635951      0.0038035904     -0.0063129960      0.1217663019
H      -2.0534748389      0.9234249980      0.2900495990     -0.0017581465     -0.0139937481     -0.0057781172      0.1323518090
H       0.3756254118      0.8554239626      1.3048509521      0.0014934011     -0.0058625380      0.0023884511      0.1358828113
H       0.3018848527     -0.9216282806      1.3661205400      0.0053362246     -0.0001374727     -0.0038540319      0.1128485729
H      -1.4016003796     -1.0811100970     -2.9968634047     -0.0024108239      0.0046204789      0.0009795590      0.1055018971
H      -1.7985456577     -2.5571115038     -2.1079540394      0.0017135997      0.0018830869      0.0085107490      0.1012582584
H      -3.3592242626     -1.3377867363     -0.7662114918      0.0116308361     -0.0026029748      0.0004767285      0.1011639998
H      -3.0292571460      0.0830800007     -1.7640324860      0.0052576767      0.0004325069     -0.0079412732      0.0884772261
H      -0.8908765890      1.0407626779     -2.1307615631     -0.0055334783      0.0033095634     -0.0060095394      0.1405975544
H       0.8697145917      0.8450163387     -1.9499618779      0.0027881475      0.0041682217      0.0052013802      0.2665680247
H       2.3919090623      0.7118140102     -0.2146780307     -0.0006065198      0.0006257205     -0.0019547845      0.1822807970
H       2.2739224374     -1.0420119292     -0.2230812079      0.0080898202      0.0010206647      0.0017889536      0.1431690760
H      -0.8472233970      2.6951231686     -0.1481867064      0.0031813084      0.0037944380     -0.0012347911      0.0292607382
H       0.9424845313      2.5172968922     -0.1343975213     -0.0003675440     -0.0004312377      0.0104488836      0.0721066245
H       0.1336232960      3.1696515817     -1.5543427186      0.0012185107      0.0132208246     -0.0069468820      0.0896140251
H       2.6064624695     -1.0745828835      2.2864438307      0.0028888379      0.0000381961      0.0063560782      0.0652856807
H       2.7769670432      0.6912488301      2.2686647782      0.0027322064      0.0025142093      0.0026055002      0.0718961805
H       4.5527773246     -1.2794990704      0.7169553322      0.0124436658     -0.0003428362      0.0006865856      0.1093737795
H       4.7212047607      0.4632667525      0.6714654281      0.0136441575      0.0082630114      0.0006257382      0.1213853634
H       6.3518700264     -0.5465198892      2.2993129463      0.0133344890      0.0001376631      0.0111241190      0.0435998194
H       5.2005954196      0.4986499452      3.1648048867      0.0013068298     -0.0061618309      0.0027460862      0.0254489933
H       5.0116868817     -1.2710524039      3.2196821072      0.0031868977      0.0035282487      0.0006564307      0.0229210954
S       3.3287635769      0.2264273341     -2.8964470177     -0.0213623289     -0.0072389133      0.0145747942      1.7335025809
O       2.1856954618     -0.6775373309     -3.1921934848      0.0052565153      0.0035146129     -0.0032286205     -0.8242529586
O       4.4307615945     -0.3819469867     -2.1416665935     -0.0274964227      0.0032353110     -0.0134972604     -0.7752035425
O       2.9036623225      1.5715477118     -2.4419976964     -0.0048418190     -0.0241261803     -0.0156262496     -0.8068779497
C       4.0810330222      0.5539897867     -4.5851472048     -0.0011123873     -0.0012510890     -0.0288158522      1.1224654881
F       3.1563229500      1.0493829677     -5.4558389555     -0.0063413864     -0.0118623571      0.0102492060     -0.4486255328
F       4.5885452963     -0.5870987926     -5.1219954469     -0.0184271977      0.0076291601     -0.0061888800     -0.4426952361
F       5.0918933830      1.4586127992     -4.4936765886     -0.0225181389     -0.0121994267     -0.0080569462     -0.4424091585
