34
Properties=species:S:1:pos:R:3:forces:R:3:charge:R:1 energy=-182.16041461251055 homo_lumo=3.676000107182837 dipole="0.08847563605544001 1.4879788906498297 1.7484143793286668" free_energy=-182.16041461251055
N      -0.0650438737      0.0402950670     -0.0627256381      0.0080073807      0.0114731282      0.0192342653     -0.4846888570
C      -0.9605819274      0.5464199775     -1.1881291066      0.0005378502     -0.0142487377     -0.0163700032     -0.0310359729
C      -0.5767336270     -1.3250499072      0.3876837451     -0.0048397817     -0.0049015836     -0.0111637742     -0.0370262330
C       1.3139106813     -0.1437502942     -0.6792265781      0.0085646537     -0.0066880737     -0.0167313205     -0.0456099352
C      -2.4278334176      0.5883043678     -0.8050136534     -0.0047141506      0.0170859004      0.0112724929     -0.1675166158
C      -2.0476523952     -1.3139968008      0.7677299523     -0.0032575901      0.0065032964      0.0148651471     -0.1553819700
C      -0.0383864555      0.9824707623      1.1147964345     -0.0024058413     -0.0004504456      0.0133830044     -0.0610995561
C      -2.9043962849     -0.8022683733     -0.3880466573      0.0078610931     -0.0089757491     -0.0177243815     -0.1582936066
C       2.4029505691     -0.5944677709      0.2766044503     -0.0078960771     -0.0023119264      0.0241258180     -0.2511825922
C       0.5236001937      2.3592922017      0.8210990627      0.0031305115      0.0073882823     -0.0029517502     -0.0972722705
C       3.6923244836     -0.8348952186     -0.5105675031     -0.0087524503      0.0045054942     -0.0129627246     -0.0625035366
H      -0.8011902371     -0.1939437567     -2.0060311597      0.0034386003     -0.0061786052      0.0083429761      0.1963621544
H      -0.5677531328      1.5274904993     -1.4880662440      0.0069525097      0.0001989505     -0.0049537032      0.1065040647
H       0.0584171912     -1.6361963079      1.2280261385      0.0020149408     -0.0034046115      0.0047212746      0.1050457614
H      -0.4174173228     -1.9805925146     -0.4992407167     -0.0018205835      0.0034168274     -0.0011627210      0.1920072583
H       1.5743532674      0.8188060640     -1.1457096191     -0.0040069974      0.0004559691     -0.0022677600      0.1169978056
H       1.1453851744     -0.8899192030     -1.4885825389     -0.0104008410      0.0012929570      0.0032081809      0.2053875687
H      -2.9778458632      0.9342876203     -1.6961055795      0.0023047146      0.0001446343     -0.0045310437      0.1033956548
H      -2.6274443085      1.3271893227     -0.0063399363     -0.0048021671      0.0058484312     -0.0070510797      0.0694529450
H      -2.2328822717     -0.7234853697      1.6839803590     -0.0074963411     -0.0019039360      0.0074410068      0.0653858972
H      -2.3111439920     -2.3574328120      1.0108642627     -0.0048529251     -0.0006226777      0.0000514996      0.1063103942
H      -1.0698672721      1.0600391312      1.4789509568     -0.0071850496      0.0004875844      0.0020520280      0.1630953499
H       0.5495935807      0.4771419484      1.8948307138      0.0015910948     -0.0020830845      0.0007702984      0.1312917388
H      -3.9684815855     -0.7832245202     -0.1053243289     -0.0181568048      0.0028406546      0.0022806824      0.0657477898
H      -2.7813390071     -1.4865921467     -1.2466971542      0.0044368420     -0.0035677864     -0.0072255190      0.1296985484
H       2.5884090745      0.1526937543      1.0684025425      0.0059854323     -0.0080047218     -0.0045951765      0.0841867896
H       2.1119636902     -1.5350392047      0.7709810172      0.0022529512     -0.0034307782     -0.0061203164      0.1148729331
H       0.4905715552      2.9499140579      1.7485820924     -0.0019545139      0.0010945286      0.0106745099      0.0660246570
H       1.5697551998      2.3201384971      0.4883148595      0.0074131411      0.0054687675      0.0035963855      0.0599373374
H      -0.0677063766      2.8971648913      0.0675103695     -0.0012237749      0.0073061222      0.0020256713      0.0569918586
H       4.5023944680     -1.1596062412      0.1579219360      0.0101645771     -0.0067155212     -0.0007323003      0.0404930799
H       3.5357341694     -1.6122444846     -1.2726063860     -0.0002973134     -0.0043353188     -0.0145912271      0.0652434449
H       4.0209759418      0.0822823705     -1.0232051303      0.0078365174      0.0083645210     -0.0070721516      0.0366038785
Cl     -0.2306158798     -2.2893596129     -2.7601885527      0.0115703922     -0.0060524918      0.0101617115     -0.7294257645
