34
Properties=species:S:1:pos:R:3:forces:R:3:charge:R:1 energy=-181.77853638966053 homo_lumo=3.351124728534881 dipole="-0.93146014364049 -1.8911923664631924 1.3166194258232737" free_energy=-181.77853638966053
N      -0.1100349527      0.0897476235     -0.0178049990      0.0519879623     -0.2910563229     -0.1585098105     -0.5018064994
C      -1.0043231562      0.7501887802     -1.0308672034     -0.8654119219      0.2823334871      0.2192174419     -0.0221514612
C      -0.6492937780     -1.2786733633      0.2764865864     -0.4570152147     -0.1337202399      0.3955337589      0.0037094697
C       1.2419477288     -0.0453159769     -0.6759764976      0.6283682199     -0.3458037236      0.5865906557     -0.0508595171
C      -2.4541071855      0.8298439909     -0.5823477535      0.2121524020     -0.6457148135     -0.0955891885     -0.1611920956
C      -2.1038497492     -1.2670444159      0.7378595521      0.0817659611      0.1028328177     -0.4587325872     -0.1497143324
C      -0.0250312190      0.8758156836      1.2637974499      0.1557827604      0.5721147575      0.1643865051     -0.0770568013
C      -3.0024606995     -0.5638984743     -0.2791866251      0.1847362565      0.2593161722      0.3596696708     -0.1498493196
C       2.3485843443     -0.6099196493      0.2082335844     -0.2014227168      0.0322921552     -0.4027888872     -0.2475314141
C       0.5912245994      2.2603777455      1.1437532201     -0.2666334227     -0.5404659096      0.1937334686     -0.0610783976
C       3.6340247470     -0.6972312077     -0.6162943411     -0.2989582629      0.0130485646      0.2915565137     -0.0403843792
H      -0.9328209225      0.1497906637     -1.9417094852      0.1364515277     -0.1290167834     -0.1998154513      0.1177289997
H      -0.5860705581      1.7402587312     -1.2435513121      0.4456818601      0.2832328806     -0.2688356636      0.1992299936
H      -0.0165491706     -1.7330329471      1.0415215322      0.2064774104     -0.0864186092      0.1006040932      0.1295458841
H      -0.5595079732     -1.8587424463     -0.6461109448      0.0755905514     -0.0727290617     -0.2363611960      0.1215747915
H       1.5116733361      0.9548456764     -1.0401971297     -0.0532552902      0.5073489580     -0.3227344537      0.2256071848
H       1.0960079162     -0.6937886515     -1.5437129906     -0.1315843944     -0.1199778455     -0.2219876252      0.1099251462
H      -3.0222819884      1.2805736412     -1.3998022689     -0.0972969186      0.2500635710     -0.1823109387      0.1019598429
H      -2.5608377791      1.4788345277      0.2905847621     -0.0622576352      0.2508940614      0.1948181042      0.0890764561
H      -2.1927384620     -0.7859504326      1.7155185946     -0.0293068344      0.0578718453      0.2825103625      0.0902933670
H      -2.4167473699     -2.3083699994      0.8538126396     -0.0395884220     -0.2853313092      0.1417725629      0.0973231540
H      -1.0403792492      0.9668150893      1.6529621538     -0.1721232227     -0.0931298904      0.0369164246      0.1554912176
H       0.5494669983      0.2656908901      1.9655573096      0.0627052846     -0.2467276959      0.1003534159      0.1218169200
H      -4.0177256717     -0.4911372806      0.1177542254     -0.3358932082     -0.0651433758      0.0395223240      0.0757406737
H      -3.0383605353     -1.1518240004     -1.2020361641     -0.0348815521     -0.1572440815     -0.2640139041      0.0804723369
H       2.5265061935      0.0396755939      1.0685875771      0.0300848931      0.1701921214      0.2378997679      0.1044847413
H       2.0881185617     -1.6057704320      0.5807384702     -0.0019874037     -0.2727652164      0.1736727138      0.0797751288
H       0.5789932314      2.7069893601      2.1385180538     -0.0205820898      0.1034471933      0.3988903241      0.0317287366
H       1.6187162045      2.2229101099      0.7925731832      0.2558802321      0.1138773223     -0.2129917199      0.0733995486
H       0.0255338006      2.8982334157      0.4703828698     -0.0037677998      0.2449729564     -0.3122516852      0.0796547007
H       4.4413942832     -1.0901937786      0.0006875644      0.2939013566     -0.1309351373      0.1205955522      0.0326589607
H       3.4954732650     -1.3569734025     -1.4732309803      0.0198537489     -0.1877869735     -0.2850066309      0.0291997203
H       3.9179558349      0.2904093320     -0.9787118644      0.0902671468      0.2943638663     -0.1623286208      0.0613448182
Cl      1.1648463195      2.9136397884     -1.9424797384      0.1402787365      0.2657642589     -0.2539852971     -0.7501175756
