48
Properties=species:S:1:pos:R:3:forces:R:3:charge:R:1 energy=-262.53478736330493 homo_lumo=4.949679144028015 dipole="0.5577490976541493 2.746728724675725 -2.476764805054383" free_energy=-262.53478736330493
N      -0.3109548180     -1.0646961524      0.1798063872     -0.0022552968      0.0037421127     -0.0047993703     -0.4888405531
C      -0.4608867912      0.3751543737     -0.2654523751      0.0067169538      0.0038426593     -0.0026921138     -0.0076387553
C      -1.4607851282     -1.8812396197     -0.4065790283      0.0000367487     -0.0102489201      0.0057621488     -0.0500550366
C       1.0027159932     -1.5720781632     -0.3955113552      0.0058606801      0.0047966622     -0.0027559508     -0.0114833490
C      -1.8030731663      0.9776748367      0.1075592736     -0.0006325063      0.0059998332      0.0059285536     -0.1727072372
C      -2.8279929368     -1.2985016419     -0.0897594246     -0.0062614084     -0.0129307668      0.0018009044     -0.1855210454
C      -0.3262976421     -1.1992982488      1.6968971986     -0.0122232155     -0.0070398880      0.0105121217     -0.1464345889
C      -2.9468430626      0.1660575602     -0.4986933117     -0.0102870466      0.0080411442     -0.0037899938     -0.1595634441
C       1.4303889536     -2.9533358496      0.0626707677     -0.0007926109      0.0004281882      0.0020004379     -0.2978224208
C       0.7242777903     -0.3858294313      2.4190727957     -0.0044302833     -0.0073849856      0.0095892806     -0.1183055264
C       2.6424025899     -3.4214382700     -0.7423300549     -0.0028037790      0.0043985667      0.0018260366     -0.0680461432
H      -0.3424771503      0.3562994440     -1.3618400049      0.0006741539      0.0023600030      0.0057626268      0.1304368971
H       0.3831346384      0.9362356637      0.1582556615     -0.0009724879     -0.0077353981      0.0048659768      0.1371685407
H      -1.3710674182     -2.8986916220      0.0006433281      0.0028525399      0.0054849322     -0.0025664874      0.2246340005
H      -1.2786644920     -1.8936600501     -1.4938570798      0.0011323408     -0.0006179517     -0.0040176460      0.1035032467
H       1.7664947685     -0.8225681300     -0.1353322695     -0.0041170165      0.0045855097      0.0006104701      0.1321903270
H       0.8699944082     -1.5434786948     -1.4891455977     -0.0055288140     -0.0019835210     -0.0015399989      0.1276105254
H      -1.8118635523      2.0162271227     -0.2640209229     -0.0002085770     -0.0026612071      0.0056637714      0.1038550414
H      -1.9068587323      1.0359276103      1.2040253483     -0.0046027508      0.0013131668      0.0051732809      0.1132815100
H      -3.0564489631     -1.4441431233      0.9771294994     -0.0018003734     -0.0042403343     -0.0068639109      0.1596509599
H      -3.5626095641     -1.9202646282     -0.6281681258      0.0016909974     -0.0010125991      0.0008050559      0.1130749406
H      -1.3356897585     -0.9349879539      2.0304698360      0.0031750200     -0.0058341964     -0.0040999071      0.1868712266
H      -0.2078003015     -2.2697993467      1.8961880300      0.0024020113      0.0009301471     -0.0082527839      0.2584272778
H      -3.9175975467      0.5750280073     -0.1771596935     -0.0000964631     -0.0036639604     -0.0104184691      0.0904593488
H      -2.9052830674      0.2547605591     -1.6005999713     -0.0028219623      0.0027334179      0.0014078655      0.0804677995
H       1.6946246679     -2.9337604751      1.1282927721      0.0054335782      0.0083208737     -0.0001448565      0.1658067970
H       0.6109826395     -3.6802403759     -0.0403713856      0.0009399427      0.0058361132      0.0025638876      0.1565584832
H       0.6302352563     -0.6211896114      3.4899261256     -0.0015577297     -0.0017436454     -0.0018420202      0.1033748879
H       1.7487478876     -0.6517270846      2.1221101512      0.0046371853     -0.0038005147      0.0003446584      0.0532153626
H       0.5841366537      0.6985763639      2.3061439277     -0.0053377202      0.0061970763      0.0033177281      0.0465529937
H       2.9623027638     -4.4119088905     -0.3889899815      0.0064041207      0.0003760648      0.0014712642      0.0706818080
H       2.4077824020     -3.5033628427     -1.8152369404     -0.0037532193     -0.0029844079      0.0009826554      0.0312551567
H       3.4941705405     -2.7321292368     -0.6291963443      0.0019473362      0.0043963502     -0.0019682172      0.0315319747
N      -1.3397931705     -4.2406477046      4.0122323764      0.0091946149     -0.0006123637     -0.0060902253     -0.8411818777
S      -2.1099545677     -4.2311330434      2.6168399768      0.0010876131     -0.0038048518      0.0093888814      1.6162607524
S      -0.1942708129     -5.3214052186      4.4073410491     -0.0016459277      0.0130900294     -0.0038076407      1.6169862878
C      -3.3716064693     -5.6459055025      2.6205525515     -0.0187297373     -0.0111546152     -0.0072812831      1.1738026674
C       1.4104023810     -4.6138007863      3.6673152150      0.0036503729     -0.0108779152     -0.0127257476      1.1575483495
O      -2.9556340373     -3.0350140422      2.5991357512     -0.0100207007     -0.0076403490     -0.0105307785     -0.7728315185
O      -1.2833222299     -4.5005202122      1.4259636978     -0.0128092283     -0.0131864093     -0.0106105796     -0.7859481452
O      -0.3162389913     -6.6272286615      3.7745785013      0.0065533339      0.0151867446      0.0164973820     -0.7174235583
O       0.0332175076     -5.1900872254      5.8362605368      0.0021686183      0.0165689997     -0.0086508567     -0.7135729936
F      -4.2843685849     -5.3962327092      1.6411239888      0.0053185349      0.0006990914      0.0166794449     -0.4426990583
F      -4.0168270588     -5.7063486971      3.8049590825      0.0076920978      0.0034519990      0.0037703606     -0.4302877108
F      -2.7958411492     -6.8340115636      2.3693227015      0.0000001188     -0.0033003230     -0.0000485066     -0.4231084878
F       2.4709093727     -5.0246399033      4.3964039237      0.0065692777     -0.0171235717      0.0045065374     -0.4311111710
F       1.4105896921     -3.2446442731      3.6695553204      0.0235948213      0.0168392158     -0.0012283845     -0.4693841793
F       1.5978652827     -5.0226505641      2.3883132871      0.0039558419      0.0019637940     -0.0045056025     -0.4512403622
