39
Properties=species:S:1:pos:R:3:forces:R:3:charge:R:1 energy=-221.874417009129 homo_lumo=4.6382400704036355 dipole="-1.2538848598056676 1.063399373011921 1.7346533679249558" free_energy=-221.874417009129
N      -0.8301781200      1.5462457253     -0.1357486638      0.0073985145      0.0021638730     -0.0016383489     -0.5118984985
N      -2.1570906137     -0.1519784262     -0.3802667704      0.0094012315      0.0007616331      0.0023624545     -0.5172349183
C       1.4975867752      2.2542845818      0.3189669919      0.0073100026      0.0028833609     -0.0001731350     -0.1884435218
C       2.1036519722      0.9121150362     -0.0759928743     -0.0072344435     -0.0129490201     -0.0146606352     -0.2150460455
C       0.2023689237      2.5544268436     -0.4306372632     -0.0052206992      0.0176740407      0.0162031158     -0.0051326732
C       3.4016360368      0.5915337566      0.6559514997      0.0015669298      0.0108892608      0.0061703470     -0.1583359211
C       4.0169822124     -0.7212374470      0.1722851161     -0.0104195174     -0.0017591128     -0.0061768522     -0.2110280938
C      -1.3418948277      0.6897390789     -1.0291092281     -0.0018953226      0.0034496282      0.0031188033      0.5961768784
C      -1.3214930337      1.2392273736      1.1171381761     -0.0050618467      0.0014835821     -0.0056531085      0.1921343230
C      -2.1558768643      0.1699150026      0.9608585431     -0.0017641507     -0.0017744756      0.0046298075      0.2164411818
C      -2.8128598570     -1.3221807215     -0.9956234679      0.0021907930     -0.0125300277     -0.0036032170     -0.0594799198
C       5.3091766336     -1.0754905555      0.9006264511      0.0040244162     -0.0053412759      0.0031195193     -0.0619485477
C      -3.7681444527     -0.9258300555     -2.1064408681      0.0042143680     -0.0014700899      0.0099683921     -0.0981417357
H       2.1988415845      3.0767327727      0.0881233396     -0.0067474969     -0.0060283945      0.0033841568      0.0955807858
H       1.3196091421      2.2993419336      1.4099614510     -0.0011170769      0.0047822795     -0.0020818720      0.0844903675
H       2.2749757959      0.9014910405     -1.1656023121     -0.0014083472      0.0004016117      0.0068712736      0.1492176054
H       1.3771105987      0.1004044056      0.1004538014      0.0046053001      0.0060104911      0.0046957274      0.1501246437
H      -0.2105332429      3.5414990829     -0.1677229871     -0.0007739624     -0.0108950333     -0.0091078121      0.1037956298
H       0.3698527167      2.5078498768     -1.5161584047     -0.0013523079     -0.0037339092     -0.0098347750      0.1429363084
H       3.2154169277      0.5327754938      1.7463339069      0.0054814952      0.0039091722     -0.0000253334      0.0636862923
H       4.1294945103      1.4126899814      0.5072832878     -0.0029913398      0.0007462593      0.0026160223      0.0702298607
H       4.2042137081     -0.6491227999     -0.9139650483     -0.0011126587      0.0018309504      0.0064868624      0.1046888883
H       3.2772577922     -1.5325381473      0.2936256931      0.0011609635      0.0023602405      0.0025189219      0.0999137360
H      -1.0807994606      0.6413877126     -2.0828841169      0.0074809115     -0.0061097529      0.0114365690      0.1644250037
H      -1.0347965723      1.7939249141      2.0010221150     -0.0074390538      0.0042365520     -0.0034135119      0.0440852817
H      -2.7397448540     -0.3865723614      1.6832170810     -0.0012910709      0.0001404182     -0.0016715627      0.0379217117
H      -2.0004115788     -1.9598773509     -1.3769195042     -0.0074065867      0.0050137811     -0.0027748353      0.1800757298
H      -3.3335338372     -1.8388233981     -0.1762678223      0.0104664832     -0.0056533207     -0.0061362457      0.0961509672
H       5.1358548864     -1.1878331487      1.9834597048      0.0018813369      0.0005072204      0.0038154224      0.0244415272
H       6.0677416934     -0.2875675547      0.7634378167      0.0038331086     -0.0020805060      0.0041987921      0.0273230030
H       5.7330127108     -2.0202982226      0.5266637140      0.0049771323      0.0024386131      0.0065881907      0.0375776929
H      -4.5405981446     -0.2312801833     -1.7434895607      0.0069127864      0.0040536953      0.0044121382      0.0408155839
H      -4.2599742775     -1.8323290254     -2.4884811457     -0.0064902242      0.0072551512     -0.0009208939      0.0605785699
H      -3.2147795386     -0.4773803567     -2.9424672633     -0.0024001777      0.0053521722     -0.0035647113      0.0913134557
B       0.4372828516     -1.0163733317     -2.9602172227      0.0011432886     -0.0077116029     -0.0053828297      1.4239651443
F       0.8266204244      0.3738415476     -2.9744698012     -0.0037310680     -0.0051359323     -0.0075830009     -0.5821342517
F       0.4014617359     -1.4584643137     -1.5942595324      0.0062705051     -0.0075186386     -0.0125127247     -0.5815504938
F       1.3061921313     -1.7887917830     -3.7206738197     -0.0120633936     -0.0042946026     -0.0063670904     -0.5271571568
F      -0.9105458032     -1.0731865700     -3.4618573887     -0.0023988223      0.0066417077      0.0006859794     -0.5805583943
