43
Properties=species:S:1:pos:R:3:forces:R:3:charge:R:1 energy=-229.20855206047372 homo_lumo=4.149752949513227 dipole="-1.8958046572124136 -2.186101960350465 4.702317597682434" free_energy=-229.20855206047372
N      -1.3807423804      0.1655748914     -0.0593337802      0.0144478424      0.1283533654      0.0870626831     -0.5240940991
C      -1.6480645987     -1.0316431821     -0.9153216393      0.1334074343     -1.8376945542     -1.5449199129     -0.0123879094
C      -2.4851630111      0.1756954964      0.9486865321     -1.5811558584      0.5443253074      1.6339995605     -0.0048448997
C      -0.0649355300      0.0156979254      0.6439824251      1.6904204250     -0.0391882717      0.3436313975     -0.0433366883
C      -3.0175142898     -1.5776879516     -0.5581984018     -0.6058958083     -0.0527873728     -0.5767048010     -0.1411662478
C      -3.2107521114     -1.1532604195      0.8697826800     -0.0503443813     -0.5057639574      0.6853517785     -0.1410852140
C      -1.4376418480      1.4037687942     -0.9015514085      0.1795364550      1.7707203476     -0.8823267512     -0.1251543061
C       1.1669585417      0.0300815079     -0.2935967655     -0.4311113508      0.0908549377      0.1037740084     -0.2317175265
C      -1.1512195568      2.7095456054     -0.1373003252      0.0592446664     -0.3041895265      0.1513823464     -0.1214594941
C       2.4398703739     -0.3522338860      0.4710708818     -0.1705579936      0.0422775497     -0.1521869844     -0.1692213260
C       3.6653397202     -0.3216345620     -0.4489625111      0.0715547965      0.0063659302      0.1045116845     -0.2167046295
C       4.9340937370     -0.6956909243      0.3108272548      0.1771245989     -0.0242740079     -0.0667016906     -0.0865828659
H      -1.6037082931     -0.8117956141     -2.0063412322      0.2804782567      0.3104888848      0.5566669542      0.1696002003
H      -0.9164593812     -1.8524741424     -0.7333320459      0.0535219265      0.7377554931      0.1834661675      0.1504857761
H      -2.1303870094      0.3514069617      1.9897663554      0.2301296133      0.1188462530     -0.6258739439      0.1370350377
H      -3.2398161944      0.9681653970      0.7377574013      0.6904553371     -0.0712093182     -0.2740734727      0.1524729842
H       0.0669885236      0.8205709189      1.4009632660     -0.3932230560     -0.1151933242     -0.3873861128      0.1556201513
H      -0.0615118624     -0.9375836969      1.2223608950     -0.3851903067      0.2407773837     -0.3439693675      0.1428269094
H      -3.7920466890     -1.1046628816     -1.2015607505      0.1674521122     -0.2696868652      0.1226887531      0.1105471445
H      -3.0657616026     -2.6835477242     -0.6646027636     -0.0239212039      0.4563026510     -0.2114789986      0.1027570867
H      -2.7291391906     -1.8880122205      1.5520820002     -0.2622946978      0.1601079615     -0.1009890474      0.1002785980
H      -4.2888632784     -1.0553411524      1.1239642576      0.4666613866     -0.0464711754      0.1521149117      0.1020824980
H      -2.4435196538      1.4964121413     -1.3717184254      0.2492106235     -0.4911458554      0.3272092306      0.1550408298
H      -0.7222216300      1.3356275636     -1.7490967432     -0.1128587054     -0.2570477299      0.2814525984      0.2374825665
H       1.3091025360      1.0465208729     -0.7163729059     -0.1037584609     -0.2927325891     -0.0540075202      0.1664267492
H       1.0276589448     -0.6778168386     -1.1372375629      0.0078225987      0.2357779727      0.1136430663      0.1372697854
H      -1.7788599508      2.7989324059      0.7720052395      0.1528602569      0.0496194201     -0.1970773445      0.0515546802
H      -0.0826240030      2.7801481120      0.1498175007     -0.3110511530      0.0343606873     -0.0637791380      0.0775846787
H      -1.3752839587      3.5736079822     -0.7979027123      0.0882723398     -0.3785283506      0.1017158894      0.1161190121
H       2.3235162069     -1.3749932046      0.8928843883      0.0590033945      0.2240165225      0.0362523695      0.0822306836
H       2.5914279140      0.3618243242      1.3109198131      0.0017459477     -0.2386393964     -0.0900128424      0.0895128282
H       3.5234828008     -1.0391934249     -1.2866289641     -0.0570040993      0.3066380542      0.1089452555      0.1064651821
H       3.7896817983      0.6976828145     -0.8760871303     -0.1495010996     -0.3028684691     -0.0361663002      0.1187017060
H       5.8028337524     -0.6656882313     -0.3797997202     -0.1565294497     -0.0448097977      0.3103474888      0.0602247251
H       5.1134017352      0.0221465085      1.1395733215      0.0362938170     -0.2706899215     -0.1798190768      0.0397084791
H       4.8458092981     -1.7221716943      0.7269775743      0.1217955022      0.2932174807     -0.0379986902      0.0357469700
P       0.8581302722      2.5087596011     -5.2879560455      0.4141017194      0.3810158198     -1.0671664201      2.1004160282
F       0.8195117917      0.8078288488     -5.0461778695     -0.0833818895      1.2748636892     -0.0370298899     -0.5201681959
F       1.6649330333      2.3753700447     -6.7993706675     -0.7223785057     -0.3016780472      1.5430448128     -0.5018599109
F      -0.6523941492      2.3585413735     -6.0932487568      1.2649975404      0.3838120885      0.8174368196     -0.5083511655
F       0.9078705460      4.2127126332     -5.5037208248     -0.1076768553     -1.5342111371      0.2707863766     -0.5043977326
F       0.0341219810      2.8200230799     -3.8133949119      0.4288240628     -0.6871081345     -0.5355713733     -0.5333395625
F       2.3666998273      2.4998377730     -4.4652394800     -1.3315277785      0.2754200021     -0.5702444741     -0.5123195167
