41
Properties=species:S:1:pos:R:3:forces:R:3:charge:R:1 energy=-223.92966202035387 homo_lumo=4.174378448541195 dipole="-1.845996996365042 1.5035825116604036 1.742860929013196" free_energy=-223.92966202035387
N      -1.2371115407      0.1750673444     -0.2062494098      0.0503126341      0.3785435154      0.1305661437     -0.5218640870
C      -1.3009550593     -1.2950385279     -0.5613941157     -0.3449743555     -0.6210205650      0.0551629127     -0.0278790310
C      -2.4495949776      0.4538148585      0.6356445283     -0.5920381933     -0.2085919004      0.0342107043      0.0289450253
C      -0.0024862457      0.5061411760      0.5888387903      0.5900646951      0.1334270441     -0.3600050105     -0.0006331069
C      -2.6132208232     -1.8294903776      0.0010685694     -0.0051933986      0.2991154791      0.0380040415     -0.1284770795
C      -3.4734374297     -0.5844312505      0.2041533810      0.2596006533      0.0406435331      0.0967237346     -0.1456445996
C      -1.2957734131      0.9993897755     -1.4444046935      0.1022986586      0.1672314816     -0.1169037251      0.0518719509
C       1.2847765925      0.4778647936     -0.2380145715     -0.1786938093     -0.0895854516      0.6532372054     -0.2384804881
C       2.4743199496      0.0121849379      0.6069710831     -0.0064511010      0.2150755553     -0.6970171871     -0.1537527275
C       3.7252604464     -0.1192729870     -0.2680068293     -0.0044170632     -0.1428424451      0.6388343849     -0.2218115314
C       4.9276805549     -0.5830038183      0.5508109307     -0.2564912450      0.1842557245     -0.3283331149     -0.0456240026
H      -0.4295922691     -1.8031518550     -0.1488708182      0.2588875465     -0.0254151356     -0.1534616318      0.1765583148
H      -1.2631768198     -1.3859720698     -1.6467706357      0.1970516840      0.1007754195     -0.1310536270      0.2036861125
H      -2.7656485005      1.4864840736      0.4868526478      0.0027514456      0.2900589809     -0.0015789815      0.1077028650
H      -2.1773415798      0.3063711224      1.6835450341      0.1354365158     -0.0637875203      0.2148912096      0.1248747698
H       0.0408222501     -0.2240854150      1.4012670839     -0.0634912434     -0.2011523919      0.1596623342      0.1147547202
H      -0.1638097967      1.4972484772      1.0226823189     -0.1317953581      0.2264698861      0.1495941936      0.1096501624
H      -2.4455941754     -2.3303719575      0.9579958645      0.0047933340     -0.1530618226      0.2465530298      0.0774291307
H      -3.0712260194     -2.5390894362     -0.6882320846     -0.0766473803     -0.2517018269     -0.1179511011      0.0914886283
H      -3.9575340728     -0.2878436663     -0.7295055013     -0.1687234407      0.0901224016     -0.2266847039      0.0923565548
H      -4.2378126800     -0.7244889496      0.9688047486     -0.2861297503      0.0268047211      0.1429404362      0.0866643526
H      -0.5048719648      0.6805317470     -2.1209714898      0.1889764372     -0.1912381263     -0.1815355758      0.1686600648
H      -2.2614027896      0.8437092608     -1.9207613942     -0.2746193905     -0.0750536092     -0.1155511257      0.0890669615
H      -1.1719751749      2.0483237167     -1.1799913605     -0.0032022137      0.3025267661      0.1478137045      0.0590386354
H       1.1753928096     -0.2129144972     -1.0713587832     -0.0448199609     -0.1521511945     -0.1699350273      0.2473680436
H       1.4804180236      1.4728632331     -0.6475941916      0.0760578007      0.2448016290     -0.1497993044      0.0690937043
H       2.2392506911     -0.9642519982      1.0440496241     -0.0558315994     -0.2715863682      0.0839559813      0.0924585108
H       2.6560901526      0.7156938550      1.4274968100      0.0937402680      0.1745380133      0.2734571936      0.0608638065
H       3.9486529306      0.8466357334     -0.7335256309      0.0264677393      0.2495042558     -0.1674746504      0.0665708638
H       3.5266214341     -0.8417812610     -1.0650512065     -0.0932447137     -0.1158578963     -0.2163385632      0.1609531114
H       5.1550647251      0.1325114383      1.3432005963      0.1156825495      0.1896841428      0.2652101780      0.0129827685
H       5.8010803624     -0.6764040759     -0.0944879141      0.3436449599     -0.0728083826     -0.1107855569      0.0323914188
H       4.7272974627     -1.5538212719      1.0059028678     -0.0211475398     -0.3041831244      0.1419901397      0.0293343238
S       1.2449738837     -2.1847562182     -2.7484441653     -0.0565302677     -0.1962591676      0.0681217572      1.7611552788
O       1.3211575540     -2.4844065253     -1.3229821332      0.0636366883     -0.4865314798      1.1852848651     -0.8200002847
O       2.4914228226     -2.2439787041     -3.4614901469      1.2906491475     -0.2341689388     -0.8910674615     -0.7667017121
O       0.4153676550     -1.0126762719     -3.0412234024     -0.7778966628      0.9196443354     -0.4228036264     -0.8356644802
C       0.1988413812     -3.5676421324     -3.4030776255      0.5556590439      0.8585257309      0.4335771908      1.1472911828
F      -1.0025604233     -3.5059771679     -2.8027879269     -1.3549423996     -0.0883413475      0.5626942717     -0.4727091060
F       0.7198462526     -4.7579253640     -3.1431423540      0.6187516862     -1.2656683794      0.2765151792     -0.4418554468
F       0.0017033402     -3.4677048391     -4.7100144658     -0.1771824009      0.1192584585     -1.4407208171     -0.4421135789
