38
Properties=species:S:1:pos:R:3:forces:R:3:charge:R:1 energy=-210.0055750612555 homo_lumo=2.954555328554876 dipole="0.235807607840951 1.7993515970899083 -4.547371058784504" free_energy=-210.0055750612555
N       0.3677941359     -1.5993820717      0.3177401005     -0.8128279335      0.5393197424      0.8417059908     -0.5068973638
N      -1.7557649114     -0.9451337416      0.2638889463      0.9362702530      0.0181577909      0.8950105387     -0.5105520349
C       1.7654902873     -1.7126622632      0.7282590845      0.9753253995     -0.1729648865      0.2424962746     -0.0308093439
C       2.6506347018     -0.7406161074     -0.0628900152     -0.2875372940      0.2446659674      0.0725500937     -0.1932860645
C      -2.9945909576     -0.2531911732      0.6125708396     -0.8842789202      0.3942283162      0.1529518921     -0.0284237409
C      -0.6103167179     -0.9438298933      0.9716477371      0.2455054524      0.7520487061      1.2349976480      0.5970326693
C       2.2581775860      0.7224091112      0.1905647569      0.0884180661     -0.0759957746     -0.1306623398     -0.2644434013
C      -0.1766551740     -2.0307407672     -0.8378261569     -0.9211362142     -0.3721100999     -1.4510822503      0.2313851270
C      -1.4957898083     -1.6269180814     -0.8701285637      0.5775666569     -0.8449239199     -1.4972930143      0.2268340877
C      -3.2175226176      0.9666905310     -0.2900236514      0.1588318531      0.1703502746     -0.0963493170     -0.2362296941
C       3.2103043879      1.6851751890     -0.5108418118      0.0008319854      0.2488627470     -0.0006796639     -0.0874844876
C      -2.0827697490      1.9844352016     -0.1741668086      0.0588990260      0.0690115792     -0.1033134730     -0.1277700809
H       1.8614116075     -1.5005699914      1.8160050480     -0.3926903027     -0.1667332988     -0.3373654569      0.1646385363
H       2.1138305593     -2.7545424113      0.5598029486     -0.4059094251      0.2295343700      0.1000159355      0.1379569771
H       2.5727702796     -0.9673768798     -1.1486977026      0.1269221780      0.0460361719      0.2085772974      0.1030073500
H       3.7069321110     -0.8980541023      0.2465073734     -0.2895856992     -0.0758345204     -0.0859722874      0.1202017711
H      -2.9620481691      0.0755071477      1.6749605451      0.2468253438     -0.3630430505     -0.3264732911      0.1525408311
H      -3.8489828656     -0.9556165477      0.5052794500      0.4263815810      0.0007195249      0.1027647421      0.1421687687
H      -0.4749394256     -0.4257455826      1.9132493954     -0.0523414842     -0.2299962832      0.2116458533      0.1304479851
H       1.2316618039      0.9071666474     -0.1911986698      0.1400593716     -0.0647285503      0.1918884044      0.1521185728
H       2.2707177060      0.9333321055      1.2820212193     -0.1173500074     -0.1099529231     -0.1962545827      0.1022915627
H       0.3520615195     -2.5725346860     -1.6108944853      0.1884386015     -0.1068612052      0.1233023063      0.0539051947
H      -2.2019341098     -1.7914395726     -1.6734008229     -0.2078199777      0.0241358089      0.1193435802      0.0542428068
H      -3.3125395426      0.6408110740     -1.3482743404     -0.1185613916      0.0614637273      0.2330267434      0.1066704947
H      -4.1704380840      1.4578631361      0.0033740356      0.1575536600     -0.3334799463     -0.0614323272      0.1225311144
H       3.2071037187      1.5022263139     -1.6063771511      0.1049237203      0.1046676390      0.2838408768      0.0425356668
H       4.2424274842      1.5615424866     -0.1187613376     -0.2681457834      0.0892000552     -0.2102308144      0.0512623385
H       2.8831954545      2.7301641529     -0.3250022304      0.2240536640     -0.2525673969     -0.1354953384      0.0572355962
H      -1.1413940146      1.5620849688     -0.5844043210     -0.1752388368      0.2074882043      0.1612051663      0.0878475987
H      -1.9233824475      2.2719960997      0.8869391256      0.0245640729     -0.0128688987     -0.3124667471      0.0564270443
H      -2.3367023019      2.8948687735     -0.7565507470      0.1870875860     -0.2310803489      0.1986020433      0.0670200583
P      -0.8032018252     -2.7399143905      5.3144363441     -0.1226572981     -0.6391706449      1.1121081006      2.1038417309
F      -0.6147256798     -4.4184049422      5.0028956636     -0.1504699721      1.5321463655      0.1784998079     -0.5054363109
F       0.8925764596     -2.5431865866      5.5044109967     -1.4213470542     -0.2448483129     -0.3175193096     -0.5113775000
F      -0.6351994046     -2.4745951097      3.6278147257     -0.0633645264      0.2616616552      0.6171145943     -0.5375490438
F      -0.9903620670     -1.0575564611      5.6070165002      0.1752620548     -1.3512628113     -0.4136418384     -0.5145186193
F      -2.5057839808     -2.8533531322      5.1173299047      1.5113193895      0.0259488312      0.0322009104     -0.5095617676
F      -0.9596701346     -3.1102814760      6.9842522639      0.1362222051      0.6287753950     -1.6376167487     -0.4998044296
