38
Properties=species:S:1:pos:R:3:forces:R:3:charge:R:1 energy=-203.48437821214085 homo_lumo=5.430990964077832 dipole="-2.945105791495124 -0.9744827492783132 1.3464427753756343" free_energy=-203.48437821214085
N       0.5352712539     -0.0094118504      0.0269099931     -0.1479079975     -0.0132134201      0.0873821687     -0.5086764091
C      -0.6727077907     -0.0767575565      0.9235060358     -0.5222725271     -0.2468604344     -0.0853240428     -0.0682983476
C       0.1831143531      0.5499460409     -1.3289248909     -0.1803806778      0.4763816424     -0.1724640847     -0.1171425851
C       1.0724900421     -1.4068590287     -0.1617303805      0.4811816968     -0.2633394831     -0.2425088100     -0.0719534182
C       1.5526327163      0.8919488597      0.6855164087      0.4288680700     -0.1199918981      0.4025875346     -0.1248202425
C      -1.8887531743     -0.7815454817      0.3401654671      0.4166447893      0.2103750990      0.0681535636     -0.0791993048
C      -0.3520421644      1.9720479866     -1.3197030763      0.1662088106     -0.4097224850      0.1969831674     -0.0898885456
C       2.3690971698     -1.5094177526     -0.9511541358     -0.4944781884      0.1650280691      0.2546651335     -0.1176080255
C       2.1740656234      0.3497675568      1.9616138703     -0.4105219484     -0.0220474861     -0.3383095448     -0.0857844936
H      -0.3594888939     -0.5910921152      1.8345180505      0.1405804250     -0.0292250782      0.1511810652      0.1525420580
H      -0.9376000940      0.9503289101      1.1843152013      0.0499417175      0.2138828218      0.0686826623      0.1393537572
H       1.0910773975      0.5225628914     -1.9296552315      0.1271758002     -0.0730504136     -0.1173035080      0.2637819042
H      -0.5434233907     -0.1320954362     -1.7758350742     -0.1004100181     -0.2361469866     -0.0404593803      0.1157218558
H       1.2070820112     -1.8313059571      0.8359478559     -0.0622850337     -0.0314278676      0.2510802639      0.1301666896
H       0.2923776346     -1.9753446319     -0.6731698775     -0.2188620937     -0.0507924758     -0.0399231632      0.1467465000
H       2.3348438539      1.0865342229     -0.0468004986     -0.0308537890      0.1161793193     -0.1237276448      0.2664170830
H       1.0429183946      1.8332742194      0.8985618644     -0.1528590774      0.1723264504     -0.0729226712      0.1354649722
H      -2.6491696946     -0.8160449422      1.1205698159     -0.2562423518     -0.0440342384      0.2088299889      0.0712682187
H      -2.3021798879     -0.2421097243     -0.5097343762     -0.1723760014      0.1444220864     -0.2407244338      0.0559870240
H      -1.6658192516     -1.8034275871      0.0393397174     -0.0109729486     -0.3282504801     -0.0580284427      0.0537323982
H      -0.6610914104      2.2041330727     -2.3389319032     -0.0780921496      0.1030624836     -0.2865225450      0.0737141243
H      -1.2124410531      2.0928694788     -0.6632247571     -0.3528420487      0.0608653329      0.1470196925      0.0348887862
H       0.4243222119      2.6811248304     -1.0384926517      0.1992975058      0.2115616035     -0.0096549869      0.0841930036
H       2.6695189041     -2.5572386381     -0.9399455730      0.1186068574     -0.3154468166     -0.0128197325      0.0516339018
H       2.2408268432     -1.2042862818     -1.9871733085      0.0566565344      0.0543946794     -0.3197101781      0.0867819972
H       3.1680002964     -0.9207687666     -0.5081587036      0.2641222670      0.0882808779      0.0842704713      0.1248348080
H       2.8375094513      1.1269430858      2.3404306762      0.2013019289      0.1742031200      0.1303922901      0.0881169133
H       1.4314137413      0.1242581420      2.7259238643     -0.1790362091     -0.0238182763      0.3098076469      0.0365087826
H       2.7778982437     -0.5351748535      1.7733203044      0.2432040229     -0.2318448569     -0.0074045093      0.0617764881
N       4.6619438782      0.6259378474     -2.2016366297     -0.0570021451     -0.0012062490     -0.0656989366     -0.8703616356
S       3.4496862255      1.5005579364     -2.7150168501      0.1537079712     -0.2085432101     -0.3462970100      1.9686606578
S       5.4776413789      1.1801971741     -0.9517007178      0.1402191068     -0.4845442612     -0.0956354204      1.9191100317
F       4.1116572794      2.5588808442     -3.7296140798      0.3871163321      0.4852194204     -0.4079704415     -0.4531576813
F       4.4558118409      0.7636099445      0.2966159819     -0.2357128909     -0.1014916468      0.4765946509     -0.5030519015
O       2.6352005538      0.6651299573     -3.5508515694     -0.8051858558     -0.8443918762     -0.9518112464     -0.7684312405
O       2.7584228483      2.3185994805     -1.7510560513     -0.3374142619      0.8040591621      0.9065159634     -0.7749160305
O       5.6105969940      2.5898737992     -0.8123227618     -0.0597857016      1.7336685263      0.0534159559     -0.7107388944
O       6.5972824069      0.3299131457     -0.7437020999      1.2906600799     -1.1345207545      0.2376585138     -0.7173731998
