37
Properties=species:S:1:pos:R:3:forces:R:3:charge:R:1 energy=-202.47677637825169 homo_lumo=0.012557283631662485 dipole="0.5029728874605549 5.289366371487349 1.3493172173891415" free_energy=-202.47677637825169
C       2.6791042777      0.3296618040      1.5863171109      0.3015253591      0.2602543435      0.6808095728     -0.1370475127
C       1.6407323102      1.2723692323      0.9968165108      1.6886065634      1.5495323338      0.4003225328      0.0060688790
H       1.3604647078     -0.8735379857     -0.8758427550     -0.4530187897      0.3874903949      0.3560807993      0.1456416399
H       0.3853991265     -1.7000663730      0.3853614759     -0.1322457245      0.4937923525     -0.2397465615      0.1868515269
H       3.1658388305     -1.4341501166      0.4044847719     -0.4231349658     -0.0444379098      0.2195813767      0.1127073992
H       2.1452070342     -1.7503600110      1.8654077538      0.1676220704      0.0965541375     -0.3757554704      0.0997431167
H       2.6047933542      0.3253584048      2.6959806760      0.1749822864      0.0559496228     -0.2925276139      0.0813538411
H       3.7073670247      0.6363182679      1.2934144736     -0.3722465925      0.0696949192      0.2174709084      0.0981652010
H       1.3605924210      2.0641162593      1.7299225083     -0.3232495124     -0.2971779316     -0.4201389428      0.1087200266
H       2.1155395312      1.7876416015      0.1284406365     -0.6295428768     -0.3173354015      0.0039309030      0.1299158715
H      -1.2468796562     -0.4464616322      1.4966826488      0.4063220870      0.2573920340     -0.2030963284      0.1261193351
C      -0.4552050866      0.3022928295      1.7147230579     -0.9839195619     -0.2323134244      0.9972596119      0.0246652206
H       0.0783384398     -0.0545244462      2.6235044328      0.1314180730      0.1410406794     -0.5086637893      0.1211718757
H      -0.9458399901      1.2696549932      1.9629361617      0.3413690697     -0.2294817692     -0.2763093840      0.0854696848
C      -0.1866775703      1.1436017103     -0.5917395045     -1.5019467186      1.0088621074     -1.0745964420     -0.0200632230
H      -0.3187021177      2.2230174754     -0.3460639156      0.2820622579     -0.3862383692      0.3406216785      0.1365586668
H       0.4740066535      1.1259547047     -1.4886913717      0.0902711522     -0.3175123969      0.5714163849      0.1282275854
H      -2.3130923477      0.7232355755     -0.1664969425      0.1622538741      0.0403101810     -0.1794789669      0.1033475894
H      -2.9408642569     -2.1216992120     -2.6558133119     -0.0945628949      0.3089150012      0.1086373041      0.0979043912
C      -1.6127898166     -0.7892407083     -1.5767289753     -0.2346399490      0.0560625127      0.0873782457     -0.2752930779
H      -0.7828397416     -0.9252002594     -2.3036818660     -0.0947141094     -0.0436227490      0.2901042042      0.0996414511
H      -1.5057922249     -1.5249212222     -0.7565182996      0.2164244191     -0.0145343567     -0.2341326185      0.1651810709
C      -2.9370235238     -1.0771375513     -2.2797544250     -0.0831294793     -0.1463853693     -0.1039609196     -0.0937378364
H      -3.0756084221     -0.3899051100     -3.1418517130     -0.0689876390     -0.2006761866      0.2341514433      0.0337731195
N       0.4758485078      0.4600221621      0.5666280175     -0.2813347829      0.3206006387     -0.0890667295     -0.5478983701
C       1.0722967318     -0.8472707767      0.1998674477      0.6423199589     -2.0836764375     -0.8156614732     -0.0381678392
C       2.3366965582     -1.0390530725      1.0317497470      0.2062243166     -0.6989697826      0.2937647049     -0.1334289669
H      -3.7835058518     -0.9521992539     -1.5705442672      0.1627418040     -0.0474128347     -0.2918885227      0.0365399738
C      -1.5908002913      0.6342714682     -1.0048936346      0.4628291168     -0.2914604866      0.0341822617     -0.1823609237
H      -1.9555979106      1.3282201913     -1.7944853252      0.2140738954      0.0055404469      0.2049768318      0.1223861603
C      -0.9085675820     -4.5287578148     -0.7730761592     -0.7031966356      1.4057632366      0.1890255755     -0.2626649993
C      -0.4461638104     -5.9025168684     -1.1417940001      0.1971523484     -0.3801213713     -0.0686423252      0.8870589743
O       0.5397526530     -6.3785862254     -0.6022688267      3.3456722800     -0.0281149171      2.6550056331     -0.7694502370
O      -1.0506521148     -6.5510440481     -1.9810674332     -3.0312583407     -0.7474561366     -2.8679634717     -0.7417379218
H      -1.1813365859     -4.5029842435      0.3029518216      0.1168658608      0.0953937813     -0.1537831583      0.0040961363
H      -0.0933842794     -3.7993338573     -0.9619712790     -0.0976079924     -0.0667481312      0.1319435801      0.0233118857
H      -1.7962032420     -4.2383724532     -1.3750011484      0.1979997723      0.0205272382      0.1787491651      0.0372302855
