46
Properties=species:S:1:pos:R:3:forces:R:3:charge:R:1 energy=-255.2057831188688 homo_lumo=3.688356063099139 dipole="-1.6495270995115472 -0.3876004630301813 -0.8978321825282105" free_energy=-255.2057831188688
N       0.2888940705      0.1962636151     -0.1584031800      0.0062085200      0.0027186226      0.0007539907     -0.4808490425
C      -0.8782543307     -0.0457093764     -1.0788873511      0.0050532437     -0.0226790367     -0.0040057164     -0.0049658390
C      -0.1974369035      0.8717115546      1.1148820910     -0.0043499169     -0.0034938802     -0.0001675599     -0.0558957110
C       1.0017318225     -1.0930716444      0.2291068044     -0.0023325392     -0.0016912602      0.0195350623     -0.0735388215
C       1.3219745768      1.0864907164     -0.8578235320      0.0081287976      0.0035056810     -0.0087371746     -0.0734699844
C      -1.9949007728     -0.8397741134     -0.4171018329     -0.0128038454      0.0092600321      0.0011725983     -0.1671115190
C      -1.2938548570      0.0848491211      1.8099490114     -0.0049394288      0.0033405521      0.0050506399     -0.1602584807
C      -2.4734222885     -0.1715564965      0.8726778870      0.0096484053     -0.0119448167      0.0013357998     -0.1603053787
C       1.5521146326     -1.9065621982     -0.9300775711      0.0126051474      0.0052180186     -0.0213591734     -0.2028931834
C       1.0657027229      2.5814271375     -0.8073864261     -0.0025914253      0.0134656555     -0.0063497543     -0.2428992811
C       2.5937584768     -2.8952166782     -0.3943185644      0.0061632765     -0.0067770992     -0.0025204350     -0.2063599140
C       2.0898028467      3.2771966940     -1.7057007915      0.0050506626      0.0034344347     -0.0033632786     -0.0609204779
C       3.2204028405     -3.7343483387     -1.5032264663     -0.0041922670      0.0026973457      0.0036549258     -0.0658221196
H      -0.4891495688     -0.5587051109     -1.9701938450      0.0065529986      0.0119610805      0.0070127719      0.1266482542
H      -1.2384991902      0.9505351875     -1.3812162226      0.0047393862      0.0086729785      0.0023061905      0.1386366319
H      -0.6068495802      1.8416940771      0.7972928560      0.0028091171      0.0000283566      0.0037116947      0.1312015978
H       0.7194172219      1.0539338082      1.7183360481      0.0168660797      0.0060254294     -0.0132642222      0.2127055699
H       0.3060318679     -1.6916129702      0.8285931215     -0.0057935009     -0.0021337284     -0.0058455261      0.1227646627
H       1.8531748302     -0.7456786024      0.8468608291     -0.0003881039      0.0049156265      0.0084526173      0.2385998226
H       1.3493745784      0.7374546780     -1.9012800023      0.0026185010      0.0027745277     -0.0042083398      0.1040097323
H       2.2833265065      0.8548793224     -0.3554988933      0.0052255166     -0.0002973932      0.0036167865      0.2541575135
H      -1.6541319979     -1.8680908722     -0.2097472996      0.0100843760     -0.0131390134     -0.0052546018      0.1057532859
H      -2.8204328987     -0.9228597272     -1.1430521335     -0.0078296196     -0.0182517733     -0.0131449836      0.0950939087
H      -1.6124494715      0.6845248925      2.6780568712      0.0019799619      0.0016617823      0.0201750990      0.1042787952
H      -0.9096070941     -0.8632525585      2.2197730737      0.0085217400     -0.0031169432      0.0147751296      0.0894480205
H      -2.9533416337      0.7928282317      0.6227868678     -0.0033145406      0.0068633913     -0.0007118116      0.0826262860
H      -3.2374699434     -0.7948179554      1.3637200660     -0.0185301717     -0.0058789829      0.0028247226      0.0789325060
H       2.0625012565     -1.2498014754     -1.6524098205      0.0018533768     -0.0048283434      0.0020171154      0.1237024213
H       0.7575650537     -2.4502129298     -1.4740660229     -0.0064641018      0.0071519351      0.0052643486      0.0686133890
H       0.0453203025      2.8463579366     -1.1389762755     -0.0064127508     -0.0020003727     -0.0041820007      0.0675585643
H       1.2079021941      2.9299009246      0.2271659406     -0.0035206021     -0.0007840274      0.0045492194      0.1402047820
H       2.1275769685     -3.5568787075      0.3579871716     -0.0154860909     -0.0023616709      0.0062875869      0.0709799727
H       3.3695219659     -2.3091565095      0.1272114529      0.0062912647      0.0001513954      0.0065969635      0.1443937435
H       1.9773793570      4.3693519904     -1.6472813785      0.0059347744      0.0058473204      0.0013725298      0.0412001935
H       3.1118009667      3.0214085222     -1.3860341287      0.0026204056      0.0072551359      0.0000329668      0.0643193623
H       1.9737240122      2.9773101498     -2.7594345423      0.0009930929     -0.0020568127     -0.0010572916      0.0226173078
H       3.7017271345     -3.0878294137     -2.2546861943      0.0026433520     -0.0066128833      0.0012040309      0.0344054629
H       2.4662644117     -4.3509142494     -2.0188845722     -0.0003950631     -0.0017040682     -0.0065995700      0.0220610257
H       3.9915858884     -4.4082010048     -1.0998142417     -0.0097544253     -0.0061260816     -0.0063063716      0.0411764652
C       4.7979578267      1.3083453552      2.6673385672     -0.0023772976      0.0050853805      0.0045395266     -0.0944825550
C       3.5452727772      0.9963550251      1.8402688882     -0.0227667176     -0.0020840912     -0.0151073101      0.9095387509
O       3.6585696528      0.1263382691      0.9155033477      0.0033271373      0.0181776377      0.0100418798     -0.8504675630
O       2.4957974978      1.6430194345      2.1409227726      0.0072106073     -0.0083411044     -0.0050362407     -0.8380550008
H       4.5675585294      1.2141581557      3.7392713285     -0.0014312098     -0.0064252884     -0.0012017147      0.0372075301
H       5.6338375153      0.6469547758      2.4026941063     -0.0068443500      0.0034675920     -0.0031838698      0.0273394433
H       5.0930107472      2.3555742006      2.4971985940     -0.0006117727     -0.0009512405     -0.0046772504      0.0381198701
