47
Properties=species:S:1:pos:R:3:forces:R:3:charge:R:1 energy=-254.09033631787585 homo_lumo=0.6987111791183488 dipole="-5.423938133471633 -0.08411447921063055 3.782785371395097" free_energy=-254.09033631787585
N      -1.6307101966     -0.3002249575     -0.1856566828      0.1055475978     -0.3579702458      0.1083639162     -0.5476291631
C      -1.9163351642      1.1131705694      0.2100804233     -0.5303627663      1.7256994957      0.2198494705     -0.0314543335
C      -2.6446495102     -1.2230130124      0.4187460772     -1.5142862606     -0.9647955101      0.5759670886     -0.0255210961
C      -0.2952825572     -0.7195934104      0.3572937311      1.9456968464     -0.0687071963      0.3709154498     -0.0408470193
C      -3.3598807383      1.5550542065     -0.0842113728     -0.0631484206     -0.1485744824      0.0198925435     -0.1704849905
C      -4.1079405723     -0.8200212266      0.1570405762      0.0193926454      0.0474658934     -0.0320757610     -0.1775781616
C      -4.3599671799      0.6207234511      0.5866720788     -0.3153793380      0.1054432393     -0.0793849511     -0.1677891331
C      -1.6323663667     -0.4475599618     -1.6670397140     -0.0400240684     -0.0103626446     -1.4449278411      0.0064985134
C       0.9268442871      0.0687342730     -0.1747833929     -0.4255259122     -0.1212712432     -0.0649744163     -0.2243284605
C       2.2223393449     -0.4499479078      0.4647157155     -0.1341962949      0.0537966430     -0.0046917307     -0.1637385691
C       3.4447852348      0.3110577468     -0.0619460525     -0.0387698572     -0.2813641367      0.0361146175     -0.1891070624
C       4.7417894438     -0.2669612354      0.5167096796      0.0326123093      0.1632502775     -0.0888313565     -0.2033438965
C       5.9665454977      0.4546697397     -0.0380603101      0.2717284749     -0.0603467107     -0.0591616096     -0.0888823791
H      -1.2463772052      1.8196812102     -0.3258157499      0.0788698254     -0.6422165216      0.1300970655      0.1701669813
H      -1.7319425297      1.2528640229      1.3002837465      0.0901898128     -0.4570623051     -0.3714636402      0.1477617631
H      -2.5159702599     -1.2653997104      1.5257412202      0.3558530197      0.2790831762     -0.4535680513      0.1500586020
H      -2.4983018953     -2.2625156886      0.0448876907      0.3594791581      0.5269998026     -0.0192425696      0.1508157512
H      -0.2933002578     -0.6279656699      1.4684766878     -0.4234398908      0.0726629103     -0.4032839387      0.1399444377
H      -0.1216448010     -1.7987123923      0.1360377838     -0.4211050885      0.3691796760     -0.0963904636      0.1520197595
H      -3.5106451146      2.5845053000      0.3069126787      0.2848195206     -0.2281955376     -0.1952667042      0.1270662977
H      -3.5435333921      1.5892051341     -1.1792701588      0.0632005932      0.0510177845      0.2343483512      0.1156377336
H      -4.3795168735     -0.9560751708     -0.9102418522      0.0850035032      0.0006744724      0.1985233512      0.1107184915
H      -4.7753876209     -1.4892073306      0.7422732207      0.3402913033     -0.0219996517     -0.2015256139      0.1273165770
H      -4.2646365765      0.7031120987      1.6919897755     -0.0676903760      0.0054896356     -0.2150558602      0.0971252156
H      -5.3931857431      0.9175958075      0.3058232909      0.2328793408     -0.0649650523      0.2093121150      0.1067848666
H      -1.0006382781      0.3247931878     -2.1548450828     -0.0530365287     -0.3049002022      0.4569573539      0.1393702142
H      -1.2608044930     -1.4516942283     -1.9701586433     -0.0501982426      0.3920490881      0.3860935970      0.1277765239
H      -2.6428022805     -0.3268130771     -2.1027995593      0.1758357037     -0.0334364736      0.4888459075      0.1322747094
H       1.0156023787     -0.0521345752     -1.2744074143      0.0126807787      0.1224159774      0.2280868800      0.1543985668
H       0.8309991579      1.1473116360      0.0657435918     -0.0195654639     -0.1924036165     -0.1324000925      0.1141106397
H       2.1650837767     -0.3289173218      1.5691368603     -0.0060339466     -0.1471063868     -0.1567806782      0.0733864455
H       2.3357210494     -1.5323973629      0.2340143963      0.0145011565      0.2257524406      0.0993723760      0.1004002602
H       3.3603465274      1.3840752538      0.2188421488      0.0153815729     -0.1756351969     -0.1035937084      0.0675366861
H       3.4712905220      0.2406857069     -1.1701814248      0.0955332866      0.0232432720      0.1438295362      0.1826130448
H       4.8185112854     -1.3471143710      0.2635227352     -0.1113490790      0.2295171681      0.0909218997      0.0933481101
H       4.7340690669     -0.1648757329      1.6238159641     -0.0837658489     -0.1440710482     -0.1359032185      0.0613549719
H       6.0298657264      0.3188471801     -1.1382196913     -0.0479536652      0.0859267766      0.2464989250      0.1057879804
H       5.9154923449      1.5394025491      0.1948381685      0.0830231093     -0.2482203098     -0.0978900229      0.0193193214
H       6.8852170764      0.0342243282      0.4227072376     -0.1519716296      0.2125025110     -0.1618367035      0.0259019070
S       4.5280193309     -0.5375323202     -4.7948128750     -4.2391791445      7.9310854971      5.6478813781      1.5714317910
O       3.0124858705     -0.3627190101     -4.9716936813      1.6228982782     -2.2429240585     -1.5269565593     -0.7854144753
O       4.6817899447     -0.7309374448     -3.2805195453      1.1125999134     -2.1121799122     -1.7741325865     -0.8035562709
O       5.0764656218      0.8787403264     -5.0230823380      0.9574737753     -2.8388182927     -1.5490533722     -0.7593624788
C       5.2856943310     -1.8378603432     -5.8032881801      0.3711623399     -0.4562512902     -0.4267736679      1.1112821902
F       5.0914249513     -1.5572525882     -7.1415929024      0.3279323862     -0.5635390764      0.8608046318     -0.4327948513
F       4.7041637444     -3.0528262100     -5.4972968047      0.6082285005      0.5493528103     -0.4890177573     -0.4379423367
F       6.6396250576     -1.8954102474     -5.5356874666     -0.9258329295     -0.2852914455     -0.4684935792     -0.4324336749
