47
Properties=species:S:1:pos:R:3:forces:R:3:charge:R:1 energy=-257.3365915794233 homo_lumo=4.657628985189274 dipole="-0.9871723277315846 1.1457055434833205 -1.8502270317064808" free_energy=-257.3365915794233
N      -0.7582890284     -0.7370610065     -0.3772626826      0.0864177674     -0.0453223614     -0.3109496104     -0.5358003331
C      -0.9696995544      0.0714011736      0.8703070775     -0.4656685504      0.3654703286      0.3038987772     -0.0463388826
C      -1.4517195302     -2.0664865492     -0.2526146431     -0.7114164613     -0.1967743867      0.0600131117     -0.0285292984
C       0.7093516687     -1.0413611223     -0.5801133829      0.5292797583      0.5034978266      0.1061324282     -0.0420502608
C      -2.4394978963      0.2092837996      1.2498552479      0.1682412225     -0.4631031237     -0.0641082560     -0.1480090303
C      -2.9301766885     -1.9402099594      0.0870283593      0.3249371702      0.1884866676      0.2724652254     -0.1598809233
C      -3.1079538389     -1.1562168752      1.3847840953     -0.0153369894      0.1554267071     -0.3082905690     -0.1601619892
C      -1.2590252796      0.0029713539     -1.5642192471     -0.1103046380      0.0621216285      0.0180369554      0.0831248696
C       1.6512867463      0.1439990165     -0.4031589678     -0.0570340956     -0.5613008692     -0.1544362589     -0.2069315352
C       3.0867679362     -0.3352811181     -0.6519085920     -0.2522338076      0.6617260622      0.1609509086     -0.1515759907
C       4.0862783371      0.8086100988     -0.4641217660      0.1926316699     -0.8004059929     -0.2308311813     -0.1571510261
C       5.5238822972      0.3262929924     -0.6812029170     -0.1475630081      0.6942384189      0.1627757353     -0.1977690965
C       6.5265961884      1.4632541525     -0.4924171756     -0.1461326638     -0.4356458210     -0.1090274476     -0.0443999928
H      -0.5371779906      1.0585350542      0.6978141074      0.1892298006      0.1539620234     -0.0964009566      0.1123483862
H      -0.4230224178     -0.4266687710      1.6709840131      0.1504411388     -0.0885039689      0.1220577256      0.2438244825
H      -0.9407250516     -2.6173874039      0.5404150202      0.1963062467     -0.1002187344      0.0946897531      0.2298065014
H      -1.3092292010     -2.5923092274     -1.1997733136      0.1638868773     -0.0987900400     -0.2419229735      0.0987804360
H       0.9781302698     -1.8142905185      0.1403479805     -0.0077397680     -0.1971970989      0.1169609715      0.2380671183
H       0.8004448145     -1.4592757483     -1.5866268532     -0.0624124101     -0.1079192989     -0.2651228968      0.0949110774
H      -2.4716040448      0.7319861907      2.2092524703      0.0341271728      0.2213244099      0.2040266693      0.1026568174
H      -2.9743175463      0.8240870548      0.5182665426     -0.1697715427      0.2238417284     -0.1382190351      0.0700980905
H      -3.4836834446     -1.4652934133     -0.7294173805     -0.2163635703      0.0585397475     -0.2388014824      0.0702498426
H      -3.3202989691     -2.9538865161      0.2089722332     -0.0970974214     -0.2851954549     -0.0682801593      0.1007923083
H      -2.6464245698     -1.7070161435      2.2089080382      0.1320654012     -0.1155642063      0.1731497686      0.1514512283
H      -4.1711029077     -1.0290219779      1.6015544980     -0.2961468917      0.0160670822      0.0938595093      0.0635699889
H      -0.7013188544      0.9319847799     -1.6628005123      0.1603959619      0.2233216120     -0.0013534266      0.0922722139
H      -1.1135447455     -0.6113248966     -2.4511018403      0.0471577957     -0.1954028521     -0.2162437198      0.0677448062
H      -2.3158851517      0.2261369680     -1.4444902944     -0.2339652254      0.0564948720      0.0313248024      0.1012132655
H       1.4028012190      0.9584340075     -1.0909883623      0.0156509326      0.2571380214     -0.2194265069      0.0765766782
H       1.5902375061      0.5169521956      0.6214991080     -0.0045433290      0.0337989970      0.2314997615      0.1377098437
H       3.3150392580     -1.1398874981      0.0540143490      0.0271747259     -0.2154013946      0.1758024801      0.1239486881
H       3.1717533590     -0.7395393367     -1.6668492997      0.0759662006     -0.1255512212     -0.2693842889      0.0692410082
H       3.9863289747      1.2138167840      0.5482045554     -0.0411594865      0.1292099710      0.2702353486      0.0920143246
H       3.8584715476      1.6146438851     -1.1710877202     -0.0430258393      0.2565003285     -0.1660726651      0.0701452908
H       5.6224697259     -0.0824664943     -1.6927927236      0.0135846970     -0.1736991977     -0.2387115661      0.0763521670
H       5.7472003854     -0.4772556214      0.0280254915      0.0217364566     -0.2591063759      0.1361403520      0.0896016307
H       6.3308497725      2.2686895466     -1.2020481971     -0.0192208293      0.2744311160     -0.1944913459      0.0229032969
H       6.4594184949      1.8677973499      0.5183895430      0.0101687175      0.1610075972      0.3014643660      0.0297639327
H       7.5409892649      1.0975805515     -0.6533250021      0.3726373691      0.0081720062     -0.0268237518      0.0298740486
S       0.7563545459     -2.4792803084      2.6116214424      0.0657390130     -0.0663432794      0.2911634384      1.7469295640
O       0.8352812077     -3.4495920471      1.5270595805      0.1858079268     -1.0462491382     -0.8382697263     -0.8056219220
O      -0.6026108561     -2.2135050140      3.0603944618     -1.1363491449      0.1295232106      0.6577138210     -0.8143075298
O       1.5437833522     -1.2755124244      2.3762625765      0.8438859453      0.9782440286      0.0541282675     -0.8119197699
C       1.5789298129     -3.3044076727      4.0444660240     -0.4750644607      0.4517710119     -0.8152991620      1.1537141649
F       2.8407313807     -3.5911755022      3.7495183648      1.4381087432     -0.3297110951     -0.3365713210     -0.4438302212
F       0.9529305201     -4.4320875144      4.3549933756     -0.7153221014     -1.2662495611      0.3290018541     -0.4424597707
F       1.5661628601     -2.5100283313      5.1071825172     -0.0217064763      0.9093400696      1.1815462764     -0.4429484988
