43
Properties=species:S:1:pos:R:3:forces:R:3:charge:R:1 energy=-240.63243855882928 homo_lumo=1.6159350095000395 dipole="1.6611650602524612 4.752144043761297 -2.228952058447736" free_energy=-240.63243855882928
N      -1.2668870159      1.3308773191     -0.2608134626     -0.4767368878     -0.7015450559     -0.7552757019     -0.5154575349
N      -2.6879879853     -0.3481309159      0.0659132698      1.2056025947      0.3334731488     -0.6281789851     -0.5068428380
C       1.1273738363      1.9363302320     -0.1909724325     -0.0481958385     -0.3257215699     -0.0804696487     -0.1912472509
C       1.6117295894      0.4899508200     -0.3700104471      0.0340593748      0.3371101344      0.2329640531     -0.1969042971
C      -0.2313084906      2.1672457748     -0.8653064297      0.6499699242      0.6380398483     -0.2128929887     -0.0221720326
C       3.0135939505      0.2933571449      0.2164454452     -0.2318907395     -0.3489455698     -0.1968870552     -0.1660979595
C       3.4658136220     -1.1644357086      0.0658321472      0.1528824112      0.1170112145      0.1387825333     -0.2127892254
C      -1.8136302440      0.2178381245     -0.7881726662      0.2630585833     -0.5758600240     -1.1498158656      0.5646644895
C      -1.8129845495      1.4733702152      0.9639810009     -0.7938950756     -0.0244829617      1.5031607883      0.2290508917
C      -2.6947381521      0.4308012322      1.1670136087      0.1887204775      1.0638572980      1.2027356135      0.2537449135
C      -3.3916355207     -1.6148179319     -0.1151070124     -0.6984825747     -0.8983867072     -0.2711787975     -0.1092387965
C       4.8603073063     -1.3747846599      0.6466066089      0.1254702269     -0.2524307438     -0.0263794730     -0.0860706854
C      -4.8732583992     -1.3708599056     -0.3677200830     -0.2528113658      0.1547933112     -0.0703883564     -0.1157177008
H       1.8664780010      2.6319345804     -0.6455036757     -0.2692080043     -0.0804650401      0.1305280499      0.1140634266
H       1.0507899493      2.1771563434      0.8919114944      0.0726417606      0.0104090810     -0.2567060685      0.1157543564
H       1.6296543397      0.2373628279     -1.4533228955     -0.0587866152     -0.0086814833      0.2047400717      0.0894141832
H       0.9064989809     -0.2008191032      0.1421548584      0.1536675023      0.0733358315     -0.1895104177      0.1325796847
H      -0.5183092410      3.2360518961     -0.7651591447     -0.1967370048     -0.3787537276     -0.0136748896      0.1305036811
H      -0.1474507393      1.9442647784     -1.9518491889     -0.2776498769     -0.0877911853      0.4085750920      0.1221164687
H       3.0045457601      0.5677684350      1.2946597704      0.0726423027     -0.0010796345     -0.2499922830      0.0966341357
H       3.7308714152      0.9589447044     -0.3131137695     -0.1287457342     -0.0954728913      0.2121275182      0.0899355961
H       3.4795288531     -1.4439773513     -1.0104615795     -0.1492969440      0.0366801828      0.2227307561      0.0893009018
H       2.7529440157     -1.8350700082      0.5941093367      0.0683926478      0.1572877704     -0.2378501091      0.1027794154
H      -1.5561371933     -0.1889036270     -1.7582255766     -0.0144172255     -0.0090175337     -0.0191538935      0.0996568530
H      -1.5704875938      2.2613277769      1.6649944419      0.1209090538      0.1397258903     -0.1175133643      0.0601157648
H      -3.2729912413      0.2381887163      2.0614620538     -0.1327275287     -0.2524906494     -0.0216761308      0.0811262041
H      -2.9642955037     -2.1686675368     -0.9795354826      0.1501354449      0.3479199273      0.3759899159      0.1258450703
H      -3.2625179781     -2.2422896778      0.7915152912      0.1323325527      0.1906391961     -0.1166425861      0.2229079856
H       4.8682886026     -1.1274315347      1.7296039182      0.1133550256     -0.0727929661     -0.3015140920      0.0451057518
H       5.5991310881     -0.7362208242      0.1169635753     -0.1234579413     -0.1928065495      0.2336495509      0.0383047196
H       5.1556792077     -2.4381170203      0.5224875487      0.0690141678      0.3325027328      0.1178834646      0.0549218627
H      -5.3273247985     -0.8341843371      0.4919262530      0.0294530235     -0.2093998316     -0.2900449935      0.0664388888
H      -5.3923348014     -2.3437060099     -0.4989768146      0.1995494702      0.2429446504      0.1546670765      0.1224553496
H      -5.0045251790     -0.7660585249     -1.2903642853     -0.0441242328     -0.1386772328      0.2786958828      0.0505249446
N      -3.9892345612     -4.3782029870      2.3325692659      0.0344831878      0.5191612213     -0.3588585153     -0.8822057402
S      -2.6327587152     -4.4479258600      3.2444155260     -1.8287403083     -1.0805347524      4.8966539156      1.8376901472
S      -4.5046171710     -5.6651425155      1.4629163343      2.4813203780      0.0141992101     -4.0553839025      1.8529790605
F      -1.3069721306     -4.7116802355      2.2568862995     -0.4383704107      0.3634290031      0.1471959514     -0.4483347084
F      -5.3738442471     -6.6897843821      2.4608743681      0.3216761339      0.7078383418     -0.3724773410     -0.4361423412
O      -2.4565155609     -3.1514775722      3.9829184402      0.2261804994     -0.9773266985     -2.5185651234     -0.7335500755
O      -2.7395853810     -5.5802060684      4.2267423273      0.9489362367      0.9977680037     -2.1560794806     -0.7094945871
O      -3.3327385048     -6.4148763045      0.8938950854     -1.7479336004      0.2515048099      1.6559461701     -0.7180703238
O      -5.3948772356     -5.1921782718      0.3491368023      0.0977549285     -0.3169679995      2.5500836591     -0.7382786493
