22
Properties=species:S:1:pos:R:3:forces:R:3:charge:R:1 energy=-126.05577631390479 homo_lumo=2.8664503789076243 dipole="0.012348127950826751 0.7103955093951703 -0.8606840149456045" free_energy=-126.05577631390479
N      -0.4846375137     -0.0617205122     -0.2274500736      0.0059698584      0.0116525713     -0.0217644412     -0.4960624411
C       0.9236573210     -0.0933386570     -0.6456976074      0.0134315054      0.0052915865      0.0018865850      0.0040873592
C       1.8954872195      0.1785344521      0.5005225715     -0.0016802532      0.0007790471      0.0011868200     -0.2365218155
C       3.3399027094      0.1437016382      0.0134709016      0.0148494202      0.0015061052      0.0131728905     -0.0767646805
C      -1.0520899595      1.1408149135      0.0859564347      0.0047979364      0.0029109486     -0.0083598461      0.2498870927
C      -1.1355521607     -1.2476188713      0.0492748281     -0.0107704528     -0.0208329097     -0.0007698079      0.1094332663
C      -2.3657794149      1.2315692980      0.4444268980     -0.0118654931     -0.0259083638      0.0065606045     -0.0573266212
C      -2.5516873081     -1.1642712900      0.2458265936      0.0089117655      0.0152052352      0.0067960980      0.0065802958
C      -3.1443725532      0.0440132305      0.4717187093     -0.0151030739      0.0119789648      0.0038510026      0.0156721265
H       1.1098839459     -1.0905484500     -1.0732821074      0.0002214993      0.0016099342      0.0035309410      0.1178217057
H       1.0489943985      0.6460663218     -1.4556249773     -0.0046967831     -0.0056656775     -0.0006371909      0.0984298385
H       1.7162037374     -0.5732921260      1.2856542621     -0.0045763341      0.0049703452      0.0074606295      0.1552131778
H       1.6688377149      1.1649750462      0.9408017130     -0.0008408838      0.0103244638      0.0047841920      0.0962830270
H       3.5923597334     -0.8409429046     -0.4104348211      0.0013786557     -0.0175446932      0.0033144783      0.0387890719
H       4.0350914559      0.3364300747      0.8440872132     -0.0104439661     -0.0054344777     -0.0058736107      0.0521588681
H       3.5252777085      0.9032866173     -0.7634168869     -0.0014382072      0.0009848367     -0.0053901714      0.0289401990
H      -0.4035012417      2.0094293208     -0.0133123562      0.0055017242     -0.0059353336      0.0001141338      0.0718867287
H      -0.7162942259     -2.1141612704     -0.4574772428      0.0042930928     -0.0002942440      0.0022337137      0.1408308682
H      -2.8003949837      2.2048358284      0.6641165886     -0.0019424155      0.0012166153      0.0010715178      0.0281707806
H      -3.1104831468     -2.0984162577      0.2844828688     -0.0057265016      0.0060658353      0.0026832448      0.0536143597
H      -4.2157418574      0.1020706584      0.6697342128     -0.0018361293      0.0002393429      0.0025811725      0.0367853466
Cl     -0.3917316086     -2.0401432472      2.0065361371      0.0115650359      0.0068798674     -0.0184329561     -0.4379085541
