22
Properties=species:S:1:pos:R:3:forces:R:3:charge:R:1 energy=-125.80546089944788 homo_lumo=0.7665712681799485 dipole="-1.2904478548830232 1.9137785538047511 0.13845848469186536" free_energy=-125.80546089944788
N      -0.5403800040      0.0385964132     -0.3243438362      0.2514418139      0.2274498973     -0.2589866012     -0.5087865498
C       0.8979098969      0.0182375682     -0.6159948251      0.3374589814      0.2169759244      0.5044051157     -0.0010531223
C       1.6855497482      0.0409266326      0.6986302866      0.2233324265     -0.0267794408     -0.4680090507     -0.2101949117
C       3.1698419410     -0.1716582596      0.4193836810     -0.3592748214      0.1071097387      0.1169822631     -0.0439849648
C      -1.2099823281      1.2016651262     -0.3529055199     -0.4344226408      0.3672820022      0.0192913828      0.2789565748
C      -1.1426007779     -1.1103611127      0.0169298331     -0.4340015498     -0.3845940011      0.2000195109      0.2575088290
C      -2.5504184526      1.2422677784     -0.0355115005      0.0511482963      0.0821991178     -0.0409736774     -0.0315641631
C      -2.4860251415     -1.1169105446      0.3394326762     -0.1342540289      0.2975624812     -0.0359448612     -0.0250912491
C      -3.2058629226      0.0674972831      0.3182287179      0.0513517499     -0.1019293233      0.0102697619      0.0299598274
H       1.1153310502     -0.9126054281     -1.1496424594      0.0289441335     -0.4599565576     -0.0707744481      0.1528186492
H       1.1387588369      0.8819550082     -1.2398324478     -0.0584216944      0.2805129850     -0.1320309754      0.0806564917
H       1.3199347440     -0.7678661961      1.3362707721     -0.1128142112     -0.2743505245      0.0942719823      0.1236477246
H       1.5158052559      0.9942921465      1.2100235795     -0.0855575926      0.3074628972      0.1478017429      0.0744709623
H       3.3217090484     -1.1521901194     -0.0315386319     -0.0000601750     -0.3406136068     -0.1191852309      0.0737036386
H       3.7266629195     -0.1265727422      1.3547657946      0.2434169948      0.0227508197      0.2388820870      0.0314963594
H       3.5530397349      0.5950882039     -0.2553331554      0.1888989094      0.2620006296     -0.1892615488      0.0101892347
H      -0.6541921301      2.0871431888     -0.6374912057      0.1604192497      0.0883609410     -0.0401011855      0.0824599085
H      -0.5028831349     -2.0097558283      0.0009217986      0.4503268107     -0.3500092124     -0.0343504404      0.1629287641
H      -3.0759513706      2.1882656904     -0.0659265675     -0.0932861401      0.2336819987     -0.0196656847      0.0465956133
H      -2.9582377017     -2.0537308491      0.6061168331     -0.0637288267     -0.2841395172      0.0505140995      0.0468299293
H      -4.2593918633      0.0832889359      0.5702334724     -0.2757865352      0.0094903696      0.0746055691      0.0448032242
Cl      1.1755199129     -3.1010430632     -0.3047175797      0.0648688499     -0.2804676188     -0.0477598108     -0.6763507703
