38
Properties=species:S:1:pos:R:3:forces:R:3:charge:R:1 energy=-208.1821337764029 homo_lumo=6.123728553289557 dipole="-0.6353750652908962 -2.4048362758223942 -0.6197185954908083" free_energy=-208.1821337764029
N      -1.1687417426      0.5470633736     -0.0138252622      0.1952885228     -0.0290088993      0.1106879155     -0.5362430221
C      -1.6727801430     -0.8249770123     -0.3207978696     -0.4041932870     -0.2503245776     -0.1315649767      0.0242131169
C      -2.1509932234      1.0784749597      0.9874809877     -0.6709282804      0.0650108964      0.1701297641     -0.0106543761
C       0.2008278520      0.5229455342      0.5984424439      0.6681366459     -0.0304292504     -0.4051191437     -0.0437929927
C      -3.1931749552     -0.6920185536     -0.3374498218      0.1124572206     -0.0371749065     -0.0436244822     -0.1327411948
C      -3.5043203769      0.5062297123      0.5748141679      0.1159550454     -0.0219803407     -0.0289192056     -0.1375016308
C      -1.1994114237      1.3978057584     -1.2361678546      0.0359649943      0.0210791499     -0.2697977866      0.0415770312
C       1.3115391642      0.1921790922     -0.3920479336     -0.1250342804      0.0571995746      0.6262533057     -0.1983762534
C       2.6340811987      0.0374782052      0.3679085812     -0.1279321740     -0.0802700665     -0.7712669660     -0.1555690391
C       3.7876776924     -0.2678022507     -0.5920795123      0.0753147978      0.0497781076      0.6820483242     -0.1985487658
C       5.1097045687     -0.4118685433      0.1594365718     -0.2972716771      0.0019657456     -0.3652615740     -0.0458377043
H      -1.3469911559     -1.4894752440      0.4830363722      0.1315171652     -0.0581786976      0.2222323206      0.1174636597
H      -1.2563027379     -1.1711382070     -1.2668462287      0.1671556008     -0.0835919830     -0.1577558461      0.1096367371
H      -2.1119440484      2.1682568653      0.9744714914      0.1009419941      0.1247171780      0.0589740944      0.2201464084
H      -1.8478027095      0.7198137713      1.9725933033      0.1875471391     -0.0992013816      0.1702818084      0.1116650640
H       0.1723304844     -0.2121341004      1.4076134149     -0.1223003921     -0.2169760101      0.1709877108      0.0853633261
H       0.3691636423      1.5140369113      1.0257393371     -0.0281986351      0.0724626083      0.0804741739      0.2561941402
H      -3.6571578210     -1.6101843229      0.0264159292     -0.1141670483     -0.2589748301     -0.0201030922      0.0890391450
H      -3.5517282592     -0.5094766217     -1.3527379233     -0.1086976634     -0.0264426006     -0.2330690681      0.0834244364
H      -4.0975863636      1.2516358920      0.0420260132     -0.1801573896      0.1811146971     -0.0625462403      0.0822032756
H      -4.0656302295      0.1969101934      1.4582266864     -0.1631808207      0.0144578145      0.1982706848      0.0934646176
H      -0.6863934532      0.8843084004     -2.0462726002      0.1335735243     -0.2239859946     -0.1770362513      0.0550947134
H      -2.2346474968      1.5798852835     -1.5131101159     -0.3086947957      0.0355678576     -0.0468731918      0.0927380560
H      -0.7053612079      2.3416307803     -1.0125656832      0.0377112767      0.1581685858      0.0336272646      0.1916795011
H       1.0861844561     -0.7302839807     -0.9372612318      0.0123655058     -0.2955989229     -0.1704966301      0.0812971526
H       1.4143558551      1.0075698330     -1.1124577783      0.0313201031      0.1929662663     -0.1597351897      0.1262846404
H       2.5432123020     -0.7699567946      1.1029162008      0.0145196678     -0.2061054681      0.2266718446      0.0748954893
H       2.8444648974      0.9642864952      0.9103565103      0.0419786779      0.2488246577      0.1765319355      0.1134746692
H       3.8720603876      0.5404520938     -1.3257919782     -0.0305503333      0.1885045749     -0.2232844448      0.0890653226
H       3.5739578427     -1.1940538150     -1.1370337526     -0.0839710390     -0.2137139594     -0.1953559321      0.0735834563
H       5.3476923032      0.5095168779      0.6920782908      0.1138200848      0.2617560802      0.1838844846      0.0363590833
H       5.9161800556     -0.6262347615     -0.5419617580      0.3414052277     -0.0727338937     -0.1237485950      0.0314710932
H       5.0521852051     -1.2263599539      0.8829861251      0.0326329097     -0.2417923809      0.2411289224      0.0254257779
B      -0.2614605360      3.9573783997      0.8723711059     -0.0994910891     -0.3801752776      0.0112104724      1.3939234594
F       0.6970818783      3.3592398134      0.0077587176      0.6712137102     -0.0267627598     -0.4696675158     -0.5771644170
F       0.0924175983      5.2221575837      1.2261988729      0.2817350138      1.0042589805      0.2662160158     -0.5143702177
F      -0.3858183543      3.1024071392      1.9992568228      0.0839366809     -0.1289697836      0.7569895594     -0.5747833597
F      -1.5061514848      3.9195724713      0.1921747100     -0.7217226038      0.3045592097     -0.3313744699     -0.5741003997
