61
Properties=species:S:1:pos:R:3:forces:R:3:charge:R:1 energy=-329.01324817087425 homo_lumo=5.225168403128645 dipole="-3.9797463183650668 -0.840882226034179 -0.19037099896036508" free_energy=-329.01324817087425
N       3.0354650651     -0.9753675382      0.4816509687      0.0036317425      0.0022311960      0.0071517350     -0.5130972941
C       2.5691414566     -1.9110543202      1.5905525642      0.0026509978      0.0020122517      0.0096949712     -0.0033331448
C       4.2036751953     -1.7248171954     -0.2088627675      0.0072849189      0.0058785183     -0.0010623013     -0.0508289503
C       1.9388854615     -0.6940116831     -0.5204364668      0.0038378894     -0.0051048469     -0.0067557918     -0.0112763837
C       3.8080120042     -2.7080221479      1.9562319996      0.0029724959      0.0018595740      0.0071071698     -0.1589505624
C       4.4184377760     -3.0107507876      0.5857449276     -0.0022308123     -0.0071571410     -0.0034670186     -0.1632711110
C       3.5478997744      0.3040147250      1.0747062442     -0.0115414582     -0.0006116827     -0.0024924506      0.0119693895
C       0.7238653359      0.0220965375      0.0437999360     -0.0015280488      0.0004402576      0.0116246948     -0.1983695521
C      -0.3726472115      0.1560257610     -1.0165188243     -0.0005630103     -0.0026419697      0.0034977650     -0.1612230990
C      -1.6013498244      0.8930490086     -0.4850941341     -0.0007733185     -0.0025954767      0.0018410083     -0.1672619939
C      -2.7191500065      1.0198114808     -1.5184899109      0.0033268289     -0.0069159217     -0.0089549658     -0.2067157870
C      -3.9465749062      1.7435864912     -0.9707468396      0.0022732075      0.0005851052      0.0114181454     -0.0684999712
H       1.7995243931     -2.5640603287      1.1511350478     -0.0062225244     -0.0003512496      0.0018890020      0.1294747389
H       2.1298272912     -1.3171585107      2.4016353321      0.0044140907      0.0028532084      0.0055544893      0.1164571689
H       5.0796346351     -1.0698080654     -0.1677829160     -0.0033415238      0.0007053565      0.0012925644      0.2790495468
H       3.9257231745     -1.8904046371     -1.2568960675      0.0053909107      0.0089593828     -0.0057509697      0.1040359941
H       1.6554014629     -1.6737284985     -0.9385422547      0.0071398406      0.0081240931      0.0027467993      0.1242777280
H       2.4063901262     -0.1013626821     -1.3228659519     -0.0017518509     -0.0015237768      0.0048726641      0.1447917174
H       3.5496106969     -3.6125494683      2.5253856304     -0.0034978109     -0.0012110623     -0.0007618715      0.0874673024
H       4.5020635562     -2.1088007443      2.5644274930      0.0086055138     -0.0053445520      0.0062672807      0.1496730936
H       5.4908038572     -3.2435997847      0.6431679543     -0.0010908338     -0.0000017536     -0.0031737121      0.1394332141
H       3.8946577157     -3.8578466675      0.1127225813     -0.0011340051      0.0031033554      0.0015635041      0.0767001666
H       2.7407385742      0.7875087730      1.6361152630      0.0040519463      0.0000819643     -0.0061870306      0.0809407302
H       4.3961135251      0.0766839116      1.7277077823      0.0034358183      0.0004343242      0.0018608977      0.1854151901
H       3.9031146099      0.9464876504      0.2601725940      0.0047196368      0.0044951918     -0.0006143688      0.1100685390
H       0.3200606418     -0.5288888269      0.9110671455      0.0022232888      0.0010582968     -0.0036423451      0.1103892690
H       1.0007823148      1.0303101620      0.3928810541     -0.0059332667     -0.0099482453      0.0038686779      0.1166647911
H      -0.6709811522     -0.8483252097     -1.3698950226     -0.0000884737     -0.0009096643      0.0013310409      0.0911026390
H       0.0270571925      0.6943220724     -1.8957018536     -0.0027419256     -0.0084171098      0.0050743521      0.0973632111
H      -1.3032393800      1.9022030390     -0.1432814676     -0.0023358102     -0.0065048214     -0.0014295625      0.0927199812
H      -1.9874146076      0.3634280073      0.4064079251     -0.0003083101      0.0003491304     -0.0022850540      0.0890726179
H      -2.3339283972      1.5566336938     -2.4044602052     -0.0047547433     -0.0054129904      0.0001417936      0.0898048664
H      -3.0059112294      0.0103009592     -1.8659427881     -0.0029891391      0.0023237505     -0.0008792865      0.0872646163
H      -3.6897194273      2.7644880654     -0.6450116104      0.0013548862     -0.0032165684     -0.0003477221      0.0386587672
H      -4.7403579337      1.8227872960     -1.7284333478      0.0048164446     -0.0074307579     -0.0093018122      0.0445404370
H      -4.3631374478      1.2098064395     -0.1013468958      0.0006285931     -0.0002203123     -0.0007720567      0.0364543815
P       7.9425964244     -0.0685122652      0.5362851621      0.0047629160      0.0083548139     -0.0022510767      1.7389951513
F       7.2914092858     -1.4845763532     -0.1101874533     -0.0048026859      0.0063966368      0.0009675678     -0.5378630468
F       9.4566885835     -0.7128075578      0.6382903638      0.0077436624     -0.0011267746      0.0015702610     -0.5035345589
F       6.3931754832      0.6154094508      0.4398107369     -0.0173373892      0.0164656284     -0.0038823153     -0.5414067514
C       8.3044876466      0.3634716916     -1.3563731239     -0.0248181995     -0.0080759396      0.0060141561      0.5221813697
C       7.5069595649     -0.9302484207      2.3498887421      0.0128108592      0.0093153254      0.0078543708      0.4927679316
C       8.5164340891      1.6414004208      1.4420589074     -0.0118547604      0.0085886373     -0.0051306644      0.5244484158
C       7.1127244890      0.6681855920     -2.3191906339      0.0103392942     -0.0212721733     -0.0085746572      1.3591424798
C       8.4240484342     -0.8717462487      3.6224043170     -0.0058533516      0.0104511506     -0.0222082198      1.3786083645
C       8.7334958680      3.0487966300      0.7881289725     -0.0068703753     -0.0178315875      0.0025290639      1.3876279010
F       8.9423745993     -0.7134376397     -1.9311540637      0.0008651781     -0.0005885432     -0.0116170605     -0.4360445758
F       9.1598160103      1.4320631107     -1.4905157584      0.0084830402      0.0095651869     -0.0106755000     -0.4516385038
F       7.4011564353     -2.2942485175      2.1401538447     -0.0017049304      0.0034633640      0.0010411176     -0.4512871651
F       6.2488783151     -0.5274840765      2.8083367520     -0.0008720012     -0.0078943003      0.0046085355     -0.4768894481
F       9.6832349016      1.4086713067      2.1317642062     -0.0058797867      0.0027469491      0.0217086879     -0.4414060355
F       7.5187574436      1.8829000835      2.3746824534      0.0031575226      0.0108635640      0.0084763596     -0.4498514145
F       7.5820141673      0.7953989517     -3.5897133287     -0.0000138504      0.0101943704     -0.0052681913     -0.4464071423
F       6.4672171155      1.8171089333     -2.0057204046      0.0024815799      0.0102149440     -0.0064182225     -0.4508333045
F       6.1891246001     -0.3347387654     -2.3329938569     -0.0002640280      0.0077138720     -0.0031895442     -0.4686565033
F       7.9513018599     -1.7838484370      4.5302880042      0.0023634747     -0.0101103914      0.0197908277     -0.4563037018
F       9.6952808721     -1.2105921272      3.3275753136     -0.0076532823     -0.0012547143      0.0007200750     -0.4369445723
F       8.4129012810      0.3253921554      4.2415267009      0.0100760342     -0.0035953656     -0.0001456682     -0.4422741275
F       9.9384405759      3.1578513980      0.1910954556     -0.0011771484     -0.0086881027     -0.0243059245     -0.4410183453
F       8.6948063222      3.9981847889      1.7683557608      0.0055958104     -0.0013186391      0.0009648439     -0.4498543917
F       7.7559421397      3.3483810040     -0.1008998446      0.0004902326     -0.0025529651     -0.0034990583     -0.4525202729
