34
Properties=species:S:1:pos:R:3:forces:R:3:charge:R:1 energy=-187.96357410504362 homo_lumo=0.13752688402600866 dipole="-6.035038086769468 1.1252298088532577 -0.8641287214230565" free_energy=-187.96357410504362
N       0.4224917859      0.2342460464      0.0396816771      0.1475525974      0.3646333424     -0.1241940333     -0.5512517851
C      -0.5291595033      1.2769799581     -0.4599636301     -1.4444626165      1.1318098318     -0.3957207057     -0.0212314137
C      -0.0933118167     -1.1332786186     -0.2760524514     -0.7880364791     -1.6352932307     -0.0790481814     -0.0281907776
C      -1.9862182870      1.0774440547     -0.0033078501      0.0151877460     -0.0427853814      0.0173978083     -0.1770036090
C      -1.5336689683     -1.3761446108      0.2052817759     -0.0284330218      0.1682362806     -0.0216538881     -0.1696895842
C       1.7198750603      0.4631392878     -0.6779877341      2.0803827312     -0.1652902704     -0.7906359198     -0.0888164889
C      -2.4808352944     -0.3211713266     -0.3536078350     -0.3379193121     -0.0635723895      0.1331136509     -0.1682525723
C       0.6320934857      0.3988047961      1.5045228194      0.1339940530      0.0310905950      1.4075784311      0.0176215461
C       2.8737158967     -0.4798523007     -0.2916264791     -0.3776773269      0.0368354922      0.1836738725     -0.1308592610
H      -0.5390792172      1.2881938923     -1.5750676535      0.3759216235     -0.3213010957      0.4129832977      0.1505519442
H      -0.2004630253      2.2915684578     -0.1377845898      0.2945756908     -0.5486298080     -0.0164760349      0.1485495985
H       0.5400183968     -1.9154584212      0.1953662538      0.1495624303      0.6224095665     -0.1718918868      0.1711005565
H      -0.0662644340     -1.3109836822     -1.3758590812      0.2046068101      0.4477472582      0.3369137054      0.1494705834
H      -2.6295171356      1.8226749602     -0.5194351382      0.3603509463     -0.0217958495      0.1615654452      0.1261028404
H      -2.0947323068      1.2624142521      1.0851952461      0.0437822623     -0.0126743042     -0.1994347443      0.1075252841
H      -1.5785835398     -1.3816331522      1.3148698960      0.0179498318     -0.0541380030     -0.2250841701      0.1112411399
H      -1.8667212862     -2.3779283692     -0.1427705018      0.3341027643      0.1805987400      0.1547452087      0.1271729326
H       1.5738664882      0.3629452099     -1.7782216158     -0.4988506680      0.0328226851      0.4591669108      0.1422740204
H       2.0751555404      1.5056021348     -0.5065362027     -0.5360163865     -0.2682402854      0.1690247877      0.1566040192
H      -3.4959429328     -0.4724864419      0.0723790869      0.2092751048      0.0280324368     -0.2534009925      0.1052931422
H      -2.5500223500     -0.4280855093     -1.4587262765     -0.0283636149      0.0094068531      0.2233705518      0.0981575448
H      -0.3199972184      0.3983348932      2.0697634925      0.1205522518      0.0049552260     -0.5105043483      0.1274228814
H       1.2360350437     -0.4326867614      1.9262357308     -0.0975580708      0.2914891285     -0.4837168984      0.1335736525
H       1.1487602781      1.3583485009      1.7300623177     -0.1442149894     -0.3803586994     -0.3919213244      0.1205816351
H       3.7565299760     -0.2329065887     -0.9180015790     -0.1145644509     -0.0228108957      0.3481187489      0.1427814794
H       3.1741292913     -0.3446216839      0.7669233118      0.1964826901     -0.1149216720     -0.4047564785      0.0972465492
H       2.6248188635     -1.5414132016     -0.4877054646      0.1180638605      0.2544471554      0.0802686450      0.0555835126
C       6.9238330222     -1.0768099557      1.1248581792     -0.0115855608     -0.6942562711     -1.6105814774      0.8212116834
O       6.1509891962     -0.3558848194      0.5144284299     -3.2460713543      3.6203966370     -0.2707698335     -0.8264403221
O       7.4644732568     -2.0065722027      0.5480297511      2.5443279788     -3.1154807585      0.3891503583     -0.7687929014
C       7.2169403087     -0.8231758790      2.5734047776      0.0883508375     -0.0165450660     -0.3820779833      1.2233199976
F       6.9108832707     -1.9514247062      3.3119741700      0.2220722531      0.6244229478      0.4596226584     -0.4680416384
F       6.4652987029      0.2404225855      3.0426137682      0.5228041690     -0.3856317948      0.7125170511     -0.4720840668
F       8.5592214684     -0.5291379668      2.7264318105     -0.5261447803      0.0143915988      0.6826577691     -0.4627321232
