48
Properties=species:S:1:pos:R:3:forces:R:3:charge:R:1 energy=-261.82272970209675 homo_lumo=5.247845871959263 dipole="-0.9043991008653246 3.297701663040787 1.8658121246086619" free_energy=-261.82272970209675
N       0.7908797847     -0.5797094336     -0.3422481739     -0.1919426058      0.0216944065      0.0324664843     -0.5025566852
C       1.7411618871     -0.3299555458     -1.4950015203      0.4475207927      0.1173991849     -0.2886576202      0.0093461319
C       1.4721578819     -1.6042012925      0.5277558663      0.4851711282     -0.2121934930      0.2372918358     -0.0293920342
C       0.5981645195      0.6736258367      0.4598700800     -0.3534363254      0.4452068833     -0.2745647708     -0.0171539937
C      -0.5071354368     -1.1206062837     -0.8704916492     -0.5131571871     -0.1188301037      0.4232384446     -0.0566922545
C       3.0809306408     -0.9678714772     -1.1287257609     -0.0097780472      0.0365275002      0.0142072446     -0.1428342285
C       2.9603591416     -1.3693473598      0.3392446412     -0.2304823768      0.0757757894     -0.0601070886     -0.1330607207
C      -0.1845348869      1.7758787226     -0.2520110729      0.3610479450     -0.0389956742      0.5892497031     -0.2108149809
C      -1.5195601652     -1.4783618352      0.2137778271      0.0940020736     -0.0471619158     -0.6421191072     -0.2021450339
C      -0.1209685968      3.0654204814      0.5768178893     -0.2896658832     -0.1034053575     -0.5333444074     -0.1988783860
C      -2.6567070212     -2.2931548340     -0.4165848004      0.0253004162      0.1368187084      0.5691604404     -0.2086862134
C      -0.9179906344      4.1850120947     -0.0886729572      0.2629753945     -0.2436913879      0.3057024490     -0.0495640023
C      -3.7024315794     -2.6770613775      0.6270691137      0.2296437831      0.1034342178     -0.3883614935     -0.0482514128
H       1.8265194739      0.7452213424     -1.6519602187     -0.0857767145      0.2336198109      0.0521914709      0.1217305088
H       1.3194327554     -0.7844958710     -2.3906655905     -0.1198480374     -0.0500988590     -0.1127099292      0.1510992639
H       1.1879148144     -2.5920662963      0.1646210982     -0.0446294758     -0.1403697616     -0.0770068782      0.2224669674
H       1.1421159177     -1.4866735070      1.5595809286     -0.1606842369      0.0517017106      0.2038350459      0.0920646277
H       0.0792182624      0.3958018172      1.3804186019     -0.0716450114     -0.1106396787      0.1825966816      0.1393799611
H       1.5972613256      1.0310798611      0.7228257159      0.2394434797      0.0223650541      0.0678254355      0.1507780451
H      -0.9184169067     -0.3785106223     -1.5574141852     -0.0536680920      0.2011333120     -0.1755395192      0.1171818437
H      -0.2542177674     -2.0166008339     -1.4380037560      0.0622575307     -0.0923326607     -0.0713817261      0.2395484582
H       3.2469514837     -1.8536595712     -1.7445049875      0.0229743325     -0.1767097878     -0.1197887291      0.1671923618
H       3.9029175380     -0.2692105240     -1.2899240120      0.2309162788      0.1422638745     -0.0746452301      0.0637946265
H       3.3199932703     -0.5753254847      0.9994342885      0.1009274145      0.1806376625      0.2076584148      0.0698705522
H       3.5144253245     -2.2848695006      0.5481487485      0.1379595710     -0.2144802339      0.1063903425      0.1125048562
H       0.2271986255      1.9661885552     -1.2464974637      0.0702492926      0.0600301017     -0.2831331024      0.1100821224
H      -1.2299921203      1.4799530734     -0.3706024494     -0.2643584680     -0.0780870196     -0.0715110740      0.1229588062
H      -1.0430169070     -2.0800105215      0.9916507560      0.1045319242     -0.2021041912      0.1976048470      0.1191605818
H      -1.9239236811     -0.5750927813      0.6810781734     -0.1478932716      0.2311361914      0.1798225212      0.0909769290
H       0.9234047527      3.3748222633      0.6881018233      0.2693623359      0.0533478110      0.0958715626      0.0882324601
H      -0.5230660134      2.8734550270      1.5769337770     -0.0394719007     -0.0445123261      0.2938542499      0.0907986803
H      -3.1270852772     -1.7054440387     -1.2117436727     -0.1104790646      0.1267612234     -0.2508440793      0.0764291313
H      -2.2371898125     -3.1984115558     -0.8644839959      0.1392824369     -0.1730641209     -0.1643171933      0.1409716098
H      -1.9662299267      3.9013202119     -0.1878821373     -0.3314785220     -0.0320216088     -0.0556568321      0.0357005063
H      -0.5198336093      4.4002030286     -1.0807873923      0.0791219628      0.1048482000     -0.3056005085      0.0361398252
H      -0.8578727990      5.0903691309      0.5146035979     -0.0565124059      0.3335024129      0.1030702789      0.0446956519
H      -4.1358822262     -1.7864320393      1.0847568697     -0.1858171415      0.2420824346      0.1825986568      0.0198315838
H      -3.2526833316     -3.2879040797      1.4105309895      0.0946621754     -0.2031507465      0.2521568659      0.0345573613
H      -4.5005299099     -3.2496379454      0.1554152607     -0.2962114475     -0.1967208488     -0.0382113993      0.0421488733
N       1.3152281477     -5.4607824399     -2.8627257183      0.0438549914     -0.0188628663     -0.0810931734     -0.8607289975
S       1.3025548970     -4.2872057094     -1.8408172485     -0.4046474967     -0.2326714005     -0.1979984810      1.9756704189
S       2.6926607473     -5.6213697036     -3.6948217361     -0.2410785802     -0.4309884729     -0.0682991099      1.9268861792
F       1.1914918676     -2.9007495467     -2.7765833801     -0.0376360591      0.2442210522     -0.5101600064     -0.4993058774
F       3.6884717698     -6.2437615375     -2.5910259423      0.5051490410     -0.3233087033      0.6557158001     -0.4556262512
O       0.0454390668     -4.2610992637     -1.1436083398     -1.2869682826      0.0079917526      0.6436398313     -0.7903175266
O       2.4840908754     -4.0190632420     -1.0640148048      1.1546457430      0.0685541997      0.5073612244     -0.7634430082
O       3.3111654724     -4.4009202053     -4.0952910878      0.6686146451      1.5417327933     -0.2484294342     -0.7286755363
O       2.4984027570     -6.6609958594     -4.6435859267     -0.3023480550     -1.2983850695     -1.0100289377     -0.7140717820
