37
Properties=species:S:1:pos:R:3:forces:R:3:charge:R:1 energy=-205.4543247325646 homo_lumo=3.3392858950187345 dipole="-0.97762311363632 1.7925130093314383 -0.6673690811405771" free_energy=-205.4543247325646
N       0.0083536110     -0.0610976596      0.2113969205      0.0489930657      0.4077249615     -0.1167273950     -0.5270136362
C      -0.8775359906      1.1019401530     -0.1250090976     -0.5722959378      0.1206272016      0.1645945562      0.0154539920
C      -0.4912304014     -1.2948336958     -0.4780909334     -0.4278908813     -0.5099629259      0.1394827695     -0.0595566512
C       1.3821105943      0.2845156956     -0.3059033809      0.5683802291     -0.4944898950      0.1020825718      0.0006088117
C      -2.3473800865      0.8485213414      0.1935771838      0.2055781438     -0.2250122296     -0.3880859864     -0.1547097164
C      -1.9480854062     -1.5909730965     -0.1565878259      0.0797104323      0.5367738959     -0.3412280426     -0.1530474933
C      -2.8477890767     -0.4096504565     -0.5146226463      0.2050549065     -0.0400800573      0.4425624688     -0.1498481057
C       0.0714024771     -0.2601948298      1.6851166910     -0.0378319486     -0.1102908606      0.1017689457      0.0189639313
C       2.4636492625     -0.7641573149     -0.0536870041      0.0236309289      0.5578955706     -0.2838092242     -0.2555364090
C       3.7813957863     -0.2753716632     -0.6505565609     -0.4017543849     -0.0434386922      0.1344520979     -0.0396350027
H      -0.7617857869      1.2942892430     -1.1955922397      0.0790240240      0.0098431824     -0.2495921337      0.1173489105
H      -0.5077432005      1.9668545742      0.4312764068      0.1722537025      0.1948497840      0.1016856652      0.1120911274
H       0.1443568946     -2.1430715649     -0.1556453062      0.3065673593     -0.2100289074      0.0561040544      0.2642251580
H      -0.3657024818     -1.1340199338     -1.5525826546      0.0613003513      0.1484904313     -0.2726347907      0.0864068676
H       1.6604620239      1.2314295794      0.1676030557     -0.0098556288      0.2641243172      0.1170134666      0.1101523841
H       1.2759099826      0.4565628436     -1.3815532469     -0.1200732861      0.0660617032     -0.2488255453      0.1083698471
H      -2.9118361686      1.7213553104     -0.1459061749     -0.1240541187      0.2872460826      0.0042424508      0.0967724299
H      -2.4961027751      0.7573248497      1.2726515663     -0.0560143880      0.0402775232      0.2786267763      0.0957455748
H      -2.0618361449     -1.8439870060      0.9005279043     -0.0111221834     -0.1752515360      0.2643269516      0.1017483673
H      -2.2372165832     -2.4686541345     -0.7397318318      0.0101322076     -0.3136565904     -0.0520172697      0.1028235650
H      -3.8773509845     -0.6157825945     -0.2124362779     -0.3334885160     -0.0266169957     -0.0129802655      0.0762558955
H      -2.8353520358     -0.2497265020     -1.5979048955     -0.0244081261      0.0375693136     -0.3163145171      0.0761739696
H       0.6605880147     -1.1709267903      1.8957930594      0.2525493701     -0.3918636833      0.0714887157      0.2088569306
H       0.5444979292      0.6106725502      2.1352132176      0.1194413018      0.3342329772      0.0788835682      0.0403543129
H      -0.9322685101     -0.3796363921      2.0822835443     -0.2663602875      0.0092982596      0.0603083669      0.0754071503
H       2.5901287680     -0.9378591332      1.0165634870     -0.0743447149     -0.1946618376      0.2114351630      0.1481556696
H       2.1877146928     -1.7172016511     -0.5096862072     -0.1285362628     -0.2766621338      0.0749289147      0.1592314043
H       3.6887545974     -0.1262030064     -1.7276757981      0.0687051997      0.0650707130     -0.3545950415      0.0148146153
H       4.0899235984      0.6664703028     -0.1934486039      0.1914551048      0.3028835435      0.0983240781      0.0143212645
H       4.5558117507     -1.0193149029     -0.4687917767      0.2725860516     -0.1790838277      0.0200343686      0.0513965983
C       1.9549474833     -5.0000526308      2.0438717296     -0.1231696358      0.4433149289     -0.3251068398     -0.0816808953
C       1.5584399785     -3.6167910998      1.4793343453      0.2728896845     -1.0208591436      0.4554969237      0.9344220683
O       1.6621656809     -2.6484075519      2.2630981806      0.1073991943      0.9099666717      1.0261338686     -0.8422085900
O       1.1676815626     -3.5796408624      0.2924736998     -0.4967855659     -0.1442206158     -1.3567443016     -0.8391568625
H       2.9946066006     -4.9658511963      2.3667424790      0.3218978186     -0.0292352011      0.1843509922      0.0272019513
H       1.3313040992     -5.2215147826      2.9089980734     -0.1367725555     -0.0891912227      0.3297312423      0.0263290647
H       1.8273182864     -5.7718473476      1.2876185428     -0.0227906543     -0.2616447054     -0.1993976236      0.0187615004
