56
Properties=species:S:1:pos:R:3:forces:R:3:charge:R:1 energy=-305.8587872302359 homo_lumo=3.1876732687551104 dipole="-4.9249431930784136 0.8942112810742038 -2.808855619066941" free_energy=-305.8587872302359
N      -0.0149419966      1.9892066733      0.0045220634     -0.0942282940     -0.0658704996     -0.0366301892     -0.5220588077
C      -0.6911453685      2.8972362005     -0.9731703452     -1.3648866603      0.9658759127     -1.6403876308     -0.0049327047
C       0.6470332361      2.9023480662      0.9870981959      1.4400215553      1.0420267235      1.7093014642     -0.0245667699
C      -1.0315196732      1.1466760666      0.7159636077     -1.0758812955     -1.1917305280      0.3929425596     -0.0450742971
C       1.0145237021      1.1664538696     -0.7112304671      1.2392026882     -1.3299105868     -0.4076491163     -0.0517868055
C      -0.2151833869      4.3142262376     -0.7161398496      0.3880385562      0.4572055368     -0.6165873683     -0.1427730227
C       0.1421102226      4.3114943290      0.7428457680     -0.4191081905      0.4085399467      0.6087579004     -0.1409653548
C      -1.7722087365      0.1294337220     -0.1857039014      0.3037011842      0.3022949798      0.1514480670     -0.2140269847
C       1.7702475405      0.1564237824      0.1854271997     -0.2802481781      0.4132924414     -0.0432325500     -0.2337345236
C      -2.8748403739     -0.5894166669      0.6019339970      0.1642996594      0.1090788532     -0.1642875720     -0.1685937847
C       2.8834922370     -0.5419663859     -0.6050722738     -0.1368344235      0.0798341016      0.1042258576     -0.1666496492
C      -3.6254595502     -1.5947445766     -0.2793216649     -0.0454467028      0.0806092758      0.4354683287     -0.1699772977
C       3.6314561377     -1.5575961315      0.2658454701      0.1489283808      0.1703073997     -0.2118853744     -0.2053347777
C      -4.6912051399     -2.3423781094      0.5310345182      0.0039678621     -0.0814052965     -0.2422751433     -0.2090969825
C       4.7240141531     -2.2695393783     -0.5403477348     -0.0486647140     -0.0588315612      0.1894645448     -0.2046998797
C      -5.4463568446     -3.3433829384     -0.3383217464     -0.1931668679     -0.1540324885      0.1155788437     -0.0855456442
C       5.4935706829     -3.2608973738      0.3271791789      0.2481266474     -0.1214170792     -0.0358129017     -0.0879835392
H      -0.4991587944      2.6238962203     -2.0359233609      0.0316057049     -0.3359931962      0.6127430065      0.1387092006
H      -1.7982861274      2.9018384607     -0.8490477745      0.4681307661     -0.4798808888      0.2665602438      0.1436398108
H       0.4645413286      2.6166841749      2.0482622578      0.0581741530     -0.3328460007     -0.6214578279      0.1584138264
H       1.7534787714      2.9296045245      0.8589679432     -0.4496745177     -0.5531909350     -0.1802307155      0.1884582349
H      -0.5591933430      0.5897407806      1.5550624151      0.2246059981      0.3245107924     -0.4285179700      0.1726904480
H      -1.7901478588      1.8074027660      1.1972760032      0.4613338445      0.1079426611     -0.3440519139      0.1472986438
H       0.5506501434      0.6064746724     -1.5530191468     -0.2377620515      0.3246806342      0.3835713824      0.1460527212
H       1.7630361621      1.8411707005     -1.1890710456     -0.4510971507      0.1008966179      0.3743819708      0.1535901770
H       0.6899874331      4.5261875888     -1.3275740275     -0.3083033206      0.0571849213      0.1118023433      0.1084668567
H      -1.0036612736      5.0649355191     -0.9420779112      0.3584986209     -0.2931805409     -0.1616954847      0.0983133772
H      -0.7673057120      4.4992659727      1.3559135904      0.2995414930      0.0908247825     -0.1010469898      0.0973526829
H       0.9149240669      5.0762845076      0.9754187439     -0.3480226277     -0.3289809753      0.1644436847      0.1141582514
H      -2.2270714213      0.6409676838     -1.0595165522      0.1332590625     -0.1079102932      0.1145620780      0.1095769795
H      -1.0634909733     -0.6376156181     -0.5606964622     -0.1035139035      0.2416053624      0.0058170911      0.1363580262
H       2.2175340910      0.6710127450      1.0609833520     -0.0092636545     -0.1337417019     -0.0826983474      0.1805788302
H       1.0731228205     -0.6224949772      0.5573417868      0.0828560116      0.1947669011     -0.0095893920      0.1129268492
H      -2.4162068354     -1.1253777074      1.4618023183     -0.1775092688      0.1626223111     -0.1097085735      0.1047531675
H      -3.5957661402      0.1598539140      0.9963485616      0.1503707990     -0.1996316217      0.0371762505      0.0905413986
H       3.6024464874      0.2191295194     -0.9800698911     -0.1338196441     -0.1940713344      0.0387449592      0.1006935334
H       2.4365668239     -1.0668511488     -1.4778159137      0.1296008907      0.1383534083      0.0373615525      0.0685258287
H      -4.1129498472     -1.0539454171     -1.1201112628      0.1471584259     -0.1745404435      0.0923334470      0.0881898074
H      -2.9039585836     -2.3284461192     -0.7014141061     -0.1760776573      0.1821786980     -0.0052559807      0.0953284822
H       4.0921834412     -1.0317180121      1.1292275220     -0.0803353046     -0.1140096596     -0.1362853873      0.2058118762
H       2.9131118239     -2.3117291451      0.6558109242      0.1292007632      0.1428647916     -0.0111346065      0.0620848645
H      -5.4174544076     -1.6159816694      0.9561006334      0.2402962281     -0.1243125394      0.0329094463      0.0900659378
H      -4.2080753896     -2.8894714982      1.3696948007     -0.0988491281      0.2444881251     -0.0949216336      0.0953279804
H       4.2629186531     -2.8184039857     -1.3902099579      0.0772820374      0.1998890791      0.0345242613      0.0615018792
H       5.4375505188     -1.5216319226     -0.9493092302     -0.2315013186     -0.1121483235      0.0341927795      0.0955202714
H      -5.9659716993     -2.8190216273     -1.1681178039      0.1234174498     -0.2393186743      0.1599700981      0.0401649503
H      -6.2044529397     -3.8719441810      0.2771917288      0.1576676781      0.0525291712     -0.3095347433      0.0514558297
H      -4.7453966189     -4.0948447093     -0.7597494303     -0.2692029573      0.1756957764      0.0354110456      0.0439330847
H       4.8045392542     -4.0261007124      0.7435211933      0.2432660121      0.1675315110     -0.0354421010      0.0243656580
H       6.2626469755     -3.7736070047     -0.2881622090     -0.1573484899      0.0388922723      0.2752324467      0.0305460483
H       6.0012099017     -2.7303083431      1.1605691305     -0.1686627777     -0.1903085531     -0.1828192507      0.0848495770
B       5.4521089421      0.8940910973      3.2602965277      0.6276440097     -0.0933193173      0.5437509793      1.3048751839
F       5.1796951238     -0.1539484123      4.1793140086     -0.1732184198     -0.1412115409     -0.0110893761     -0.5613143009
F       6.1636178158      0.3741463136      2.1465062863     -0.0321251303     -0.1671043685     -0.4014765760     -0.5695941391
F       6.2366070271      1.8912391886      3.8984551310     -0.0515517944      0.1107419588     -0.0422414287     -0.5543283941
F       4.2295375878      1.4653856772      2.8176505780     -0.7638920387      0.2316340008     -0.3947304881     -0.5820826157
