53
Properties=species:S:1:pos:R:3:forces:R:3:charge:R:1 energy=-289.473137337252 homo_lumo=0.4401731091968858 dipole="-6.701528669523463 -5.504074953208271 0.9480374869939115" free_energy=-289.473137337252
N      -0.0292433446     -1.3079661047      0.3643514563     -0.8899466379      0.4945166126      0.8266228950     -0.5105597612
N      -2.0578694152     -0.4036404232      0.2539965829      0.7916387302     -0.3343511629      0.8681944798     -0.5161904880
C       1.3059938479     -1.6548162463      0.8484692497      1.0581829681     -0.4016137531      0.2015177676     -0.0286784607
C       2.3903587696     -0.9211745553      0.0490812716     -0.2497433371      0.3738836132      0.0847174909     -0.1987577431
C       2.2748150401      0.6024793434      0.1973208418      0.1053265139     -0.1232648598     -0.1448494808     -0.2234108423
C      -0.9593819249     -0.5807055212      1.0136095423      0.3021666429      0.5522243498      1.1779486264      0.5753643045
C      -0.5609880016     -1.6104816145     -0.8374214097     -0.8031170569     -0.1850698601     -1.4014325894      0.2445261572
C      -1.8199107423     -1.0497610876     -0.9056990893      0.5062105959     -0.8055758486     -1.4101721784      0.2401827307
C      -3.2541280091      0.3570272778      0.6070856604     -0.6853084584      0.6455566879      0.2110075682     -0.0735100119
C       3.3957374041      1.3162132177     -0.5495725570      0.0071946545      0.2469187055      0.0105935983     -0.1163739233
C      -3.3530264630      1.6193214264     -0.2425394978      0.0954278389      0.1531335225     -0.2059477774     -0.1255506588
H       1.4024714222     -1.3945444550      1.9257397956     -0.3488708071     -0.0211284857     -0.3877616262      0.1282938781
H       1.4553676618     -2.7519750022      0.7538365572     -0.3537955688      0.2561118354      0.0397795004      0.1350886638
H       2.3146911508     -1.2022447893     -1.0240910437      0.1204429135      0.0217362417      0.2254450346      0.1152888770
H       3.3847457953     -1.2525566420      0.4202516483     -0.2915503115     -0.0344534777     -0.1087013054      0.1307330807
H       1.3014085472      0.9501733179     -0.2114420727      0.0770985653     -0.0826497271      0.1719357397      0.1029167063
H       2.3248217445      0.8808243332      1.2724903683     -0.1169697144     -0.0900090039     -0.1572274189      0.0959380197
H      -0.8284120686     -0.1665797016      2.0058758679      0.0141172944     -0.0036058703      0.0269373719      0.1079689238
H      -0.0663309173     -2.1839294701     -1.6106187636      0.2006941687     -0.0679423095      0.0961559505      0.0692154793
H      -4.1556000675     -0.2737237427      0.4513651610      0.4227221713     -0.0490075300      0.1039983443      0.1389982006
H      -3.2170546196      0.6485953037      1.6795862785      0.1980709280     -0.3924956290     -0.3259955606      0.1356638164
H      -2.5050460213     -1.1007078169     -1.7419674119     -0.1828940429      0.0973557612      0.0716150001      0.0675855997
H       3.3606889369      1.0654844121     -1.6313353930      0.1333805819      0.1381386507      0.3027838355      0.0414052156
H       4.3831148459      1.0221982776     -0.1345584816     -0.2528764034      0.1995665068     -0.2314868353      0.0729177658
H       3.2743000896      2.4135051141     -0.4355786759      0.2848405708     -0.2955769284     -0.1455153040      0.1120207483
H      -2.4465623818      2.2454326343     -0.0994467208     -0.3093373395     -0.1343359303     -0.1063423134      0.0954078167
H      -4.2457081164      2.2054113757      0.0611240560      0.2890716493     -0.1995821604     -0.1225569363      0.0897827939
H      -3.4480791637      1.3546706031     -1.3168322850      0.0163078109      0.2108688796      0.3045280337      0.0787772805
P       6.2007597890      5.2749312935     -0.5873300270      1.6601694094      2.2259721257     -2.9623768223      1.6384921989
F       6.6973277492      6.3252528069     -1.8617138411     -1.9132505326      0.1454576724     -2.5030090706     -0.5253500334
F       4.6430592744      4.6523199276     -0.9785750904     -0.3261179129      0.1608938786      0.6984658645     -0.5302237283
F       7.8354864335      5.7424737821     -0.3241789336      0.3440111530     -1.1027938770      2.3512750479     -0.5176691051
C       6.5525016620      3.9440128313     -1.9441390855      0.6485493080     -0.1548572183      0.2499917968      0.5347588317
C       5.1907248589      6.9015151937     -0.3021029135      0.2618620174      0.2431899285      0.8917686783      0.5487775413
C       6.4134755748      4.6077714843      1.2017850513     -0.5433944735     -0.0733236852     -0.1567625686      0.5378287385
C       8.0347373705      3.7453994992     -2.3275952432      0.6281494858      0.3965099779     -0.4435970089      1.3412981432
C       4.1112135714      6.8869260933      0.8104342070     -0.5087177714      0.5047353778      0.1969991411      1.3232701237
C       7.4298037733      3.4737404998      1.4301531634      1.0411676537     -0.2280428366      0.2607502786      1.3641259875
F       5.8829943987      4.2977296194     -3.1100165445      0.3946602691     -0.3574532767      0.4386921952     -0.4374385460
F       6.0493907595      2.7143989181     -1.5536134146      0.2104868034     -0.3043990422     -0.5044518671     -0.4673886325
F       4.5274535883      7.2458615273     -1.4761349612      0.0430227852     -0.2008678175      0.8467094948     -0.4361841967
F       6.0763489560      7.9246225714      0.0013383648     -0.5995131926     -0.0209574821      0.1258661904     -0.4385772032
F       5.1840332893      4.1492609253      1.6402780648      0.1075461931     -0.2886607737      0.4655388780     -0.4574700375
F       6.8043149945      5.6509278881      2.0247170896     -0.0340603909     -0.6523255307     -0.2183248799     -0.4338094226
F       8.1110156722      2.8209875884     -3.3543671429      0.2190267941      0.3001105843      0.3803065638     -0.4606354526
F       8.7687887478      3.2601306465     -1.2681059201     -0.3584703665      0.2780886842     -1.0887753843     -0.4504434078
F       8.6063319481      4.9235071392     -2.7716160696     -0.2562882949     -1.5063117618      0.2700538388     -0.4304209490
F       3.3561197275      8.0423141516      0.7073755558      0.0915942298     -0.5410576398      0.2655675159     -0.4558259519
F       3.2508174585      5.8122609279      0.6899960076      0.3818182991      1.0857045522      0.4847626570     -0.4498121338
F       4.6737296136      6.8810567782      2.0700310016     -0.8227893731      0.0239834509     -0.8803272029     -0.4461070904
F       7.1549265377      2.3759788045      0.6440202155      0.3586539838      0.7250499899      0.9274668379     -0.4522342060
F       7.3507895638      3.0699812123      2.7514649242      0.1196077562      0.0221700507     -0.5841999276     -0.4550159263
F       8.7231283614      3.9079523209      1.2054625653     -1.2862087533     -0.8501641617      0.5118178422     -0.4289897109
