41
Properties=species:S:1:pos:R:3:forces:R:3:charge:R:1 energy=-227.77346966562516 homo_lumo=5.221926110763265 dipole="-1.395690517495377 0.8557355258963769 1.9333874956591033" free_energy=-227.77346966562516
N      -0.9760411413      1.4733687892     -0.2115144764      0.1491864943      0.3603481612     -0.1235532758     -0.5096094700
N      -2.2587361842     -0.1912064134     -0.6748545923     -0.2588064784     -0.3761674061     -0.0975444901     -0.5136542941
C       1.3388388664      2.1375071518      0.3118398484     -0.2431112704     -0.3833427185     -0.5402786849     -0.1785178734
C       1.9261251556      0.8435583287     -0.2572984828      0.3158657941      0.5380914811      0.5973933689     -0.2105799841
C       0.0287128140      2.5206911279     -0.3829284106      0.3669220778      0.1135441699      0.3103558820      0.0000369356
C       3.2749497083      0.5008267833      0.3783052217     -0.4588217326     -0.4429691685     -0.5386992337     -0.1489184016
C       3.8255609376     -0.7997495594     -0.2165190232      0.4330384195      0.3881475063      0.4786463130     -0.2076763123
C      -1.4778211607      0.7459504454     -1.2041500902     -0.1595184416      0.1733893468     -0.1941670055      0.6198058646
C      -1.4464700524      0.9906166704      0.9818398524      0.0056889313      0.0201100048      0.3498925856      0.1943342804
C      -2.2569722704     -0.0601783006      0.6866387395     -0.0177338190     -0.0588097286      0.2763935473      0.2234210133
C      -2.8921237467     -1.2617724289     -1.4437536197     -0.3406059346      0.1332444482     -0.4089301840     -0.0579031659
C       5.1970445526     -1.1427864781      0.3610913724     -0.3989045914     -0.0335277583     -0.2176947118     -0.0399371531
C      -3.8957730189     -0.6917328085     -2.4369864949      0.2050232950     -0.1243398294      0.3117410893     -0.0776216522
H       2.0389643832      2.9647112638      0.1602997225      0.1688022661      0.2667720568      0.0289611093      0.0906913960
H       1.1666433024      2.0369186195      1.3883934227      0.0071204590      0.0489135669      0.3318258175      0.0820291721
H       2.0539207178      0.9528142648     -1.3367104349     -0.0428818220     -0.0683780204     -0.2199122588      0.1568267435
H       1.2248059006      0.0218582972     -0.0866332817     -0.1077820763     -0.2196064537     -0.0737902450      0.1396460150
H      -0.3704596996      3.4516170951      0.0308568727     -0.1847579894      0.2105565710      0.0309772455      0.0998036183
H       0.1870168007      2.6372459792     -1.4581774177     -0.0066721052      0.0007548138     -0.1626490691      0.1370666517
H       3.1575994183      0.3925864775      1.4630117706      0.0316896694     -0.0045013221      0.3224472642      0.0578137466
H       3.9832172142      1.3174940340      0.1987419008      0.2213313894      0.2265301986     -0.0075979702      0.0659200634
H       3.9006852048     -0.6963564478     -1.3033159119     -0.0960456611     -0.0243829803     -0.2439575604      0.1217622420
H       3.1268676174     -1.6164963561     -0.0081439126     -0.2270949024     -0.1858307518     -0.0532820914      0.0850315895
H      -1.2770109803      0.8826619858     -2.2518752898      0.0983323732      0.0142223596     -0.2187031693      0.1635261695
H      -1.1742470897      1.4257937082      1.9271367856      0.0780174862      0.0927972989      0.2038813607      0.0359214191
H      -2.8183777125     -0.7178535279      1.3269676524     -0.1244702440     -0.1607850101      0.1365436887      0.0300320751
H      -2.0948413828     -1.7958504890     -1.9693681498      0.1430969016     -0.1086729199     -0.0030191758      0.1814334868
H      -3.3774352052     -1.9352565863     -0.7336421516     -0.0341739907     -0.0713075873      0.2164077142      0.0928017296
H       5.1383283612     -1.2677417097      1.4438511741      0.0446572874     -0.0419610265      0.3388040614      0.0155313063
H       5.9143548877     -0.3500878566      0.1424110480      0.2600766548      0.2201071396     -0.0364158945      0.0205026090
H       5.5635631183     -2.0719049574     -0.0758562848      0.2265546399     -0.2908519131     -0.0741281054      0.0298879173
H      -4.6432553266     -0.0850027459     -1.9260679451     -0.2696911710      0.1583139547      0.1644941022      0.0392470185
H      -4.3929489528     -1.5154508718     -2.9468700261     -0.1609496458     -0.2122406256     -0.2192799751      0.0535891557
H      -3.3839452697     -0.0816530301     -3.1794067390      0.1066627917      0.1089575385     -0.2611184020      0.0805163412
P       0.5290551728     -0.7645826019     -3.5349944543      0.0334608356     -0.0551613132      0.2081603504      2.2294400282
F       0.8391472951     -0.4121403310     -5.0867357294      0.0338740225      0.0655088785     -0.2426660158     -0.4904037421
F       0.3904403315     -2.3530573427     -3.8589145028     -0.0452177754     -0.2377671728     -0.0547730130     -0.4982528253
F       2.1155944446     -0.9132851620     -3.1850121363      0.1726548502     -0.0203533579     -0.0140323352     -0.5054969852
F       0.1569820780     -1.0747497947     -1.9208801327      0.1169386721     -0.2033188135     -0.0574359316     -0.5328709406
F       0.6034330992      0.8708137784     -3.1453564653      0.0044816207      0.1350577411     -0.1207236790     -0.5378751796
F      -1.1174213274     -0.5629349137     -3.8030213033     -0.0462372804      0.0489086410     -0.1225730227     -0.5373006085
