52
Properties=species:S:1:pos:R:3:forces:R:3:charge:R:1 energy=-279.5459901705113 homo_lumo=5.020885088208128 dipole="-3.3552012535381275 0.01357300814621126 -0.5874792951868807" free_energy=-279.5459901705113
N       2.2557097867      0.2742334478     -0.3392527054     -0.2099855114     -0.2056039595     -0.2007728940     -0.5236676162
C       0.9695022163      1.0383295277     -0.4206416148     -0.2039962568      0.4731190347      0.1119251842      0.0219833710
C       2.7727103326      0.5973394095      1.0321451299      0.1879082523      0.3309391328      0.4139798221     -0.0568100039
C       1.2419683769      2.3565762563      0.2972188152     -0.0760069036     -0.1136595613     -0.0912930380     -0.1444088610
C       2.3711257098      2.0471585886      1.2917153355      0.0000749489     -0.0688760654     -0.0606815401     -0.1381639551
C       1.9856979173     -1.1904337238     -0.5197393000      0.5705786078     -0.4836535263      0.0346761099      0.0025830210
C       3.1876869020      0.7620570113     -1.3925875662      0.0775945378      0.0074932097     -0.1339937897      0.0194743313
C       3.2201035496     -2.0756975388     -0.3640565262     -0.5542392903     -0.0330156147     -0.0835638114     -0.3030756339
C       2.8201292737     -3.5450637556     -0.4745122550      0.0951316260      0.4321642954      0.0056301727     -0.0480750582
H       0.2045566165      0.4597556000      0.1025521520     -0.1020259221     -0.2138249666      0.1284770061      0.1215177470
H       0.6819591176      1.1555019316     -1.4658123032     -0.0849241362     -0.0655461288     -0.2596233235      0.1085694941
H       3.8489284925      0.4476343064      1.0654242626      0.1863800612     -0.1476463864     -0.0293317570      0.2742297365
H       2.2877634682     -0.0826148670      1.7355425762     -0.1606477215     -0.2272557014      0.0597995546      0.1074053858
H       0.3389081454      2.7021746453      0.8026825376     -0.2395184456      0.1357990328      0.0272706406      0.0960538980
H       1.5497917390      3.1272011770     -0.4122674391      0.0099704712      0.2177314886     -0.1540125170      0.0863153563
H       3.2187556675      2.7147719332      1.1331663425      0.1504002023      0.1157744083      0.0766320245      0.1234371525
H       2.0371083655      2.1617259008      2.3240669117      0.0031027821      0.0352795374      0.2534128648      0.0913928403
H       1.5480108942     -1.3088941197     -1.5154180276     -0.1501050197      0.0067727917     -0.2360933019      0.1198008054
H       1.2340369665     -1.4676173029      0.2252028962     -0.1955818683      0.0170108207      0.1829434251      0.1122015271
H       2.7576000781      0.5453056554     -2.3688346553     -0.2191679252     -0.0781339118     -0.2537268500      0.0479253914
H       3.3282270514      1.8327512322     -1.2746781572      0.0642309052      0.2337813332      0.0373579941      0.1167727938
H       4.1453512742      0.2613945535     -1.2889704199      0.1614354997     -0.0371663776      0.1149708291      0.2132901002
H       3.9581758505     -1.8452202673     -1.1345676297      0.1704061588      0.0573845470     -0.0709533306      0.1529916341
H       3.6807912537     -1.8992296358      0.6085497907      0.1128351487      0.0610610276      0.0989858874      0.1948391030
H       3.7075422967     -4.1656435214     -0.3584983576      0.2162262891     -0.2438199160      0.0294034684      0.0668869196
H       2.1037905422     -3.8105782785      0.3037656115     -0.2169065057     -0.1674034380      0.2320486590      0.0221277683
H       2.3741635845     -3.7530229524     -1.4478864769     -0.1421886549     -0.1528544129     -0.2904233545      0.0239368180
P       7.0089378874      0.3547631171      0.6924423600     -0.3806312090      0.0341417293      0.1407051275      1.6686209680
F       6.2264186112      1.1406473815      1.9582978150      0.0788451198      0.0527951076      0.0745619967     -0.5344077666
F       8.4437485452      1.0767182839      1.0913072775      0.0114111570     -0.1682681519     -0.1097574911     -0.5152485186
F       5.5138023360     -0.4074748749      0.2156200868      0.2932667481      0.2788922376      0.0999939898     -0.5635030445
C       7.2468380046     -1.0827692389      2.0142677228     -0.7561901731      0.5905488313     -0.6744505270      0.5605462322
C       6.3976790292      1.8984778852     -0.3853489485      0.8637371031     -0.2999790272      0.4944418616      0.5249092094
C       7.9304524928     -0.5383777239     -0.8401933864     -0.9643157000      0.0397774132      0.5940467628      0.6046866478
C       5.9573526210     -1.7581691143      2.5760750909      0.2513824323      0.5449320620     -0.5016704083      1.3901007463
C       7.2617134086      3.1843848164     -0.4319483896     -0.2203928563     -0.8009052158      0.2381623557      1.4066311970
C       7.1562494145     -1.6093732139     -1.6536203855      0.0464815834      0.6077093193      0.7316769902      1.4058292909
F       7.9004469809     -0.5663176663      3.0647889290      0.6042794357      0.4933211991      1.1154508710     -0.4372360904
F       7.9839029197     -2.1052260463      1.5464504182      0.7004872987     -1.1495602719     -0.2501336479     -0.4511967494
F       5.1935550396      2.3069700469      0.1039104684     -0.9361353571      0.6021528960      0.4376081412     -0.4821068953
F       6.1367911977      1.5348997816     -1.6581083029     -0.2236974317     -0.0685132487     -1.3091487449     -0.4682045144
F       9.0645596134     -1.1180402835     -0.4145038500      1.0759997805     -0.5797284379      0.2751662367     -0.4444540269
F       8.3041199552      0.4172011602     -1.7151196613      0.4970139187      0.6486764683     -0.9612234115     -0.4531966241
F       6.2088814138     -2.3458370362      3.7426833204      0.3900392869     -0.5836847315      1.1051277958     -0.4477593105
F       5.5222361337     -2.6998292841      1.7343820363     -0.2840744890     -0.9388520933     -0.7124560106     -0.4688190272
F       4.9407587212     -0.9095782272      2.7699847430     -0.7739970806      0.5955953725      0.4063171272     -0.4724240850
F       7.4101690894      3.6853627520      0.7896891516      0.0569936314      0.4317057467      1.1310627634     -0.4441013521
F       8.4600417223      2.9693946387     -0.9538621840      1.0090953486     -0.2042730610     -0.5441828635     -0.4419039149
F       6.6470562236      4.1097996087     -1.1799900670     -0.6763473451      0.8334479301     -0.7660163046     -0.4610344064
F       6.7199469828     -2.5900687235     -0.8636981895     -0.2243561881     -0.9014716805      0.6531262143     -0.4597649109
F       7.9220275247     -2.1510205018     -2.5964690208      0.8735575594     -0.4053090589     -0.8784280869     -0.4485296076
F       6.0847053277     -1.0795377666     -2.2603930637     -0.7634339034      0.4609979726     -0.7330248725     -0.4769675128
