52
Properties=species:S:1:pos:R:3:forces:R:3:charge:R:1 energy=-279.9378468380753 homo_lumo=4.842810861532073 dipole="-3.10869397285456 -2.6248097424125896 0.3189925593392463" free_energy=-279.9378468380753
N       0.8395094767      0.9974479211      0.6858987568      0.0003771072     -0.0037688344     -0.0026749103     -0.5121896089
C      -0.3800459322      1.6654221837      0.0842378875      0.0028811761      0.0015371448      0.0080513265      0.0036984438
C       0.2472915483     -0.2453122615      1.3113115120      0.0043683169      0.0004866936     -0.0009897535      0.0002312781
C      -1.4769656091      1.4925153961      1.1321289617      0.0021518252     -0.0015515774     -0.0043247064     -0.1562999538
C      -1.0861814879      0.2091827471      1.9137165043     -0.0034024706     -0.0046727374      0.0020088054     -0.1475895378
C       1.8526640495      0.6791378926     -0.3998426211     -0.0022257118      0.0030719327     -0.0039204962     -0.0587783399
C       1.4306979885      1.8863152507      1.7415510231     -0.0012824434     -0.0032624237     -0.0003522264      0.0135936648
C       3.0495608908     -0.1368505454      0.0536510006      0.0031171487     -0.0005550092      0.0032043257     -0.2603492030
C       3.9408824913     -0.4293711584     -1.1552072527     -0.0032394435      0.0021206675     -0.0069501064     -0.0874193793
H      -0.6115492450      1.1048804851     -0.8338165196      0.0072108232      0.0063933845     -0.0057363727      0.1284610033
H      -0.1289527974      2.7008157972     -0.1784260443      0.0087112262     -0.0005394424      0.0040652116      0.1559103545
H       0.9579489994     -0.6640911447      2.0338462459      0.0041485488      0.0006908355     -0.0024588752      0.1314603843
H       0.0990848743     -0.9624778734      0.4901443798      0.0084830670     -0.0029292192      0.0023133248      0.1332940496
H      -2.4570123303      1.4011332162      0.6435775071     -0.0046806260      0.0063019158      0.0001180268      0.1086693041
H      -1.5262242433      2.3636941055      1.8006665071     -0.0040333143      0.0003858959     -0.0059665769      0.1023316109
H      -0.9860822044      0.4171691764      2.9885364805     -0.0016202756     -0.0061527533     -0.0046754549      0.0987613691
H      -1.8362390522     -0.5868542926      1.8062022413      0.0033882908     -0.0022113366      0.0074421850      0.1096276995
H       2.1792783552      1.6461389401     -0.8060018919      0.0015147743     -0.0056423324     -0.0030077807      0.2387067986
H       1.2855365584      0.1378335469     -1.1753825380      0.0016708150      0.0023136993      0.0046455770      0.1065100443
H       1.7282793047      2.8299906001      1.2780813781      0.0068590477     -0.0081232000      0.0021749047      0.1875558783
H       0.6827452711      2.0557630607      2.5233061171     -0.0019901760      0.0044376086     -0.0023135012      0.0953957141
H       2.3158464391      1.4001296773      2.1633673344     -0.0038418675      0.0069720643      0.0003901500      0.1081987963
H       3.6358980857      0.4292849052      0.7926529834      0.0016851607      0.0024589912     -0.0058400447      0.1582886351
H       2.7229090880     -1.0854863242      0.5134047348      0.0008774823      0.0009625731      0.0038553917      0.0842894416
H       4.8203329550     -1.0115211838     -0.8481156690      0.0006952018      0.0007993556      0.0058261700      0.0564858699
H       3.3981984683     -1.0039475103     -1.9231056246      0.0045904506      0.0002630338     -0.0002825113      0.0289328315
H       4.3029478073      0.5071203080     -1.6025960280      0.0001000749     -0.0039259765      0.0032947771      0.1050453302
P       4.8422779562      4.2526877887      0.4338569497      0.0076374083     -0.0052139030      0.0030191375      1.7268579603
F       5.6314609596      3.5533965753      1.7226555423      0.0052867626      0.0056658973      0.0030327219     -0.5211584475
F       5.8128343423      5.5871010308      0.5082366350     -0.0025920516      0.0018474757     -0.0089016651     -0.5074314275
F       3.7947069077      2.9080943379      0.3046468167     -0.0002506610     -0.0052187233      0.0108868403     -0.5538078151
C       6.1216536981      3.2980091358     -0.7416455865     -0.0028668756      0.0097675698     -0.0049052447      0.5035568584
C       3.6101421382      4.9780911489      1.8208719366     -0.0135970104     -0.0074566810      0.0113237542      0.4890934683
C       3.9124184593      5.1431703182     -1.1168194259      0.0126360269      0.0212626241     -0.0007247505      0.5784651686
C       6.9482870471      2.1171609051     -0.1344309562     -0.0015447995     -0.0103494027      0.0086527965      1.3788652406
C       4.0593075236      6.2218800071      2.6452393106     -0.0073902816      0.0003257516     -0.0138812643      1.3831477784
C       2.6685726927      4.5291507399     -1.8381467806     -0.0071184900     -0.0161380065     -0.0085647879      1.3793879447
F       7.0736556580      4.1429521019     -1.2550823035     -0.0000646187      0.0092933424     -0.0077380145     -0.4342048275
F       5.4543605383      2.7318264590     -1.8175102438     -0.0054929156     -0.0108741153     -0.0006732329     -0.4617356455
F       3.3797730729      3.9912984861      2.7734452040     -0.0015573296     -0.0035429785      0.0029726458     -0.4601856993
F       2.3530035856      5.2879655266      1.3293127721     -0.0076953161      0.0079220646      0.0043799544     -0.4648561300
F       4.8232190466      5.3351703237     -2.1340775258     -0.0077916417     -0.0128953522     -0.0028250677     -0.4420410135
F       3.5063760381      6.4007979982     -0.7266749356     -0.0135922521      0.0003555883     -0.0036194264     -0.4441173291
F       7.6093959717      1.4778902645     -1.1451924794     -0.0056847297      0.0060921435     -0.0042609126     -0.4552769150
F       6.1622540413      1.1864475567      0.4718596736     -0.0122280503      0.0069734787     -0.0085709984     -0.4678295781
F       7.8750433524      2.5439332579      0.7466011920     -0.0079242982      0.0056173332     -0.0009249760     -0.4377542758
F       5.2251158127      5.9945907543      3.2853448259      0.0086651400     -0.0156420599      0.0062336906     -0.4394835632
F       4.1834643200      7.3223308834      1.8747116342     -0.0004419400     -0.0103483742     -0.0074390014     -0.4395996689
F       3.1101615832      6.4926920267      3.5947071127     -0.0024462764     -0.0073973332      0.0000008619     -0.4573102704
F       2.9441927637      3.3478433595     -2.4462227404      0.0078267521      0.0226474731      0.0022899540     -0.4602876908
F       2.2250091144      5.3851446376     -2.7951489097      0.0135773006      0.0044727311      0.0165968952     -0.4432224432
F       1.6172976469      4.3044121513     -0.9911940155      0.0081359391      0.0069725026      0.0057432306     -0.4818941581
