40
Properties=species:S:1:pos:R:3:forces:R:3:charge:R:1 energy=-214.8707054310803 homo_lumo=3.4810656127694215 dipole="-0.7600703900860586 -0.5913745921311733 -2.103117498567598" free_energy=-214.8707054310803
N      -0.5746387311      0.3051278461     -0.1121085981     -0.1769613710      0.1263149049     -0.2368300306     -0.4957076350
C      -1.3016326285     -0.3624933687     -1.2425923196     -0.1886200785     -0.5622704971     -0.0078401952      0.0061654767
C      -1.5792240998      0.7402541972      0.9218930310     -0.5134742552     -0.2358471905      0.2943341056     -0.0305620338
C       0.4347631957     -0.6113855483      0.5259669613      0.5313589455     -0.3016034309     -0.5464151684     -0.0741187642
C       0.0810130075      1.5333615336     -0.6912471468      0.5091945846      0.3407650622      0.4027097730     -0.0130189216
C      -2.1635320287     -1.5368121228     -0.7926868705     -0.1625162859      0.4800257667      0.0884420874     -0.1594064223
C      -2.4562683333     -0.4013428405      1.4134155069     -0.0643092951      0.1140343719     -0.5828211301     -0.1457830381
C      -3.1787626020     -1.0907605217      0.2587317646      0.4378145643     -0.1213339537      0.1300250965     -0.1478545597
C       1.5986011933     -1.0206594120     -0.3692967336     -0.3478145595     -0.1183569796      0.4754916147     -0.2119608510
C       0.9483867647      2.3390078956      0.2744845634     -0.2269621220      0.1162775865     -0.6708722366     -0.2363978340
C       2.5223910144     -1.9522704335      0.4258702494      0.1205107056      0.1895852900     -0.5623766704     -0.1936562877
C       1.4876040920      3.5710387743     -0.4493604178     -0.1521019021     -0.3834991060      0.1129191256     -0.0400048683
C       3.7306480368     -2.3735784618     -0.4070130278     -0.3387825021      0.0371955681      0.3062773152     -0.0445970340
H      -0.5590452192     -0.6883678995     -1.9735979895      0.2020734128      0.0208543989     -0.1684817285      0.1285661128
H      -1.9339053581      0.4006299792     -1.7054013665     -0.1120283781      0.2288499228     -0.0800470911      0.1176226626
H      -2.1927350698      1.5193007591      0.4613341163     -0.1469408342      0.1725934836     -0.2685382122      0.0846480756
H      -1.0170358096      1.1523569661      1.7681802386      0.3988838497      0.1234357456      0.3796527757      0.2047947250
H      -0.1008389394     -1.5031504669      0.8528491787     -0.1275648882     -0.0951601046      0.0859484608      0.1542101420
H       0.7994103422     -0.0918624061      1.4213210003     -0.0591651912      0.2520787707      0.5227020604      0.2206697341
H      -0.7292900169      2.1629654442     -1.0707479387     -0.2502518723      0.0733328852     -0.0945478734      0.1182113132
H       0.6775346518      1.2032817252     -1.5462945312      0.0849646534     -0.1344401470     -0.2188819060      0.1212678842
H      -1.5402618010     -2.3438293481     -0.3996900893      0.1670344123     -0.2411294849      0.0496536049      0.0993954599
H      -2.6817355073     -1.9188319104     -1.6765157428     -0.0529806785     -0.1635553450     -0.2674704413      0.0922114429
H      -3.1856586702      0.0285793146      2.1043204288     -0.0769889879      0.1219915707      0.2849527759      0.1008342060
H      -1.8602347721     -1.1248542522      1.9746249280      0.1638153759     -0.0868341209      0.2713583689      0.1046470461
H      -3.8948323096     -0.3986512843     -0.1967470549     -0.2293422425      0.1759000906     -0.1342596432      0.0741409346
H      -3.7311040290     -1.9580927770      0.6274444851     -0.2519228339     -0.2132885693      0.0567581392      0.0758342228
H       2.1709506236     -0.1462711629     -0.6891228683      0.1742554422      0.2292662834     -0.0882324782      0.1097970024
H       1.2448094924     -1.5402074067     -1.2659541920      0.0150414306     -0.1761851435     -0.3071254587      0.0806716051
H       0.3686501482      2.6522301871      1.1434702561     -0.0146097660     -0.1008916208      0.3370207166      0.1448471455
H       1.7839341272      1.7377640714      0.6357250599      0.0949483947     -0.1493945046      0.2534401318      0.1310542036
H       1.9634437496     -2.8410733031      0.7364771534     -0.1509023915     -0.1963825274      0.1484375866      0.0803241098
H       2.8620915215     -1.4369936961      1.3289181421     -0.0168855886      0.1193147933      0.2873845255      0.1133472069
H       2.1127510652      4.1446967241      0.2332732342      0.1972197554      0.2197266101      0.1663490141      0.0505326114
H       2.0888683154      3.2819388814     -1.3128091383      0.2246935551      0.0083682799     -0.3109475868      0.0167577743
H       0.6701971865      4.2077878940     -0.7906963367     -0.2071464298      0.2672174441     -0.1387932793      0.0181311020
H       4.3121678050     -1.5007410545     -0.7061895541      0.2166472842      0.2390431946     -0.1118539300      0.0292348930
H       3.4121561914     -2.9041476154     -1.3056842222     -0.0340043411     -0.1705339437     -0.2966684888      0.0205984261
H       4.3710112652     -3.0334060856      0.1777468159      0.2862915727     -0.2192078389      0.0961286876      0.0378615305
Cl      0.6004394087      1.0796381870      3.2524210499      0.0775288564      0.0137424845      0.3430175828     -0.7433087996
