40
Properties=species:S:1:pos:R:3:forces:R:3:charge:R:1 energy=-214.84131875064338 homo_lumo=3.3092281949498545 dipole="-0.7243848189464054 2.3554910951401133 0.9079904361910497" free_energy=-214.84131875064338
N      -0.7582902990      0.2412359480     -0.1592827752     -0.0025050873      0.0131117342     -0.0009340401     -0.4815877619
C      -1.4509725320     -0.5394047926     -1.2810351251     -0.0086395016     -0.0051787142     -0.0112790327     -0.0258027256
C      -1.7951481370      0.7537016569      0.8159260143     -0.0107376429      0.0077080569      0.0031942271     -0.0053188060
C       0.2515497877     -0.6530139547      0.5778482148      0.0042323585     -0.0145710075      0.0042111168     -0.0499440486
C      -0.0714916493      1.4250683012     -0.7992849584      0.0043827126      0.0190639289     -0.0049856813     -0.0095185336
C      -2.4353919591     -1.5786198411     -0.7786039992      0.0053227037     -0.0055899441     -0.0033511566     -0.1609604544
C      -2.7020391647     -0.3385330816      1.3543413785      0.0072572658      0.0030485291      0.0089210553     -0.1539879665
C      -3.4469073267     -1.0219315578      0.2122389403     -0.0022757385      0.0055262688     -0.0048641391     -0.1562895142
C       1.6257636076     -0.7588741688     -0.0569774132      0.0016823298      0.0017251823     -0.0045150259     -0.2152428859
C       0.5894531176      2.3966775360      0.1689552854     -0.0062827844     -0.0123964298      0.0148731060     -0.2524453195
C       2.4284713586     -1.8340637648      0.6820505035     -0.0040548576      0.0015045705      0.0093972048     -0.1862817594
C       1.5289161987      3.3293222017     -0.5934152015     -0.0063551808     -0.0060310796      0.0012710683     -0.0628461393
C       3.8237540660     -1.9910210617      0.0866846518     -0.0034813621      0.0044711775     -0.0016406584     -0.0615589035
H      -0.6571866466     -1.0737890219     -1.8405702248      0.0039018333     -0.0146743053      0.0136020644      0.1742991031
H      -1.9493957038      0.2262648975     -1.8984629163      0.0100448720     -0.0056924750      0.0036307871      0.0928007307
H      -2.3901007367      1.5006884145      0.2623511644      0.0002462651     -0.0061913595     -0.0016778213      0.1233539134
H      -1.2512633361      1.2644619534      1.6220178301     -0.0002832110      0.0050250493     -0.0009625835      0.1302321807
H      -0.1816345290     -1.6652980069      0.5755219929     -0.0045066327     -0.0101508876     -0.0164548790      0.2051282929
H       0.3125906118     -0.2633397966      1.6061636667     -0.0019842098     -0.0066736457      0.0047727527      0.0962625569
H      -0.8413803579      1.9428560630     -1.3930290024      0.0017539048     -0.0035745223      0.0067474043      0.1193393708
H       0.6618645433      1.0025561345     -1.5003618107     -0.0014169342     -0.0033098553     -0.0005623623      0.1673385103
H      -1.8564899012     -2.4273963645     -0.3709036802     -0.0066709753     -0.0073213911     -0.0098360843      0.1348175008
H      -2.9234676851     -1.9918445554     -1.6767661880     -0.0023473087      0.0005867410     -0.0022570354      0.1096910698
H      -3.3958228604      0.1344314726      2.0689906795     -0.0042941333      0.0032325969      0.0065993473      0.0914512577
H      -2.1111633490     -1.0782723405      1.9207564623     -0.0051121118      0.0008220535      0.0060713289      0.1104508123
H      -4.1109350543     -0.2855961405     -0.2796803617     -0.0124124400      0.0074247180      0.0026594711      0.0670249298
H      -4.0890162704     -1.8285785275      0.5994035572     -0.0031824748     -0.0112263507      0.0040347237      0.0829712695
H       2.1755229708      0.1976025877     -0.0315781619     -0.0051234835      0.0024104660      0.0006934478      0.0990171648
H       1.5107689776     -1.1143916200     -1.0966201978     -0.0095500674     -0.0178148807     -0.0015281376      0.1345676883
H      -0.1748545602      2.9924357132      0.6945782164      0.0093814896     -0.0000230294      0.0008616487      0.0998849201
H       1.1590391087      1.8471040796      0.9354189439      0.0048325785      0.0050616995     -0.0038157079      0.1220206470
H       1.8744855338     -2.7820228325      0.5612156732      0.0020498559      0.0021889344      0.0081378656      0.1313602876
H       2.4935385316     -1.5929994988      1.7600703313      0.0049216127      0.0167411440      0.0019863178      0.0504336882
H       1.9861400986      4.0629704227      0.0848196285      0.0096266212      0.0132715315      0.0060140676      0.0479627451
H       2.3372255288      2.7587056985     -1.0755596732      0.0136337997      0.0001885189     -0.0096568957      0.0521172058
H       0.9896535792      3.8826884357     -1.3777584541     -0.0011593319      0.0115490086     -0.0100652188      0.0406617892
H       4.3974546553     -1.0507712145      0.1388273589      0.0064845907      0.0030018893     -0.0034656179      0.0093080272
H       3.7436682139     -2.2940203112     -0.9690861526     -0.0022171905     -0.0040537824     -0.0028947429      0.0520608299
H       4.3952721413     -2.7674425498      0.6171309725      0.0044102012     -0.0021486322      0.0032941443      0.0336019160
Cl      0.2369074278     -3.3258544620     -1.4965694255      0.0104276652      0.0089584936     -0.0162263289     -0.7563735894
