40
Properties=species:S:1:pos:R:3:forces:R:3:charge:R:1 energy=-214.98758375910478 homo_lumo=3.430994780767132 dipole="-0.5485934375512403 -0.5984636880929064 -2.2348728387574726" free_energy=-214.98758375910478
N      -0.7197546002      0.2415249185     -0.1377546413      0.0092586553      0.0036571858     -0.0016867104     -0.4830822226
C      -1.3042516361     -0.4664329169     -1.3406685100      0.0014289486      0.0131476750     -0.0073357242      0.0002398195
C      -1.8389584933      0.5939869605      0.8390164247      0.0059040932      0.0015345317     -0.0015592546     -0.0457273097
C       0.3047653370     -0.6220979439      0.5829816190     -0.0083389646     -0.0040528561      0.0115674424     -0.0835052734
C      -0.0894924530      1.5268927331     -0.6444215821     -0.0045194795      0.0017316887     -0.0142469763     -0.0171504395
C      -2.1214166553     -1.6942157232     -0.9745726193     -0.0015278778     -0.0080646461      0.0025916719     -0.1686720027
C      -2.6756210762     -0.6137647587      1.2184465100      0.0015642683      0.0039320370      0.0070698525     -0.1564937941
C      -3.2435778617     -1.3377967042      0.0003227483     -0.0076377270      0.0056184062      0.0011496556     -0.1606286393
C       1.5583250636     -0.9364784288     -0.2082180930      0.0102014255      0.0057076657     -0.0111932412     -0.2190028094
C       0.6187265662      2.3758525527      0.3937820243      0.0038245018     -0.0057791628      0.0089732188     -0.2428325475
C       2.4809438152     -1.8170534278      0.6403427465     -0.0033376111     -0.0003177163      0.0126885179     -0.1994030922
C       1.1915932437      3.6255363909     -0.2709945252     -0.0000993521      0.0000926238     -0.0075012145     -0.0633707138
C       3.7793609103     -2.1565036177     -0.0835883625      0.0004110279      0.0051975787     -0.0027571673     -0.0667892024
H      -0.4690340964     -0.7117626270     -2.0119002186     -0.0038451253      0.0037416063     -0.0006426620      0.1304762674
H      -1.9434947279      0.2777601233     -1.8438317155     -0.0011920667     -0.0009237487      0.0023613331      0.1209685792
H      -2.4505556756      1.3522951360      0.3216492107      0.0040000635      0.0068753346      0.0041304369      0.0909550865
H      -1.3402909503      1.0088068393      1.7479895494      0.0008733380     -0.0079747693     -0.0006284809      0.2049006682
H      -0.2124538207     -1.5524880846      0.8466626079     -0.0020126776     -0.0021297222     -0.0021526190      0.1626408481
H       0.5130014817     -0.0934496721      1.5467703725     -0.0132280583     -0.0075745844      0.0000583607      0.2127975277
H      -0.9164153263      2.0924947142     -1.1063308618      0.0070947373     -0.0076114329     -0.0015247082      0.1194109375
H       0.6016308429      1.2314518069     -1.4504898968     -0.0124547086      0.0000931635     -0.0009537572      0.1248799814
H      -1.4697113391     -2.4726691647     -0.5438269384     -0.0021203700     -0.0048008266     -0.0054656177      0.1038195612
H      -2.5273433652     -2.1107544459     -1.9117858539     -0.0012344522     -0.0039513410     -0.0054625868      0.0975167348
H      -3.4824589013     -0.2430295353      1.8717517920     -0.0057805008      0.0037051885      0.0033392336      0.1098060628
H      -2.0764279558     -1.2925832444      1.8481279239     -0.0053497401      0.0071273322      0.0091837529      0.1097716308
H      -3.9691200053     -0.6788004897     -0.5120835158     -0.0077872317     -0.0042978261     -0.0037747152      0.0810792990
H      -3.7895747665     -2.2458751019      0.3020205081     -0.0041019887     -0.0036147923      0.0026884742      0.0811243494
H       2.1034576784     -0.0133754781     -0.4694688354     -0.0006286093     -0.0017171062      0.0088440252      0.1139004061
H       1.3333869992     -1.4648838210     -1.1543278432      0.0135474332      0.0134325089      0.0077868858      0.0828859906
H      -0.0613996836      2.6476783676      1.2156852675      0.0130425906     -0.0117387966     -0.0042022050      0.1449559944
H       1.4199043256      1.8066545337      0.8887220759     -0.0014260409     -0.0005592100     -0.0088825723      0.1395359204
H       1.9489748704     -2.7472243791      0.9105199260      0.0048271531      0.0074529809     -0.0000813016      0.0852244829
H       2.6942573792     -1.2947496229      1.5893046567     -0.0037014090     -0.0021116849     -0.0015696001      0.1187769121
H       1.7008977118      4.2470426170      0.4794306629      0.0006042283      0.0003151463     -0.0049482942      0.0576681892
H       1.9253715072      3.3700277129     -1.0530734363     -0.0011701154      0.0127941718     -0.0058761024      0.0251619412
H       0.4002346141      4.2377099659     -0.7333925354      0.0072358693      0.0035101376     -0.0045593556      0.0257683176
H       4.3402078680     -1.2420289163     -0.3353841028      0.0030689898     -0.0029830032      0.0022606616      0.0357941027
H       3.5801652836     -2.6993468902     -1.0224117081      0.0084120079      0.0019272351      0.0027599803      0.0267812501
H       4.4291174627     -2.7881213707      0.5405537172      0.0069139447     -0.0017015374      0.0029491958      0.0450429562
Cl      0.1296275850      1.0159247859      3.4322962373     -0.0107191694     -0.0196894352      0.0066021678     -0.7452257705
