46
Properties=species:S:1:pos:R:3:forces:R:3:charge:R:1 energy=-256.9010337206143 homo_lumo=0.958644838756699 dipole="-5.818839070898232 -0.030601421945583178 -3.2018638176739387" free_energy=-256.9010337206143
N       0.3759202058     -1.6122998361      0.3268368781     -0.8979574028      0.4366533091      0.7810031825     -0.5009837914
N      -1.7517406986     -0.9646694250      0.2774628855      0.7645830222     -0.0206072779      0.8427996187     -0.5139620887
C       1.7769769119     -1.7163588798      0.7335077750      1.1759117865     -0.1825020590      0.2548724583     -0.0432555804
C       2.6549468771     -0.7348506939     -0.0550317916     -0.2108427611      0.2985453919      0.0702087849     -0.2066887652
C      -2.9902671148     -0.2690738964      0.6251751315     -0.8836466014      0.3702043720      0.0783394133     -0.0263688396
C      -0.6088085406     -0.9758374361      0.9908172120      0.3589822727      0.6866501971      1.1124633243      0.5677385797
C       2.2451184047      0.7241310992      0.1948470425      0.0808676749     -0.0960733091     -0.0867590328     -0.2650677120
C      -0.1639815171     -2.0249640568     -0.8380463269     -0.8716311237     -0.2879318806     -1.3253389834      0.2419834548
C      -1.4853366144     -1.6258689275     -0.8673375280      0.5385485866     -0.7623636515     -1.4753206240      0.2256430504
C      -3.2096374131      0.9541301901     -0.2751051693      0.1650445201      0.2102889897     -0.0870121717     -0.2389405853
C       3.1637925596      1.6967193202     -0.5361651831      0.0770684782      0.2558574386     -0.0449805956     -0.0928014077
C      -2.0688671261      1.9648281950     -0.1621732579      0.0555785292      0.0299469945     -0.1039963888     -0.1295850253
H       1.8750990695     -1.5078006178      1.8217929541     -0.2534680243     -0.0949133128     -0.3486192812      0.1613685475
H       2.1338456737     -2.7542692297      0.5588747805     -0.3858934365      0.2205748473      0.0981803873      0.1412492900
H       2.5831515489     -0.9652962562     -1.1404943376      0.0863091772      0.0315612299      0.1945388596      0.0925546677
H       3.7124073361     -0.8789336224      0.2582168928     -0.2968049316     -0.0556469900      0.0242680269      0.1820712397
H      -2.9594357054      0.0577756358      1.6880414021      0.2497983742     -0.2983158249     -0.3388084854      0.1305988991
H      -3.8477335821     -0.9670553455      0.5134429571      0.4044573145     -0.0078530234      0.0840822320      0.1377794204
H      -0.4787047123     -0.4769418636      1.9431952720      0.0152844856     -0.0593395536      0.0757104174      0.1123767000
H       1.2091473921      0.8903097388     -0.1675445661      0.0408811573     -0.0544946384      0.1525096018      0.1282234333
H       2.2780058726      0.9444167582      1.2841780032     -0.0236672711     -0.1283559736     -0.1883368026      0.1088514498
H       0.3700653202     -2.5495089306     -1.6197079688      0.2096793043     -0.0849044374      0.1167777873      0.0648963584
H      -2.1888943739     -1.7772532587     -1.6758438916     -0.2017315367      0.0411561111      0.1076508302      0.0599205229
H      -3.3099156702      0.6300584623     -1.3333464266     -0.1217594759      0.0448716270      0.2484089751      0.1138931340
H      -4.1580429834      1.4520197625      0.0213270490      0.1349491449     -0.3506868133     -0.0611101837      0.1231929446
H       3.1280120448      1.5133998366     -1.6308747656      0.0521621000      0.1012940482      0.2520498849      0.0220678823
H       4.2081107228      1.5854382780     -0.1811699729     -0.2345985023      0.0377606887     -0.0610474109      0.1107318478
H       2.8312863079      2.7376029397     -0.3376546567      0.1964589888     -0.2520788818     -0.1454578768      0.0411299595
H      -1.1301454699      1.5336691179     -0.5680050235     -0.1627700604      0.2309121026      0.1677471784      0.1000803379
H      -1.9112639888      2.2581600390      0.8976059492      0.0365121340     -0.0025311646     -0.3182945519      0.0536504575
H      -2.3169613459      2.8724089234     -0.7511032385      0.1877041037     -0.2313427544      0.2098182040      0.0740453280
N       5.3455849583     -1.0184900925      3.2201936163     -0.5001042158     -0.0624485550     -0.4919777767     -0.9046469499
S       5.2666360576     -1.5093069759      4.7820362445      5.4038924718     -4.8796434111     -1.1175267777      1.5634289825
S       6.5116799811     -0.0068220694      2.6685448181     -2.7799768083      5.3572284753      3.7669750276      1.5785632252
C       4.2100686908     -0.3996404610      5.6895503781     -0.6522172532      1.4395615105      0.9197769871      1.1509286357
C       7.7801062834     -0.9632598989      1.8647888215      1.4207217160     -1.2909092021     -0.5029787526      1.1562345983
O       4.6796262391     -2.8908719735      4.8376179701     -0.8043550832      2.3873813082     -0.2536148478     -0.7353991303
O       6.6357943723     -1.5197574781      5.4035514355     -2.2637378063      1.0076935313     -0.1065227129     -0.7160820957
O       7.1145063566      0.7810171061      3.7984046083      0.2646308621     -1.6990945468     -1.7652143567     -0.7189072594
O       5.9133001972      0.9362848835      1.6659153580      0.6700384605     -2.1454424413     -0.1206201260     -0.7651784460
F       4.1251355372     -0.8125620619      7.0053762744     -0.1220825818      0.5093603056     -1.1239784199     -0.4271613461
F       2.9482063880     -0.4022670588      5.1266985587      0.3982122308      0.2593635333      0.5429125204     -0.4503691183
F       4.7278011220      0.8803365490      5.6445573044     -0.8145431881     -1.0283680445      0.2425066138     -0.4208655167
F       8.7645166378     -0.1194160431      1.3872023515     -0.7942501155     -0.8874795359      0.3080931107     -0.4271792456
F       7.2292614336     -1.6661142982      0.8103500724      0.6302322901      0.2905744631      0.5011592276     -0.4404908052
F       8.3355963489     -1.8509559245      2.7659151785     -0.3424710062      0.7158868078     -1.0853364951     -0.4192692381
