54
Properties=species:S:1:pos:R:3:forces:R:3:charge:R:1 energy=-295.70081924312814 homo_lumo=5.276563006447354 dipole="-0.9324280008564662 3.098462091389147 0.1860077980442705" free_energy=-295.70081924312814
N      -2.6043287799     -0.0352409504     -0.6074618677      0.0036985788      0.0058465079     -0.0033901309     -0.4846177743
C      -3.0026239535     -0.8895032699     -1.8215194129     -0.0088520838     -0.0067454829      0.0035115300     -0.0309852608
C      -3.8182830432     -0.1066032969      0.3009820688     -0.0052900140     -0.0090054211     -0.0031754490     -0.0010929090
C      -1.4110918778     -0.6719015654      0.1013070250     -0.0092270523     -0.0069291272      0.0026448588     -0.0790075492
C      -4.1483266477     -1.8045490445     -1.3594161022      0.0035722575      0.0005244145     -0.0048754869     -0.1604309959
C      -4.3203200768     -1.5295408922      0.1432775291      0.0014202865     -0.0026406183      0.0039792467     -0.1636872586
C      -2.3056322874      1.3789857123     -1.0362673834     -0.0008943628     -0.0016811106      0.0009806928     -0.0595925821
C      -0.0895593143     -0.5179016915     -0.6276553690      0.0072070392     -0.0003921279     -0.0091388563     -0.2291771734
C      -1.9373816613      2.3066308131      0.1045646495     -0.0141886652     -0.0079881331      0.0101383743     -0.0919976393
C       0.9675130854     -1.4176073937      0.0204175672      0.0039744446      0.0031965479     -0.0010074150     -0.1994272703
C       2.2496563190     -1.4943805700     -0.8018385803      0.0029380009      0.0049689231     -0.0068938357     -0.1689839113
C       3.2443950846     -2.5051183601     -0.2361256444      0.0049486807      0.0015485678      0.0041708067     -0.2150089682
C       4.5108002486     -2.6094049260     -1.0804801491      0.0021103583      0.0121586937     -0.0121050187     -0.0642486788
H      -2.1199238570     -1.4491403644     -2.1552782671      0.0057265546     -0.0036021017      0.0011418265      0.2355492919
H      -3.3122401327     -0.1922772157     -2.6122830359     -0.0042425021      0.0013182168     -0.0009410230      0.0961485935
H      -4.5457232787      0.6206079873     -0.0958248149     -0.0034535145     -0.0014916214     -0.0029419562      0.1209051140
H      -3.5287221164      0.1786046830      1.3203448081      0.0025652095     -0.0038826827     -0.0000385868      0.1129965211
H      -1.6587227400     -1.7393679318      0.1811905495      0.0049142466     -0.0001135132     -0.0045879508      0.2681941644
H      -1.3739864949     -0.2355077107      1.1107521951     -0.0053752983     -0.0038378999     -0.0012404447      0.1125654142
H      -3.8970442530     -2.8583336907     -1.5383121680      0.0023488969     -0.0047637180     -0.0022565032      0.1557065386
H      -5.0693314132     -1.5556510973     -1.9084502406     -0.0019816946     -0.0008755426     -0.0040211568      0.0771314340
H      -5.3647994039     -1.6185504134      0.4743724444     -0.0048756630     -0.0044595072     -0.0051541597      0.0890154589
H      -3.7285681033     -2.2426007758      0.7358767042      0.0017047729      0.0015260993     -0.0016117183      0.1647056723
H      -1.4949677927      1.3126215234     -1.7757941287     -0.0074956886     -0.0028151608     -0.0018499050      0.1570301172
H      -3.2093317985      1.7330188534     -1.5551816406     -0.0119343571     -0.0026965344      0.0014553016      0.1214801674
H      -0.2013217673     -0.8350017249     -1.6769226762      0.0063872259     -0.0008620499      0.0073252777      0.1467404317
H       0.2613922916      0.5285010187     -0.6211339644     -0.0017603094      0.0008590340     -0.0006790594      0.0852512902
H      -1.7349698688      3.3040175463     -0.3126664876     -0.0049790919      0.0116161889     -0.0038083437      0.0771728421
H      -2.7545219994      2.4106918979      0.8327114872      0.0013566118      0.0010081613     -0.0028928506      0.0583303772
H      -1.0307361482      1.9789412893      0.6306509015     -0.0032356114      0.0007906815     -0.0038502953      0.0679910544
H       0.5575337577     -2.4333729848      0.1183361583      0.0047605233      0.0029196124     -0.0063804250      0.1859315184
H       1.1886793859     -1.0691373327      1.0464592956      0.0012772551     -0.0037672467     -0.0028478156      0.0653277205
H       2.7225047992     -0.4951451910     -0.8667517079      0.0003028760     -0.0004969003     -0.0076164845      0.0614869068
H       1.9863138074     -1.7957130044     -1.8325046133     -0.0004959784      0.0014183955     -0.0002626207      0.1121401267
H       3.5052198421     -2.2275007573      0.8023210391     -0.0030795073      0.0017950448     -0.0060719463      0.0688149101
H       2.7492864959     -3.4905874189     -0.1894095698     -0.0045330852      0.0016693576     -0.0034975261      0.1295775504
H       5.0377385605     -1.6420096608     -1.1294650505      0.0013824861     -0.0070731633     -0.0006747628      0.0211971601
H       5.2076143389     -3.3552854821     -0.6696673719      0.0118372533     -0.0036844431      0.0047463786      0.0339931495
H       4.2631695385     -2.9112340887     -2.1110963344      0.0041667398     -0.0034263822      0.0030833829      0.0395406833
N      -1.6416580020     -3.8534531233     -0.7891086047     -0.0095142583      0.0105842102      0.0078262512     -0.9215331441
S      -1.9559416846     -4.9662068962      0.3467134661     -0.0035645060     -0.0047724366      0.0254223973      1.6339241415
S      -0.6115763726     -4.0945638409     -2.0136313294      0.0083947799     -0.0041209758     -0.0160633838      1.6323239354
C      -0.7003276611     -4.6341769076      1.7221642364      0.0139086520      0.0174263493     -0.0095393231      1.1708029708
C      -1.4284492502     -5.3518501135     -3.1867803731      0.0059485893     -0.0184979673      0.0227851750      1.1751189878
O      -3.2119115144     -4.5595495070      0.9735381620      0.0166341935      0.0114377842      0.0052391246     -0.7537762701
O      -1.7227561498     -6.3474963010     -0.0435855647      0.0153598831      0.0108519167      0.0210452944     -0.7164556315
O       0.6783930775     -4.6781855519     -1.6716522425     -0.0127439060     -0.0176136816     -0.0033898905     -0.7241434362
O      -0.6520046134     -2.8554615026     -2.8014369199     -0.0058667646     -0.0061987996      0.0107927734     -0.7836499617
F      -0.9693194488     -5.4474284255      2.7680887005      0.0079301015      0.0034472495      0.0091968621     -0.4337488446
F      -0.7995677900     -3.3421610311      2.1562257778      0.0131636788      0.0099641125      0.0116949027     -0.4599454374
F       0.5685285215     -4.8467682787      1.3202654949      0.0074419920      0.0026760482      0.0067094687     -0.4369184743
F      -0.9698565946     -5.1140412150     -4.4397295558     -0.0072051760     -0.0044977384     -0.0135129985     -0.4349508106
F      -2.7770509431     -5.1980137221     -3.1878089945     -0.0167758169      0.0083678025     -0.0046412956     -0.4435208854
F      -1.1290951820     -6.6171858538     -2.8533654467     -0.0158172609      0.0110121680     -0.0129313074     -0.4201933774
