54
Properties=species:S:1:pos:R:3:forces:R:3:charge:R:1 energy=-292.67700845933166 homo_lumo=2.7902197040316166 dipole="-0.046590658820812876 6.433459146440511 1.5144109101132328" free_energy=-292.67700845933166
N      -1.8930117249      0.1360567956     -0.0466265077      0.0984006173      0.2241251245      0.0089408232     -0.5235146409
C      -2.1175348670     -1.0755039696     -0.8935853137      0.1601796534     -2.0089324363     -1.5064680511     -0.0354296260
C      -3.0118927901      0.1256088382      0.9461055227     -1.6900033573      0.5364703751      1.6883334806     -0.0112069326
C      -0.5852374488      0.0291275075      0.6794985182      1.6706653150     -0.0000707095      0.3822503347     -0.0492449237
C      -3.4969516139     -1.6225995793     -0.5802780047     -0.5978618434     -0.0658038642     -0.6034516458     -0.1508338811
C      -3.7247646033     -1.2084647543      0.8449319252     -0.0010044300     -0.5135856561      0.6668560015     -0.1408426311
C      -1.9745478426      1.3647214467     -0.9018393588      0.0209808385      1.6251154624     -0.7303626324     -0.0863145395
C       0.6654312247      0.0351182439     -0.2330670031     -0.4431475541     -0.0109147981      0.1013239133     -0.2183583128
C      -1.7389111793      2.6862171953     -0.1475669097      0.1028046538     -0.2539615134      0.1162497158     -0.1202872196
C       1.9384479555     -0.1875617462      0.5941005951     -0.1788519805      0.0040173091     -0.1207286314     -0.1704111881
C       3.1873162451     -0.2064391939     -0.2955732511     -0.0346297005     -0.0518818317      0.3797247929     -0.1738368413
C       4.4563767971     -0.3691977863      0.5493485664      0.0452461499      0.0075156073     -0.2083631839     -0.2095923546
C       5.7048393419     -0.4008277041     -0.3268097191      0.2399098761     -0.0342702290      0.0945842830     -0.0866839915
H      -1.3911402646     -1.8892644205     -0.6655059370      0.0314052913      0.6535757436      0.1141304631      0.1904035418
H      -2.0300723976     -0.8726041355     -1.9855366435      0.2407686361      0.2479477008      0.5842066317      0.1518940159
H      -3.7722707362      0.9119151042      0.7333071603      0.6835651410     -0.0474892030     -0.2650213997      0.1465528937
H      -2.6735820422      0.2931105865      1.9942906903      0.2573854989      0.1416236256     -0.6265737758      0.1391038381
H      -0.5726368114     -0.9082844650      1.2833680336     -0.3916921929      0.2414203186     -0.3907622906      0.1656028602
H      -0.4820380850      0.8556531531      1.4171697185     -0.3662449897     -0.1281800451     -0.3735267782      0.1546450916
H      -3.5448533505     -2.7267385919     -0.6923394170      0.0344258454      0.4095775462     -0.2403917403      0.1561912436
H      -4.2534328182     -1.1433661198     -1.2407614264      0.1476060074     -0.2779697234      0.1235984290      0.0946730901
H      -4.8083305109     -1.1211575030      1.0778451419      0.4645664796     -0.0466152380      0.1535985464      0.1042419408
H      -3.2505823019     -1.9436931516      1.5324139729     -0.2794080408      0.1545133394     -0.1383082037      0.1180622801
H      -1.2482294881      1.3128291208     -1.7419987651     -0.1154175072     -0.3910909146      0.4446276295      0.1656246883
H      -2.9772456493      1.4231340077     -1.3849503677      0.2516246897     -0.4918919777      0.3686014539      0.1575988788
H       0.5913072234     -0.7616407860     -1.0025606498     -0.0167756825      0.1916899439      0.1229737233      0.1413265959
H       0.7581847437      1.0131250868     -0.7488652366     -0.0754896286     -0.2164466103      0.0178618712      0.1198422982
H      -1.9612321028      3.5365769441     -0.8261421559      0.0370583102     -0.3279342285      0.1590770659      0.0912304415
H      -2.3972245372      2.7762853940      0.7401831936      0.1969645863      0.0370847062     -0.2252991603      0.0714559608
H      -0.6809709837      2.7829702502      0.1700607207     -0.3160365994      0.0154042011     -0.0298082686      0.0782208561
H       1.8634168505     -1.1559641504      1.1362421814      0.0330821417      0.2591718018     -0.0415689090      0.1077580173
H       2.0332374676      0.6298892750      1.3428904902      0.0056775034     -0.2424720141     -0.0673324092      0.0893826731
H       3.2482029603      0.7445773216     -0.8695598462     -0.0110369686     -0.2452117958      0.0324786722      0.0867884587
H       3.1122035444     -1.0508091443     -1.0161269002      0.0186766763      0.2565508020      0.0921806262      0.1106051242
H       4.5413093407      0.4788988836      1.2635152176     -0.1101857776     -0.2405615289     -0.0496430499      0.0849973697
H       4.4014431191     -1.3151988053      1.1311111828     -0.0704828668      0.2743057201     -0.0342866664      0.0985305743
H       5.7934814790      0.5424555427     -0.9067843347      0.0503764067     -0.3070841929      0.0843635961      0.0382888921
H       6.6051284792     -0.5090903842      0.3142491391     -0.1442124546      0.0291355540     -0.3174084744      0.0504744534
H       5.6621689529     -1.2614485087     -1.0277802053      0.0941331261      0.2889000502      0.1339814685      0.0513142875
N      -1.5983629995     -6.3689182927     -1.0417107648      0.0454343801      0.6576378152      0.1528492013     -0.8871568710
S      -1.1026771405     -5.9506315840     -2.5476450666      6.1574332167     -3.7238207635      1.3019090395      1.5542907398
S      -2.1551947748     -7.8686756701     -0.6808166656     -6.3624042153      1.1177726471     -3.2088716924      1.5602107542
C      -2.4744764779     -5.2628518581     -3.4530833933     -1.5148055668     -0.0937886316     -0.9648675330      1.1554067054
C      -0.8328984638     -8.8371589431      0.0171493246      1.6933777218     -0.8927410556      0.5104935469      1.1543337545
O      -0.0212976800     -4.9123955439     -2.4433277899     -2.4038378724      0.1069915334      0.0859949510     -0.7541896507
O      -0.5756717694     -7.1526412821     -3.2814350688     -1.6879814264      1.7940757157      0.1230041989     -0.7164599908
O      -2.6751901809     -8.5530536608     -1.9145840525      1.6826329686      0.1058788150      1.6771308012     -0.7244569982
O      -3.2586869113     -7.7561427055      0.3328874212      2.5038180314      0.0290143361     -0.1534151512     -0.7333471147
F      -2.0618433566     -4.9133846709     -4.7246888000     -0.5860217007     -0.0982219934      1.0074513441     -0.4307100123
F      -2.9424559271     -4.1388291573     -2.8015343066     -0.1277847888     -0.2577462392     -0.5405619642     -0.4629264766
F      -3.4900732680     -6.1954558188     -3.5420200203      0.7731229645      1.2335509985     -0.0913192602     -0.4168046494
F      -1.2954549129    -10.1045553622      0.3168817662      0.5806338415      1.0841874332     -0.1615946698     -0.4274434185
F      -0.3752908387     -8.2324637240      1.1725029403     -0.0578977808     -0.6536324939     -0.6840791507     -0.4362523247
F       0.2038796390     -8.9320089639     -0.8914012698     -0.7387416430     -0.1049345386      1.0452380872     -0.4227477301
