42
Properties=species:S:1:pos:R:3:forces:R:3:charge:R:1 energy=-239.51031636446905 homo_lumo=2.302171247822361 dipole="-2.144465365408458 -0.512249425369104 1.629206744039962" free_energy=-239.51031636446905
N       2.9691206517      0.0766137552      0.1380883257     -0.0055870721      0.0005436122     -0.0087050621     -0.5029291682
C       0.5108308543      0.3727141510     -0.0101299041      0.0036076420     -0.0011537424     -0.0102800029     -0.1711833860
C      -0.6600751814      0.6370564534     -0.9551794227      0.0044132396     -0.0057465648      0.0085607796     -0.1780910786
C       1.8257907053      0.3065306852     -0.7762334032     -0.0013570501     -0.0057544802      0.0158492763     -0.0517295386
C      -2.0032077887      0.6991348074     -0.2298265353     -0.0075378047     -0.0025228094      0.0105204959     -0.2060786720
C      -3.1650617195      0.9754649897     -1.1804318474      0.0065790602     -0.0017790184     -0.0086825190     -0.0688898115
C       3.4476001405     -1.1747848127      0.3222179902     -0.0004341192     -0.0004700454      0.0005093525      0.2755502647
C       3.5089047164      1.1258474587      0.7929058974      0.0023884186     -0.0037202499     -0.0092816663      0.2935944602
C       4.4830473520     -1.4096767939      1.1996534177      0.0039454305      0.0046165040      0.0017915440     -0.0093548019
C       4.5337207131      0.9356339405      1.6984177772      0.0073320105     -0.0006968468     -0.0093075769      0.0123982387
C       5.0372834634     -0.3425022813      1.9040069786      0.0008161093      0.0020020469     -0.0079899690      0.0581712837
H       0.3525641127     -0.5747546645      0.5368724303     -0.0004326587     -0.0038577169      0.0031769973      0.0984444541
H       0.5669663737      1.1745490841      0.7480685981      0.0007748170      0.0011550049      0.0025708868      0.1056421930
H      -0.6975582781     -0.1545292463     -1.7268118556     -0.0011579374     -0.0042169434      0.0046612063      0.0971706846
H      -0.4878366931      1.5876988541     -1.4930518265     -0.0008339791     -0.0052858217      0.0026043212      0.1034029979
H       1.8289834990     -0.5144841782     -1.5058623662      0.0002431722     -0.0134118845     -0.0048062975      0.1291062045
H       2.0500290659      1.2333204665     -1.3231248457      0.0029465131      0.0005697810     -0.0073017005      0.1809665578
H      -1.9612841101      1.4851240473      0.5466173242      0.0028213500     -0.0039996102     -0.0043734288      0.0887614670
H      -2.1734547574     -0.2552425357      0.3016960653     -0.0000758255     -0.0002877769     -0.0005391870      0.0872546664
H      -3.0288283123      1.9383837816     -1.6983405185     -0.0011765416     -0.0053825851      0.0035375027      0.0408366436
H      -4.1243118829      1.0140536582     -0.6433924911     -0.0001064763     -0.0051617123      0.0139436381      0.0436966504
H      -3.2395109862      0.1897466940     -1.9493976003     -0.0019244462     -0.0011611837      0.0056294706      0.0392458092
H       2.9795284468     -1.9573151658     -0.2706403600      0.0027618403     -0.0024972653     -0.0015994992      0.0995314283
H       3.1115545563      2.1049795991      0.5367620495      0.0047250391      0.0015017590     -0.0127875042      0.1107816307
H       4.8743985856     -2.4207991471      1.3039296434      0.0071038243     -0.0001220512     -0.0027256910      0.0654383302
H       4.9648855335      1.8016489399      2.1988055861      0.0094160483      0.0053692142     -0.0146128450      0.0641399139
H       5.8737794878     -0.5069109479      2.5821811692      0.0072120553      0.0053186708     -0.0095371117      0.0712789592
N       5.7948645318      0.9264360580     -1.1321966473     -0.0060684927     -0.0047798626     -0.0064728092     -0.8850771601
S       5.1410568683      1.5287531221     -2.4691086227     -0.0062019594     -0.0194955101     -0.0045407320      1.6435823348
S       7.1248043044      0.0106708289     -1.1041294060      0.0119540870      0.0124702804     -0.0033976267      1.6307019046
C       4.4673910752      0.0523795270     -3.4841364564     -0.0028524707     -0.0008852969      0.0068646761      1.1622184853
C       8.6142099506      1.1091213131     -1.5345144721     -0.0164240712      0.0020746082      0.0103644908      1.1739356860
O       3.9121022191      2.2042411633     -2.0342218194     -0.0140157567      0.0089452254     -0.0033120866     -0.7827370159
O       6.0475768117      2.1994832059     -3.3865851849      0.0027583184      0.0005192326     -0.0129516406     -0.7116977818
O       7.1527295946     -1.0454120855     -2.1092464014      0.0123822835     -0.0056588714     -0.0003264614     -0.7236464418
O       7.3494084652     -0.3215019168      0.3045437869      0.0019201914      0.0037578826      0.0076298939     -0.7593386813
F       3.3641375593      0.4541914339     -4.1697343088     -0.0120002875      0.0020001892      0.0045211972     -0.4435491237
F       4.0825657976     -0.9737057830     -2.6634598614     -0.0055529897     -0.0157152360     -0.0102163078     -0.4648023231
F       5.3658579042     -0.4149995800     -4.3617496946     -0.0035869483      0.0061591952      0.0117206735     -0.4188661567
F       9.7268365882      0.5172785770     -1.0328781651     -0.0016825500      0.0117815903      0.0135732609     -0.4362396898
F       8.4904329066      2.3359042544     -0.9762766753     -0.0025817399      0.0230728256      0.0118079497     -0.4370329961
F       8.7624709604      1.2396361445     -2.8648779545     -0.0045102736      0.0219054629      0.0139101119     -0.4246074219
