47
Properties=species:S:1:pos:R:3:forces:R:3:charge:R:1 energy=-257.0093929886542 homo_lumo=1.6366708784294592 dipole="-6.50398844417798 -0.9042647898149508 -2.13264745328683" free_energy=-257.0093929886542
N       1.0679495539      0.2888896346     -0.3851634920     -1.1171752285     -0.2426316646     -0.7413029522     -0.5140916330
N      -1.1541707660      0.3800680333     -0.3695924332      0.7870018937     -0.4211038632     -0.7556445582     -0.5206315658
C      -0.0693675225     -0.2183076316     -0.8992563077      0.0890376627     -1.0585673322     -0.8572872844      0.5711951379
C       2.4328610673     -0.1236171999     -0.7022811341      1.0770186103     -0.5184433496     -0.1148262871     -0.0895543593
C      -2.5530389597      0.0857555265     -0.6710268038     -0.8179273547     -0.3245451840     -0.0762732273     -0.0694076313
C       0.6905533877      1.2449245521      0.4882738634     -0.6682288776      1.0949833694      1.0305948633      0.2569995736
C      -0.6877437314      1.3031143174      0.4960996855      0.7727715194      1.0579802346      1.0748958382      0.2295294359
C       3.0330360906     -0.9084938461      0.4586538114     -0.0775993848     -0.1230036335      0.2993928801     -0.1270933015
C      -3.2436221513     -0.5253755387      0.5434364535     -0.0035977778     -0.0699908094      0.2459992047     -0.1227776929
H      -0.1068185381     -1.0161145798     -1.6312579810      0.0078753657      0.0059862018     -0.0308800058      0.0979206849
H       2.4347217791     -0.7677881586     -1.6085050644     -0.3272372720      0.3999869191      0.1941668201      0.1212994967
H       3.0538391079      0.7724664799     -0.9177226333     -0.3825190235     -0.1237714908      0.0671682942      0.1712455861
H      -3.0737645194      1.0209824223     -0.9690871555      0.3915456534     -0.1803609850     -0.0150370188      0.1391218584
H      -2.6170985207     -0.6310275479     -1.5187812842      0.3363821463      0.3790081975      0.1879297271      0.1311164899
H       1.3636698449      1.8542683844      1.0760939221      0.3379379344     -0.0406275980     -0.0361564432      0.1012161636
H      -1.3025288731      1.9669169585      1.0901849446     -0.1967977066     -0.0406674758     -0.0612486364      0.0596054897
H       3.0571513904     -0.2855588000      1.3764422259      0.1968548403     -0.2586970855     -0.2776743140      0.1177436347
H       4.0684943606     -1.2176274430      0.2051014282     -0.2722440390      0.2406040814      0.1757533131      0.1154949992
H       2.4258840343     -1.8169113485      0.6563234355      0.1614498693      0.2086060393     -0.0447700072      0.0529102832
H      -2.7138128908     -1.4501750617      0.8566623651     -0.2087869163      0.2862197692     -0.0331017763      0.0849887081
H      -4.2928239194     -0.7821160913      0.2870346912      0.3250122313      0.1020864870      0.0980880966      0.0844614411
H      -3.2491212262      0.1959777994      1.3877260664     -0.0612995007     -0.3079878317     -0.1884934999      0.0797393278
P       7.0756056431      1.2200034900      2.2283104228      2.1768606320     -1.4326340012     -2.3736808965      1.6414811806
F       7.9135766244      0.1587317221      1.1579999614      2.5697372304      0.2420952960     -0.2804880308     -0.5275412715
F       8.1989303096      2.1782627194      3.1168671934     -0.5400601639     -0.6041543972      0.5854202695     -0.5123093424
F       5.9110656705      0.5120724414      1.1796631894     -2.0443687990      0.3879202926      0.6061747069     -0.5387223686
C       7.7136358021      2.5262108607      0.9500369324     -0.4926327406      0.2879540011     -0.2498988881      0.5405258142
C       7.7363285441     -0.2188086228      3.3420385089     -0.5939154910     -0.2120166750      0.6180891454      0.5484155885
C       5.4561381220      1.7211082526      3.1371571093      0.7317871254      0.5035480162      0.6325596704      0.5452288487
C       7.0881280552      2.4587342508     -0.4607330224      0.4782028676     -0.2552304106     -0.6583811739      1.3335565506
C       7.5340284500     -0.0828286992      4.8712428311      0.4873170477     -0.1762840671      0.7955313277      1.3276765586
C       4.5076965478      2.7010305170      2.4214933681     -0.1793488414      0.6411569687     -0.0172011781      1.3703956556
F       9.0846249564      2.3631769579      0.7874088370     -0.7821287016      0.1753634775     -0.0851894530     -0.4308551602
F       7.5187461505      3.8112776168      1.4298837707      0.1771888126      0.0360788285     -0.6129152422     -0.4493096367
F       9.1076916831     -0.3601774478      3.1499519843     -0.8791991523      0.1549054754      0.4425612952     -0.4296584812
F       7.1240028047     -1.4014989500      2.9531004125      0.1814183832      0.0327232671      0.4587962371     -0.4455444999
F       5.7990001872      2.3080124245      4.3415040160     -0.6237148757      0.1139926781     -0.1498386976     -0.4391951942
F       4.7202927280      0.5793613153      3.4116629636     -0.1118870010      0.4603274104     -0.1520887998     -0.4495785282
F       7.7071091226      3.3947354308     -1.2701910679     -0.5110856009     -0.4795501713      0.1407483204     -0.4531887748
F       5.7435737520      2.7560900303     -0.4254190745      0.8322741273     -0.1374435719     -0.3842343324     -0.4645335580
F       7.2637074993      1.2147528990     -1.0388879685     -0.3700847390      1.4243155623      0.0886380024     -0.4370728669
F       8.2552334358     -1.0810783203      5.5030993293     -0.4461866696      0.4900005415     -0.0498743796     -0.4528556178
F       7.9914195736      1.1302475575      5.3496626286     -0.5332111166     -1.3583402918     -0.0303220238     -0.4351495556
F       6.2110642502     -0.2476934928      5.2274284974      1.0721781267      0.1236850997      0.0242051411     -0.4514895865
F       5.1394137918      3.8886714090      2.1223135837     -0.9963468464     -1.1650510243      0.2406723967     -0.4320013163
F       3.4498526210      2.9886526711      3.2663118965      0.2455364615     -0.0378927942     -0.5509238250     -0.4594977060
F       3.9811581456      2.1483048265      1.2726297761     -0.1978047208      0.7194674934      0.8203473813     -0.4698088594
