42
Properties=species:S:1:pos:R:3:forces:R:3:charge:R:1 energy=-239.33362521119068 homo_lumo=1.946552036897684 dipole="0.5832660462825814 3.1296219693483707 -0.8109531810430919" free_energy=-239.33362521119068
N       2.4380119782     -0.3851007859     -0.4882976145      0.0035708017      0.0031789295      0.0003940988     -0.5052553312
C       0.1233601842     -0.5789302096      0.3548225598     -0.0021818153      0.0070098608     -0.0017057861     -0.2213718551
C      -1.2954416747     -1.0270048990      0.0143815052     -0.0000626390      0.0005870664      0.0070892703     -0.1807014969
C       1.0119825860     -0.5413350471     -0.8829201311      0.0052436427     -0.0008921523      0.0038608843     -0.0177758693
C      -2.1447847382     -1.2047156286      1.2727731090     -0.0077954058     -0.0087079219     -0.0063488270     -0.2157848987
C      -3.5479673798     -1.7187686646      0.9626636225     -0.0073671086     -0.0024901147      0.0197503808     -0.0698198187
C       3.2218038718     -1.4791504510     -0.3822840206     -0.0036090732      0.0077614875     -0.0007058544      0.2600083360
C       2.8944028062      0.8430310892     -0.1455609795     -0.0056949954     -0.0032990921     -0.0054886038      0.2687359891
C       4.5288314085     -1.3572467642      0.0634902377      0.0000925006      0.0020273720     -0.0039984783     -0.0176768200
C       4.1862758852      1.0079203266      0.3056610494     -0.0040878592      0.0079120379     -0.0055520545     -0.0263420159
C       5.0208862770     -0.1071572966      0.4083710974      0.0102852886      0.0065423961     -0.0008561175      0.0372509673
H       0.5603156243     -1.2994930142      1.0610758119      0.0004015376     -0.0079006677      0.0028322766      0.2007379254
H       0.1160457051      0.4114907732      0.8471802902     -0.0057108958     -0.0108028821      0.0014723337      0.0803328087
H      -1.2360802921     -1.9944246263     -0.5140834197     -0.0053918085     -0.0117399723     -0.0044374800      0.1328143607
H      -1.7786836356     -0.3045233864     -0.6695147847     -0.0020910191      0.0031173244      0.0008928824      0.0707394490
H       0.9394473703     -1.4894998936     -1.4309915132     -0.0070978751      0.0012808529     -0.0027650992      0.1546888445
H       0.7698758037      0.2918755313     -1.5603042865     -0.0102774109     -0.0008638623      0.0026548683      0.1041396406
H      -2.2048296434     -0.2446990925      1.8174566286     -0.0056803556      0.0019117670      0.0006777720      0.0743542698
H      -1.6300695449     -1.9166406052      1.9413365684     -0.0097350043      0.0003564670      0.0076707275      0.1194542381
H      -4.0904680830     -1.0230338252      0.3028408593     -0.0030537939      0.0047939466     -0.0065437193      0.0282821364
H      -4.1389888060     -1.8421218169      1.8835415301      0.0052923768      0.0032518301     -0.0178276352      0.0408232963
H      -3.5003547674     -2.6974831014      0.4595957292     -0.0034643253      0.0017054514     -0.0056000127      0.0491968438
H       2.7522343220     -2.4375180080     -0.6070119636      0.0011561077      0.0065575824      0.0034068346      0.2227651613
H       2.1859702071      1.6629609217     -0.2474713164     -0.0018220856     -0.0009112457     -0.0007218873      0.0967764638
H       5.1174376876     -2.2677722750      0.1666988760      0.0037008250      0.0033790520     -0.0006100808      0.0861647966
H       4.5327438918      2.0048182674      0.5763152986     -0.0031441600      0.0115610204      0.0005958779      0.0599603879
H       6.0447253774      0.0024708206      0.7694266879     -0.0031584677      0.0096295418      0.0032661286      0.0637532904
N       1.6275117271     -5.3951786084      1.3946465711      0.0033935647     -0.0033520576      0.0003813495     -0.8196000120
S       2.8700873250     -4.6220584332      2.0566291291      0.0121218701      0.0081558429      0.0111660239      1.6252686121
S       0.9947409541     -4.9311990070      0.0000763986      0.0002454001     -0.0040519030     -0.0115433000      1.6283099121
C       2.0715184830     -3.1513394039      3.0265366949      0.0008717122     -0.0027988392     -0.0204911422      1.1610550297
C       2.1721606231     -5.5988019528     -1.3640684197      0.0073649083      0.0166096287      0.0005360962      1.1620339122
O       3.4260011808     -5.4529978428      3.1080898735     -0.0097254624      0.0152218051      0.0056230469     -0.7051258758
O       3.7666073877     -3.9655176707      1.0957019669     -0.0053914195     -0.0009272810      0.0118990729     -0.7803694757
O       1.0075988061     -3.4739117777     -0.2383272478     -0.0020683056     -0.0165627532     -0.0093471656     -0.8106113476
O      -0.2459551959     -5.6546581677     -0.2128482926      0.0171616812     -0.0178714318     -0.0150758756     -0.7112322004
F       2.4651095848     -3.1790556960      4.3154973739      0.0024351408      0.0089849663      0.0172600966     -0.4265270103
F       0.7196969412     -3.1865590267      2.9871979785     -0.0007604523     -0.0056133414      0.0010632805     -0.4444575342
F       2.4694608670     -1.9514654908      2.5012211538     -0.0019924797      0.0047307270      0.0094974034     -0.4622528704
F       1.4338076753     -6.0799503167     -2.3887946215      0.0186758267     -0.0039526055     -0.0123805723     -0.4314722494
F       2.9686692808     -6.5789491332     -0.8999838902      0.0093604849     -0.0230271000      0.0049365181     -0.4270171010
F       2.9628763163     -4.6009460126     -1.8550942623      0.0099905480     -0.0105017325      0.0150724678     -0.4542528894
