42
Properties=species:S:1:pos:R:3:forces:R:3:charge:R:1 energy=-239.1395549744558 homo_lumo=2.6581954616644055 dipole="-0.8784608299603184 -1.210956562808845 1.6146112982629668" free_energy=-239.1395549744558
N       2.2626375129      1.0891244810     -0.8359518348     -0.1241227578     -0.0619129582     -0.0338926016     -0.4923410029
C      -0.1796913646      0.7762368594     -0.6719543120     -0.0142760566      0.3052636053     -0.5861915638     -0.1650542921
C      -1.5108559939      1.0645380032     -1.3729011596      0.1190895036     -0.3933120802      0.7203163780     -0.1691779329
C       0.9721309240      1.3786760705     -1.4762956491     -0.5485402657     -0.2600985615      0.4914914818     -0.0717268670
C      -2.6867619332      0.4709262491     -0.5912012330     -0.0608500742      0.3448073478     -0.5943593914     -0.1989623913
C      -4.0147801663      0.7574307454     -1.2893474112      0.2997988688     -0.1701517732      0.3374967247     -0.0471445624
C       3.1599985498      0.3131478649     -1.4610987164      0.3191472101     -0.3098957535      0.0380385040      0.2833792924
C       2.5545275644      1.6776774140      0.3383615637      0.2616002128     -0.0345104336      0.4008650840      0.2628726857
C       4.3912596068      0.0598566774     -0.8827008595     -0.0118794945     -0.0477899403      0.2458312172      0.0067181015
C       3.7736250537      1.4729134577      0.9413269550     -0.0936955023     -0.0403068653      0.0074335358     -0.0034765692
C       4.7148944660      0.6535909537      0.3247178131     -0.2365275048     -0.0619059558     -0.1836544471      0.0593646539
H      -0.0300565376     -0.3045829083     -0.5818305849      0.0447029360     -0.2909699312      0.0692338388      0.0941578249
H      -0.1925521337      1.2002608016      0.3368690523     -0.0468006489      0.0693043978      0.2972552489      0.0964466274
H      -1.4880381594      0.6398917336     -2.3815988942     -0.0153578185     -0.0664757105     -0.2995856497      0.0987044114
H      -1.6416117347      2.1472051794     -1.4687422289     -0.0586425602      0.2930170434     -0.0917479041      0.0976320386
H       0.9931725127      0.9621161992     -2.4842584499      0.1010842284      0.0119910808     -0.1832956410      0.1667602079
H       0.8808997627      2.4658352357     -1.5486622395      0.0092667267      0.1452552114     -0.1277507582      0.1644223885
H      -2.7048009417      0.8967861836      0.4177937623      0.0302540511      0.0596579848      0.2901508403      0.0807106949
H      -2.5502278353     -0.6115863212     -0.4951780480      0.0679922726     -0.2716446251      0.0873080149      0.0832869551
H      -4.1764248375      1.8324859111     -1.3763162373     -0.0978082779      0.3188913343     -0.0579221500      0.0327957913
H      -4.8366292358      0.3270705325     -0.7171758758     -0.3446792721     -0.0917297823      0.0942128226      0.0343084384
H      -4.0218766455      0.3230310939     -2.2896836253     -0.0529339582     -0.1119486041     -0.3167248020      0.0337644094
H       2.8733472440     -0.0987926757     -2.4206438203     -0.1077902396      0.0047583631     -0.1653311287      0.1305158473
H       1.8001196762      2.3293656014      0.7605583910     -0.1397296489      0.0456543371      0.0245188252      0.0973004256
H       5.1016781084     -0.5619323979     -1.4115398922      0.1407410007     -0.1300174328     -0.1565175077      0.0535352615
H       3.9957527248      1.9728439169      1.8749928673      0.0210960548      0.1434863690      0.2053319179      0.0492812175
H       5.6889213158      0.5025110483      0.7725067955      0.2427925032     -0.0289226010      0.0960860615      0.0534616809
N       3.9707939069      2.2499147383     -2.9102569271     -0.0536284376      0.5417573375     -0.3340145337     -0.8740284511
S       2.8361105878      2.4803156260     -4.0198239057     -0.0570659257     -0.3292864540      0.1687886094      1.6101908096
S       4.7725715059      3.5123801779     -2.3217846231      0.3775843014     -0.4521446200      0.1498281273      1.6511009928
C       3.5936798663      3.1025845178     -5.6186642808     -0.1645574103     -0.3025948786      0.9044298313      1.2188056909
C       3.5787145158      4.7242754831     -1.5206658440      0.3250061432     -0.8011520379     -0.4024913784      1.2011171138
O       2.3542143196      1.1490801926     -4.3347029236     -0.2297230325     -1.0771589156     -0.5080386972     -0.7845147961
O       1.8409588533      3.4633891133     -3.6455989700     -0.4579556728      0.8381295825     -0.0340820832     -0.7497741970
O       5.4720927662      4.2843594933     -3.3132048902      0.2969847789      0.7438926413     -0.8243427004     -0.7227589295
O       5.5077310592      2.9977784542     -1.1896649551      0.4844811497     -0.3403317796      0.9384513726     -0.7618771534
F       2.8032633150      2.7483663067     -6.6175872024     -0.9485854266     -0.3861810309     -1.0727111214     -0.4331616963
F       4.7815267087      2.5536098090     -5.7926936512      1.3093561150     -0.6234466138     -0.2139290215     -0.4308705168
F       3.7049430052      4.4130534321     -5.5978957016      0.0984284007      1.4625939774     -0.0126591344     -0.4246591926
F       4.2236758140      5.3806106556     -0.5693141094      0.7500055585      0.7303050704      0.9538254568     -0.4354237905
F       2.5795541655      4.0444422262     -0.9354051715     -0.9858343906     -0.3455891747      0.5659002879     -0.4733758872
F       3.0711911089      5.5858001182     -2.3709577656     -0.4484276399      0.9707128299     -0.8875519654     -0.4223053331
