54
Properties=species:S:1:pos:R:3:forces:R:3:charge:R:1 energy=-288.2892427359249 homo_lumo=3.561809236921796 dipole="0.9119953730161824 1.202460081879555 -1.7869353111112665" free_energy=-288.2892427359249
N       0.0520384219      0.0643666507     -0.0134419817      0.1272841203      0.1285164669     -0.0793664561     -0.4901354818
C       0.8979091259     -0.9439030387      0.7248312412      0.5983949570      0.1485664879      0.1644166346     -0.0653803622
C      -0.8105442620      0.7882785613      0.9934078425     -0.5272150390      0.4867651461     -0.3485538056     -0.0739122053
C      -0.7828885011     -0.6738851561     -1.0266144507     -0.4746104416     -0.3939023371      0.2000020635     -0.0310194254
C       0.8980330660      1.0799187849     -0.7269566313      0.3726589403     -0.2845777974     -0.4219050939     -0.0217066272
C       1.9484016898     -0.3552773676      1.6611977894     -0.2577287589     -0.5475515277     -0.1841105779     -0.1997305665
C      -1.8986647337      1.6815311617      0.4074875925      0.3373179899     -0.1170252458      0.4862400904     -0.2062623728
C      -1.8080047765     -1.6464930718     -0.4463362736      0.2007699190      0.2110283284     -0.8130077584     -0.2022282616
C       1.9015066450      0.5106784614     -1.7286337660     -0.1349937141      0.6208189900      0.2280270998     -0.2044901896
C       2.4819259554     -1.4810686315      2.5581012950      0.1697888480      0.5669786738      0.0681132106     -0.1961025315
C      -2.6809660634      2.3153579347      1.5661063736     -0.1422049239      0.0616775221     -0.6073803247     -0.1927920512
C      -2.5981340031     -2.2884236381     -1.5918063769      0.0048811671     -0.0165068454      0.5360215809     -0.1908753971
C       2.7572644861      1.6526880679     -2.2915892716      0.0096849524     -0.6197515019     -0.1479281575     -0.1941645321
C       3.5446297528     -0.9594869710      3.5216652178     -0.2433524386     -0.2536155502     -0.3009597832     -0.0433139069
C      -3.8091064877      3.2039003935      1.0479948026      0.3351005331     -0.1963370679      0.2577061553     -0.0446018234
C      -3.6351443068     -3.2675713901     -1.0451345923      0.2408834539      0.2276201118     -0.3311234519     -0.0414801213
C       3.7705407561      1.1301170246     -3.3075851196     -0.2495052035      0.2938493912      0.2816630678     -0.0468749989
H       1.3724322614     -1.5845610491     -0.0219300592      0.1043633350     -0.0838985849     -0.2659473699      0.0917921608
H       0.2008717423     -1.5450839751      1.3197308298     -0.4154347353     -0.1420063155      0.3220063580      0.2347970500
H      -0.1378951020      1.3955018358      1.6025087610      0.1941733274      0.0682423388      0.0976067051      0.1294092380
H      -1.2548293970      0.0190302186      1.6373559930     -0.0323719953     -0.4290646505      0.3505949611      0.2201445493
H      -0.0875119437     -1.2263624619     -1.6633057529      0.1885687091     -0.0454859669     -0.1088810867      0.1427070882
H      -1.2813775734      0.0794848060     -1.6426051106     -0.0659500021      0.2201693120     -0.1340284072      0.1162566106
H       1.4270075513      1.6496169119      0.0406653469      0.0699968818      0.1004291240      0.2023779453      0.1369519937
H       0.2164267028      1.7576893658     -1.2462622121     -0.1668804059      0.1377342951     -0.0442094757      0.1456190070
H       1.5119380968      0.4187074037      2.2965965599     -0.1308952356      0.1472292664      0.2173771588      0.1146468515
H       2.7739543540      0.0919415533      1.0978192535      0.2770502008      0.1680009330     -0.1057805500      0.0792354415
H      -2.5915273306      1.1027022786     -0.2077197477     -0.2142813230     -0.1563721468     -0.1646961166      0.1110462721
H      -1.4709079454      2.4729397919     -0.2164627982      0.0116483838      0.2763736342     -0.1983961151      0.0771114435
H      -2.4985419580     -1.1335990871      0.2242141270     -0.0946916260      0.0191305183      0.2938244537      0.1455767617
H      -1.3101703396     -2.4266627787      0.1316950590      0.0104900066     -0.1035291838      0.3112478625      0.1421889940
H       1.3820043935      0.0144082626     -2.5524034467     -0.0956452896     -0.1420028433     -0.2217089083      0.1015057237
H       2.5550076773     -0.2215214262     -1.2491445717      0.1672031188     -0.2060218374      0.1239232728      0.1216463050
H       2.9082235966     -2.2734369404      1.9339925264      0.0788149501     -0.2456847122     -0.1716738132      0.0694917409
H       1.6485431207     -1.9074063984      3.1246697726     -0.3049994486     -0.1170048736      0.0390746137      0.1305475118
H      -1.9994409590      2.9099916701      2.1829780390      0.1837885039      0.0996188336      0.2146688353      0.0796747910
H      -3.0978861206      1.5224091508      2.1938025612     -0.0037292500     -0.2284873328      0.2114163660      0.1146776717
H      -1.9107461026     -2.8170293871     -2.2617269391      0.1636200447     -0.1079033164     -0.2440288891      0.0660778606
H      -3.1004562548     -1.5082778501     -2.1751058793     -0.1163161614      0.1892706067     -0.2349175686      0.0670251605
H       3.2852094270      2.1491733803     -1.4708387394      0.0957641883      0.1808490613      0.2165300263      0.0895412626
H       2.1073992295      2.3931265647     -2.7695849174     -0.1561410232      0.2419239880     -0.0740612443      0.0833068724
H       3.1271097902     -0.1871870945      4.1687178263     -0.1017202821      0.2334723666      0.2282655738      0.0294736362
H       4.3882036037     -0.5360448428      2.9736457525      0.3038777399      0.1490367709     -0.1071369239      0.0135321805
H       3.9094159993     -1.7749658798      4.1457815322      0.1839876749     -0.1818184382      0.2577963748      0.0351716583
H      -4.5100561060      2.6214242398      0.4487314489     -0.2537454455     -0.1402202996     -0.1886581300      0.0284889894
H      -3.4109178650      4.0109416902      0.4309716119      0.0614082009      0.2725988030     -0.2002208329      0.0204180445
H      -4.3498672665      3.6417885464      1.8866907155     -0.2494279473      0.1934130424      0.1883763621      0.0376562434
H      -4.3382956048     -2.7506134393     -0.3917993430     -0.2117293404      0.0936349572      0.2375267007      0.0386357068
H      -3.1474136854     -4.0571209062     -0.4733328395      0.0931948371     -0.2277858035      0.2229642237      0.0436787626
H      -4.1893067444     -3.7212111084     -1.8669124965     -0.2356387071     -0.1975637769     -0.1977139466      0.0241721422
H       3.2610910543      0.6484468716     -4.1429311811     -0.1077219219     -0.1607181266     -0.2812206472      0.0317367641
H       4.4386234964      0.4046298830     -2.8421958464      0.2295098099     -0.2287951189      0.0941900018      0.0337258435
H       4.3677229655      1.9559173931     -3.6933981843      0.2514429216      0.1775649835     -0.1933964613      0.0395685058
Cl     -1.4036430655     -1.8375266416      2.7894183498     -0.0787370555     -0.1408827517      0.3190541974     -0.7421659848
