54
Properties=species:S:1:pos:R:3:forces:R:3:charge:R:1 energy=-286.49647910126737 homo_lumo=0.19947639140915263 dipole="-5.3849651616712215 2.5254954819174746 -1.569063131711226" free_energy=-286.49647910126737
N      -0.0058979873      0.0049392756     -0.0027714302     -0.1161566561      0.0170533415     -0.0577840892     -0.5123371709
C       0.8216393300     -1.0099430463      0.7418753913      1.2412508845     -0.7622646302      1.1532133207     -0.0727516942
C      -0.9044955079      0.7046287860      0.9831928587     -1.1456676329      0.9608604527      0.6186965480     -0.0570364905
C      -0.8043707276     -0.7103850443     -1.0609191721     -1.0588868118     -0.9286903639     -0.7394479790     -0.0581831557
C       0.8639165737      1.0357519255     -0.6732550314      1.1774698558      0.7539886998     -0.9522636465     -0.0590334630
C       1.8422287398     -0.4385061254      1.7606573426     -0.2963483689      0.0306496765     -0.2617004426     -0.2202704512
C      -1.9607525519      1.6665931027      0.3803893532      0.2636403706     -0.2949044651      0.0228178279     -0.2172149249
C      -1.8860559387     -1.6954524118     -0.5462831347      0.2724729264      0.2681779079      0.0129866825     -0.2183349530
C       1.9738686371      0.4856445585     -1.6064677656     -0.2367831131     -0.0505849981      0.3205431994     -0.2242392218
C       2.5844331613     -1.5747309172      2.4772043656     -0.0466373235     -0.1650990563     -0.0951380329     -0.1975053266
C      -2.7966708173      2.3105529782      1.4954802608      0.0904504129     -0.0643171805      0.0574311209     -0.2095001357
C      -2.6205653001     -2.3529455761     -1.7229145931      0.0922887849      0.0756902107     -0.0680194264     -0.2089170060
C       2.7803559547      1.6373892324     -2.2222613270     -0.1020306702      0.0913951656      0.0668044136     -0.2084235955
C       3.5761830324     -1.0296741214      3.5012184452      0.0589475845      0.0464634498      0.1334349579     -0.0638384654
C      -3.8288473934      3.2805242056      0.9281725242     -0.1175617356      0.0924911660      0.0617109037     -0.0884597027
C      -3.6772105099     -3.3402188936     -1.2352316263     -0.1001006652     -0.1004305470     -0.0507630350     -0.0895284292
C       3.8638022270      1.1157826931     -3.1619953092      0.1428317509      0.0179721049     -0.0748392368     -0.0932675245
H       1.3691617480     -1.6663960348      0.0292795102     -0.2810443137      0.4639805178     -0.0352716553      0.1619935065
H       0.1593633210     -1.6892364777      1.3194846085     -0.1545829325      0.4045157696     -0.3692805360      0.1695690294
H      -0.2977654765      1.3204536684      1.6802040062      0.2123303890     -0.4282453861     -0.3866806145      0.1788041969
H      -1.4314505632     -0.0369123578      1.6244579096      0.3583325224     -0.0205043495     -0.4525930846      0.1522098810
H      -0.1284780988     -1.3104987022     -1.7065587996      0.1594675397      0.3934773908      0.4274403296      0.1790522602
H      -1.2925773453      0.0220064364     -1.7421258318      0.2859581158      0.0273572698      0.4676366683      0.1443751584
H       1.3399931551      1.6965501836      0.0852797667     -0.2993406039     -0.5124700257      0.0237809211      0.1553486033
H       0.2413915411      1.7070393888     -1.3022188777     -0.2024417768     -0.3917521498      0.3565464246      0.1618546321
H       1.3269870920      0.1659198777      2.5338403261      0.0437695882      0.0289245927     -0.1989714339      0.1024523159
H       2.5936664420      0.2006532824      1.2543519291     -0.1416236685     -0.0930877218      0.0993815697      0.1281688838
H      -2.6498532660      1.1279603219     -0.3008074613      0.1736719818      0.1189627821      0.0466933466      0.1225858467
H      -1.4667980235      2.4811886327     -0.1870741825     -0.0925072911     -0.2201773884      0.0126258270      0.1207430897
H      -2.6368309235     -1.1729582783      0.0799611422      0.1857640122     -0.1076437368     -0.0359472256      0.1221524471
H      -1.4221750066     -2.5021778802      0.0566337249     -0.0874291514      0.2381632447     -0.0284808979      0.1313415803
H       1.5294252289     -0.0983166236     -2.4377411629      0.0790999378      0.0211860457      0.2113513740      0.1158776191
H       2.6758399361     -0.1677573565     -1.0503575535     -0.1748097369      0.0490251569     -0.1117343468      0.1558871997
H       3.1354767289     -2.1906767575      1.7338395097      0.0973051723      0.0223963493      0.2073746794      0.1212701191
H       1.8530046404     -2.2274945852      3.0025822079      0.0588826514      0.0681718222     -0.2034060662      0.0637238199
H      -2.1298846459      2.8666634182      2.1906139277     -0.1292429197     -0.2499777519     -0.0675376960      0.1004130750
H      -3.3251807645      1.5203367199      2.0722194538      0.2221255143      0.1607499269     -0.0233894332      0.0997514646
H      -1.8919877543     -2.8975325283     -2.3628851735     -0.1386362909      0.2408051149      0.0658279197      0.1015445217
H      -3.1161593438     -1.5720144333     -2.3400645237      0.2148521911     -0.1550625814      0.0379146022      0.0945728887
H       3.2606556467      2.2330295499     -1.4154837996     -0.1997050779     -0.0636586992     -0.1609516268      0.1044219060
H       2.1016442392      2.3054601869     -2.7967225703      0.1000184643     -0.0381176902      0.2306943368      0.0835267922
H       3.0468903807     -0.4221123692      4.2661749280      0.0855045727     -0.0651617673     -0.1251592805      0.0007635165
H       4.3434979844     -0.4017572039      3.0003479355     -0.0945839281     -0.3561868497      0.1995560419      0.0518143945
H       4.0861892363     -1.8741822857      4.0106463156      0.0433258655      0.3239194432     -0.3155731455      0.0791506911
H      -4.5329958023      2.7459459719      0.2556442709      0.1556823987      0.2556379918      0.1447392948      0.0453863352
H      -3.3254101123      4.0936549081      0.3627694974     -0.2418381234     -0.2030916009      0.1132034986      0.0476912251
H      -4.4075528338      3.7342472178      1.7601437675      0.0949139333     -0.0664550429     -0.3405660329      0.0638177107
H      -4.4408935370     -2.8169704762     -0.6211622588      0.1735780426     -0.2503075635     -0.1322320041      0.0444956112
H      -3.2056221967     -4.1431691949     -0.6292080347     -0.2359997470      0.2058484163     -0.1420124557      0.0535894897
H      -4.1815097860     -3.8058410888     -2.1079850679      0.0689749974      0.0672539609      0.3382804465      0.0626917056
H       3.4087576254      0.5313228223     -3.9901122314      0.2235383214      0.1257096292      0.2123072309      0.0420354562
H       4.5790854312      0.4715633702     -2.6075339619     -0.1682103720      0.1471475009     -0.2547113274      0.0745498055
H       4.4208527457      1.9716427802     -3.5978993028     -0.0929615687     -0.3327077795      0.0719549484      0.0589798387
Cl      6.2307127973     -2.9538894036      1.6662726633     -0.4213183025      0.2029242244     -0.0304936831     -0.8977649065
