32
Properties=species:S:1:pos:R:3:forces:R:3:charge:R:1 energy=-174.6708416010714 homo_lumo=3.7549281104521866 dipole="-0.9263488148570294 1.259736192701424 -3.057435890200721" free_energy=-174.6708416010714
N       0.9370519130      0.0292401284      0.1908536296      0.0048358223     -0.0037025141     -0.0012322549     -0.5427489659
C      -0.0379965747      1.0989227187     -0.2581493262      0.0025694449     -0.0042001315      0.0080235509      0.0068948329
C       0.1997359517     -1.2961987430      0.3726087904      0.0027426951     -0.0005849755      0.0099298414     -0.0122558126
C      -1.2154627334      1.2459800112      0.6911868625      0.0093804854     -0.0164409633     -0.0058807591     -0.1703458385
C      -1.0097424660     -1.1790112635      1.2792704810      0.0037659260      0.0163918187     -0.0092205913     -0.1975523693
C      -1.9668872033     -0.0780892092      0.8319088590      0.0188736365      0.0049055853      0.0050482584     -0.1645394217
C       1.6334991720      0.4457195184      1.4579628949      0.0051476847     -0.0005609439      0.0002321152      0.0280987797
C       1.9744154887     -0.1570097088     -0.8672403599      0.0057316268     -0.0017889436      0.0024275431      0.0757245491
H      -0.3878649881      0.7934219467     -1.2583521773      0.0099366652     -0.0065415150     -0.0022522370      0.1240731184
H       0.5414482027      2.0300068751     -0.3557863328      0.0047697141     -0.0039215597      0.0002502190      0.1221534546
H       0.9302564103     -1.9973319257      0.8026110019     -0.0037006488     -0.0039570461      0.0100311034      0.1752333409
H      -0.0905133797     -1.6020409598     -0.6465700517      0.0097244205     -0.0149246157      0.0011660362      0.1075026926
H      -1.8680259016      2.0370178984      0.2867188725     -0.0043885391     -0.0017511061     -0.0175523591      0.1061009580
H      -0.8709087997      1.5965819901      1.6781131017      0.0032665756      0.0055163704     -0.0056501062      0.1219554579
H      -0.6722475916     -1.0247913109      2.3133763235      0.0092458643      0.0105761883     -0.0049504926      0.2011486711
H      -1.5033377106     -2.1647231283      1.2753037194      0.0004272445     -0.0017797472     -0.0039423384      0.1070346941
H      -2.7819887425      0.0275949309      1.5640992053     -0.0168952112      0.0066119394     -0.0101064133      0.0965105920
H      -2.4306002953     -0.3397764933     -0.1380881876      0.0146999120     -0.0054453872      0.0024524250      0.0761216231
H       0.9159510159      0.5219200398      2.2763826580      0.0055542401      0.0009933614     -0.0046294701      0.1648016359
H       2.3689964923     -0.3150011829      1.7411800681     -0.0085191073     -0.0079208289      0.0056861800      0.1466457346
H       2.1135880018      1.4153941266      1.2704307932      0.0123182246     -0.0037197852      0.0180971676      0.0604762080
H       1.4827747165     -0.4334030769     -1.8089301160      0.0114182772     -0.0015708236      0.0092766310      0.0763728815
H       2.5294550871      0.7821524047     -0.9895019895      0.0059713899     -0.0011227194      0.0019595980      0.0892637693
H       2.6541249579     -0.9552650259     -0.5439750788      0.0129970265     -0.0031773938     -0.0051087724      0.1061704759
S       1.9383776225     -1.6705702448      4.2557670235     -0.0081826732     -0.0020033457     -0.0170835020      1.7380040883
O       1.3405933500     -2.2220118172      3.0125795363     -0.0118001595      0.0150390780     -0.0088086686     -0.8302257421
O       2.7925339540     -0.4881414356      4.0272967454     -0.0135245280      0.0057724934     -0.0073298882     -0.7950440713
O       2.4109709957     -2.6542813333      5.2268526211     -0.0248254041      0.0108750503     -0.0063677180     -0.7519567406
C       0.4374537225     -0.9173783826      5.1041044803     -0.0236047679      0.0041271126      0.0140874238      1.1043036446
F      -0.5613386136     -1.8255771409      5.2710329684     -0.0147310765      0.0086191771      0.0115790096     -0.4468584476
F      -0.1013642699      0.1199789050      4.3530411082     -0.0115296552     -0.0003931233      0.0034048076     -0.4843198382
F       0.7451294909     -0.3991127412      6.3157302027     -0.0116751053     -0.0039207059      0.0064636612     -0.4387439550
