32
Properties=species:S:1:pos:R:3:forces:R:3:charge:R:1 energy=-171.81465750521522 homo_lumo=1.1950478154593671 dipole="-5.2502931752485855 -0.9812859387723292 -1.504215929869139" free_energy=-171.81465750521522
N       0.8337131053     -0.0039598352     -0.0364467958      0.5920988825     -0.0428935949     -0.1880148354     -0.5777435660
C       0.0762600768      1.2263408248     -0.4087678684     -1.2004486386      1.4343937863     -0.2150156948     -0.0174469102
C       0.0745647637     -1.2303940128     -0.4172667613     -1.2105741756     -1.3968211042     -0.2294888594     -0.0156532090
C      -1.3548934577      1.2562722325      0.1556786369      0.0182559335     -0.1022972552      0.0299770474     -0.1810041889
C      -1.3574240112     -1.2615333209      0.1463730975      0.0150145229      0.0872385107      0.0275915284     -0.1808124543
C      -2.1275869373     -0.0004067313     -0.2404242748     -0.2698823914      0.0017813609      0.1173742277     -0.1695659024
C       1.1600168168     -0.0101568436      1.4129020838      0.2042225723      0.0060154930      1.5381210494      0.0096466776
C       2.1165919610     -0.0008532269     -0.7825229428      1.4809396480      0.0314191037     -0.8703316227      0.0167450216
H       0.0000181810      1.3102207651     -1.5177838734      0.3010198126     -0.3897894619      0.3554977136      0.1478899188
H       0.6126197967      2.1373650603     -0.0572327619      0.1745281211     -0.6058668382     -0.0684086521      0.1602000464
H       0.6093142522     -2.1442471773     -0.0708775198      0.1661671665      0.5975614904     -0.0654734319      0.1530898105
H      -0.0011354922     -1.3068045351     -1.5267773650      0.2958473639      0.3802760381      0.3558348424      0.1467125137
H      -1.8841145827      2.1453394436     -0.2509173998      0.3512131772     -0.1254681756      0.1456518549      0.1284796762
H      -1.3401512308      1.3649350475      1.2602643737      0.0234237323      0.0190527211     -0.2230712021      0.1158753607
H      -1.3446878171     -1.3786903781      1.2500541667      0.0293162499     -0.0146368057     -0.2209540906      0.1144259430
H      -1.8883074150     -2.1465646121     -0.2664910886      0.3461522874      0.1179229567      0.1385375737      0.1270090195
H      -3.1151646888     -0.0011147204      0.2695334317      0.2077556342     -0.0036625073     -0.2660060885      0.1083876860
H      -2.3078487728      0.0036417653     -1.3380239191     -0.0003715101     -0.0015331914      0.2178968059      0.0979393387
H       0.2548116894     -0.0232858140      2.0504351896      0.1175581220     -0.0076794802     -0.4889695835      0.1064175477
H       1.7675147286     -0.9030871906      1.6822047042     -0.1538566093      0.3666934414     -0.4034053000      0.1280944322
H       1.7419860393      0.8941610696      1.6915014089     -0.0778718448     -0.3132136174     -0.3690035442      0.1648220614
H       1.9455604252      0.0039405888     -1.8826000988     -0.2596122269     -0.0004874321      0.5070608472      0.0949196075
H       2.7247890039      0.8981011529     -0.5324572756     -0.2893062342     -0.3964731246      0.1534701209      0.1530061565
H       2.7245468436     -0.9020008497     -0.5409282824     -0.3312429872      0.4065410199      0.1515487200      0.1367671523
S       5.9462289083      1.2992825069      2.0497877609      7.6642519495     -3.4962111294     -6.8009011974      1.5452583235
O       5.4727518286      0.0566290159      1.2808276396     -2.2719930570      1.2409930746      2.0170978238     -0.7910612544
O       6.3563004783      2.2668913421      0.9295720344     -2.3724495927      0.6774841958      2.3987749814     -0.7574509843
O       7.2948823421      0.8541350446      2.6351262367     -2.8282582966      1.2545861898      1.6943218194     -0.7422313468
C       4.7620755604      1.9664321940      3.2547977207      0.3526502678      0.2069335961      0.6748394206      1.1069702454
F       4.4482183401      0.9923546790      4.1833640892     -0.2131167624      0.9103166803     -0.4040932148     -0.4377257074
F       3.6132802659      2.3659488806      2.6012070061      0.0179714229     -0.0171327095      0.6008272643     -0.4655406182
F       5.3204053887      3.0530597744      3.8999031630     -0.8794025394     -0.8250432314     -0.3112863238     -0.4264203974
