32
Properties=species:S:1:pos:R:3:forces:R:3:charge:R:1 energy=-174.86688702357387 homo_lumo=4.303002491987021 dipole="-0.7434430988287287 1.391472521671837 -2.5974632759042233" free_energy=-174.86688702357387
N       0.8092398547      0.0608019376      0.4850355696     -0.0043270365     -0.0022291633     -0.0075581703     -0.5418736349
C       0.0867855460      0.8613708670     -0.5724446694     -0.0059590168     -0.0026997591     -0.0033384015      0.0109977513
C       0.0486764936     -1.2431027852      0.7162810901     -0.0038396269      0.0016338444      0.0011647492     -0.0283260478
C      -1.3583955067      1.1429498004     -0.1907751272      0.0015541351     -0.0060683865     -0.0070118302     -0.1662457952
C      -1.3976810253     -1.0113923755      1.0992824514      0.0027500116      0.0023384742     -0.0067897463     -0.1794759779
C      -2.1240991831     -0.1563441088      0.0631844881      0.0038645274     -0.0021456425     -0.0009018024     -0.1615511191
C       0.9614956069      0.8686497175      1.7463323337     -0.0031401896     -0.0071253254     -0.0017418967      0.0311810626
C       2.1861967180     -0.2939675602      0.0133872491     -0.0001961346     -0.0020976231     -0.0130753142      0.0599016788
H       0.1318758486      0.2587307163     -1.4939853047      0.0024215748     -0.0016342675     -0.0087810673      0.1249962017
H       0.6656267803      1.7850133038     -0.7260358065      0.0064081800     -0.0013717140     -0.0084157888      0.1170489222
H       0.6084064466     -1.7842139100      1.4898632734      0.0058481764      0.0056885450      0.0084012268      0.2288363712
H       0.1215264567     -1.7803296263     -0.2444562176      0.0061836282     -0.0127673734      0.0055444147      0.1016626329
H      -1.8135407539      1.7157023724     -1.0152248230     -0.0044074518      0.0071205202     -0.0084254209      0.1057472583
H      -1.3947743802      1.7908810739      0.7007145333     -0.0027000896      0.0063166748     -0.0096190163      0.1098180156
H      -1.4440077318     -0.5738602106      2.1088192736     -0.0052451222     -0.0064968409      0.0028652623      0.1384543795
H      -1.8652494022     -2.0055852135      1.1893787639     -0.0041490686     -0.0080001622      0.0090112543      0.1128658533
H      -3.1504625926      0.0665708797      0.3942851254     -0.0056876095     -0.0030590713     -0.0015344058      0.0893740224
H      -2.2050719334     -0.7178396224     -0.8862431117     -0.0094904669     -0.0009020776     -0.0063811106      0.0826815458
H       0.0036511759      0.9496780174      2.2636374547     -0.0072520504     -0.0065493988     -0.0063195303      0.1083001866
H       1.6677339893      0.3376740482      2.3936504451     -0.0131463879     -0.0184364200     -0.0005299538      0.1948580487
H       1.3415497262      1.8584192181      1.4593346944      0.0033215328     -0.0093525330      0.0069968475      0.0567722742
H       2.1050078025     -0.8543603079     -0.9264933853     -0.0043143224      0.0016916243     -0.0102594403      0.0644554380
H       2.7526146713      0.6340174983     -0.1407080168      0.0006478601     -0.0028778766     -0.0139300508      0.0713079278
H       2.6478385449     -0.9074060954      0.8004402887      0.0018113805     -0.0006972551     -0.0131457040      0.1541093897
S       1.4867668678     -1.8758010713      4.0192060107      0.0136654570      0.0150420957      0.0280349677      1.7310920697
O       0.1768754544     -1.2098849287      3.8572873190     -0.0086108652     -0.0043692745      0.0156638502     -0.8081380407
O       2.3637718679     -1.7367641116      2.8216003018      0.0166899825      0.0121022091      0.0081260935     -0.8308653611
O       1.4821069515     -3.1934898834      4.6472473961      0.0094936294     -0.0169519916      0.0058989053     -0.7484552242
C       2.3527061630     -0.7704887097      5.2656953613     -0.0032666978      0.0091338561      0.0035302913      1.1176146820
F       1.6368956054     -0.6652388579      6.4124998557      0.0056318017      0.0157294776      0.0157478788     -0.4406900596
F       2.5073931121      0.4983119537      4.7604925666     -0.0031553291      0.0196928792      0.0139119854     -0.4658463736
F       3.5874871476     -1.2362885423      5.5788322476      0.0085955881      0.0193419556      0.0028609234     -0.4406080781
