37
Properties=species:S:1:pos:R:3:forces:R:3:charge:R:1 energy=-198.338014260682 homo_lumo=3.6359259584881873 dipole="0.08540984222515342 1.9816455185679382 -1.089273378282555" free_energy=-198.338014260682
N      -0.7585872037     -0.2730947812      0.2059867086      0.2160263246     -0.0135281644      0.0104054711     -0.4946319153
C      -1.0770187219     -1.4041397954     -0.7330405077     -0.3348794573     -0.2142477254     -0.5355432456     -0.0011896452
C      -1.8604942189     -0.3237557046      1.2356788557     -0.5542018739      0.0538029845      0.2934675168      0.0237308374
C       0.5642958354     -0.5005838446      0.8771567900      0.6818699577      0.2257048749     -0.4062454814     -0.0338766910
C      -2.5932256817     -1.4173451898     -0.8227436875      0.1999791780      0.0668563565      0.1091648419     -0.1208890971
C      -3.0372726695     -1.0662583794      0.5986963993     -0.0636297711      0.1641396548     -0.0091496994     -0.1243186780
C      -0.8078509390      1.0191534125     -0.5522540097      0.1758879484      0.4652465370      0.3400080674     -0.0117407564
C       1.7479859570     -0.5339034974     -0.0835990137     -0.1536379438      0.0088940369      0.6389120002     -0.2012831570
C      -0.3667533608      2.2468789662      0.2450884272     -0.2243528192     -0.0761897364     -0.4727469865     -0.2445224957
C       3.0173904520     -0.8969871741      0.6973434579     -0.0375932026      0.1138227621     -0.6121781783     -0.1963183470
C      -0.6734504229      3.5125565889     -0.5551708006      0.1067831389     -0.3309143010      0.2711604647     -0.0451907128
C       4.2353445269     -0.9455689237     -0.2219781938     -0.2726372504      0.0114801834      0.3634800157     -0.0455308419
H      -0.5771932390     -1.2481715838     -1.6885092855      0.1677036788      0.1708489393     -0.2303414843      0.0780224687
H      -0.7267993404     -2.3230537457     -0.2526172074      0.0538729957     -0.2450523199      0.3651456873      0.1766105001
H      -1.4844728129     -0.8868232237      2.0912920042      0.1682592086     -0.3086157876      0.1247470889      0.1449365990
H      -2.1116397399      0.6905284951      1.5446634872      0.0279567315      0.3312465770     -0.0526461955      0.0989493678
H       0.4723286545     -1.4656341908      1.3897084076     -0.2692703235     -0.3890224056      0.1838857878      0.1984239455
H       0.6924062733      0.2836002468      1.6264292443     -0.0239887778      0.2204839844      0.1574821638      0.1099587888
H      -2.9574398193     -0.6836273747     -1.5475925860     -0.1056791119      0.1435541641     -0.2216879345      0.0570903168
H      -2.9470222666     -2.4044298425     -1.1225251285     -0.0702743397     -0.2585395864     -0.1228007011      0.0904649980
H      -3.2212054119     -1.9807728671      1.1666321923      0.1017361638     -0.2304034126      0.1853021698      0.1218858037
H      -3.9429393951     -0.4576307360      0.6001478701     -0.2601506821      0.1649462466     -0.0127566532      0.0496718051
H      -0.1728007129      0.9082272884     -1.4347628490      0.1166469276     -0.0737923794     -0.1927695676      0.1300371064
H      -1.8399934192      1.1486315772     -0.8874167173     -0.2247611642     -0.0243583179     -0.0784907743      0.1581455783
H       1.5794873660     -1.2836082017     -0.8612184002     -0.0203452769     -0.2133485658     -0.1960934916      0.1119625073
H       1.8870850422      0.4358686695     -0.5718805754      0.1219891152      0.2633783284     -0.2030775526      0.0845963086
H      -0.8877842892      2.2928932784      1.2046516292     -0.0880135769     -0.0243530609      0.2636434347      0.1081559575
H       0.7066408355      2.2033510473      0.4447127080      0.2524288958     -0.0670535224      0.1115986552      0.1169688484
H       3.1827013589     -0.1558730799      1.4863592707      0.0206697904      0.1442009206      0.2517337489      0.0819251542
H       2.8796414160     -1.8716937381      1.1745824045     -0.1044628912     -0.2141423977      0.1854415337      0.1087380925
H      -0.1546147112      3.4943361867     -1.5141131737      0.1346496807      0.0659362189     -0.3121901185      0.0364702249
H      -1.7446383676      3.6006516134     -0.7392261201     -0.3173591310      0.0881515133     -0.0863265581      0.0333190322
H      -0.3429376534      4.3878982574      0.0027084252      0.0708030917      0.3156824561      0.0842586915      0.0459998917
H       5.1232814147     -1.2066146729      0.3534250455      0.3496176146     -0.0802809893      0.0758660414      0.0373715009
H       4.0949274875     -1.6938021306     -1.0029708360      0.0034683631     -0.2195309089     -0.2506597824      0.0317801160
H       4.3993263707      0.0241482504     -0.6945469171      0.1044812976      0.2784986670     -0.1761185066      0.0209107025
Cl     -0.8440291010     -3.2338059863      1.8731189912      0.0504074909     -0.3135018245      0.1561195306     -0.7366341147
