37
Properties=species:S:1:pos:R:3:forces:R:3:charge:R:1 energy=-198.31524756982432 homo_lumo=3.3382590289449574 dipole="-0.9471216198031699 -0.03461676189410704 2.1680529056377957" free_energy=-198.31524756982432
N      -0.7499667401     -0.4043183794      0.1783727186      0.0011911113      0.0047090327      0.0014339630     -0.4803516747
C      -1.0504648724     -1.5451314501     -0.7845715831      0.0028351653      0.0016887504      0.0011615771     -0.0272037990
C      -1.8811031964     -0.4912483195      1.1764687065     -0.0026108560     -0.0081919523      0.0141594337      0.0138208277
C       0.5770888543     -0.6062200002      0.8678320203     -0.0001040602     -0.0041694572      0.0147966272     -0.0087404477
C      -2.5665481879     -1.5195972136     -0.9395047263      0.0033425877     -0.0000600007     -0.0110538836     -0.1416042828
C      -3.1182303584     -0.8724294732      0.3595517819     -0.0072570631     -0.0016775777     -0.0046491956     -0.1555489034
C      -0.8045880854      0.9126878541     -0.5847550085     -0.0086587832     -0.0045843920     -0.0081895399     -0.0700430326
C       1.7776653539     -0.5648554553     -0.0546206038      0.0065365518      0.0109523380     -0.0176811180     -0.2126078335
C      -0.3983505779      2.1328615727      0.2199027337      0.0030694542     -0.0005002104      0.0052708208     -0.2536596126
C       3.0528205242     -0.9165528347      0.7084035956      0.0024704339     -0.0007595308      0.0112023697     -0.2023566507
C      -0.6063745350      3.3845160718     -0.6353669059     -0.0023452803     -0.0036360641     -0.0088228408     -0.0634702813
C       4.2775019561     -0.8680315385     -0.2021316642     -0.0018326439      0.0041576645     -0.0047146756     -0.0657498745
H      -0.4798988000     -1.3606340857     -1.7304010777      0.0041352933     -0.0062794822      0.0074467268      0.1885815335
H      -0.7065186200     -2.4602516194     -0.2782251283     -0.0002541624     -0.0066896747      0.0064483401      0.0962232160
H      -1.6079245627     -1.2847558969      1.8880890804      0.0028459476     -0.0123634676     -0.0053594217      0.1139074271
H      -1.9626361657      0.4598636588      1.7179919318      0.0073834324     -0.0109848729      0.0102393615      0.1262190228
H       0.5007179923     -1.5909862439      1.3594529036      0.0018932337      0.0118040504      0.0024968152      0.1123455278
H       0.6433424879      0.1589446671      1.6581367502     -0.0044853323     -0.0053791387      0.0016675976      0.1235887024
H      -2.8462887072     -0.9320056541     -1.8265386055      0.0067967139      0.0028246646     -0.0068779522      0.0961619641
H      -2.9491321828     -2.5386477293     -1.0906406143     -0.0050422947      0.0043639183     -0.0113263715      0.0944683251
H      -3.7459056956     -1.5666529833      0.9371818838     -0.0076102216      0.0060133306     -0.0022848792      0.0934752537
H      -3.7336232626      0.0106666295      0.1333823631     -0.0003057687      0.0053071791      0.0014328387      0.0825513910
H      -0.1728398070      0.7591483364     -1.4949248403     -0.0146336600     -0.0075778188     -0.0018595219      0.2124782787
H      -1.8448137958      1.0127524240     -0.9295289941     -0.0022602004     -0.0049285464      0.0060259740      0.1570193476
H       1.6366139273     -1.2436201036     -0.9130661365      0.0002005376      0.0210439407      0.0047467274      0.1585471033
H       1.8820005127      0.4289344439     -0.5190392469      0.0009878686     -0.0001614506      0.0107414849      0.1417437464
H      -0.9816534004      2.2265610508      1.1544979982      0.0111739737      0.0030355225     -0.0054623969      0.0800699876
H       0.6648736378      2.0687436906      0.5036354058     -0.0020937434     -0.0022140984     -0.0056380750      0.1126225180
H       3.1889170187     -0.2187462401      1.5564002702      0.0075453498     -0.0099319017      0.0039393731      0.0722509747
H       2.9544707874     -1.9277201252      1.1462806498      0.0041777092      0.0071579538      0.0021095173      0.0739293415
H      -0.0215221747      3.3157475285     -1.5649457590     -0.0040417876     -0.0013641214     -0.0035200161      0.0684274869
H      -1.6660179918      3.5032011727     -0.9107485060      0.0029974820      0.0061313779     -0.0001477261      0.0345028861
H      -0.2928075680      4.2862525702     -0.0904273777      0.0038171476      0.0034949018     -0.0038415980      0.0393779351
H       5.1945958249     -1.1291463880      0.3460846506      0.0095177281     -0.0030287530      0.0009721799      0.0311850414
H       4.1621308689     -1.5675841780     -1.0443106445      0.0024976208      0.0050997811      0.0003521312      0.0539636242
H       4.4050119790      0.1381137549     -0.6306666583      0.0071202593      0.0001057838      0.0040117265      0.0447301266
Cl      0.6905683463     -0.2924325653     -3.2600344673     -0.0289997440     -0.0034076786     -0.0092263737     -0.7408551966
