44
Properties=species:S:1:pos:R:3:forces:R:3:charge:R:1 energy=-251.89971034239042 homo_lumo=4.1217844635378516 dipole="-0.554448909136443 0.24217376937458868 0.7426328691523134" free_energy=-251.89971034239042
N       0.5684514480      2.2465173718      0.9516065242      0.0915486749      0.2542204959      0.4869670948     -0.5054212490
N      -0.6575166217      1.5608051207     -0.6972415184     -0.2981005022     -0.0787648593     -0.3491515325     -0.5028433197
C       1.6945394614      2.7548351227      1.7208259589      0.3597471730     -0.3307358464     -0.2678756937      0.0196246021
C       2.8408146507      1.7398391851      1.8138487410     -0.5227302062     -0.0613161632      0.2396511231     -0.1772741452
C      -1.0937533297      1.2521308386     -2.0556346728     -0.3430230406     -0.1749575693      0.0321059311      0.0024697612
C       2.3801791920      0.3824131406      2.3480451526      0.6912090448      0.1972282055     -0.2771699010     -0.1955264743
C      -1.5749043681     -0.1938615601     -2.1901564905      0.7045279338      0.1447360535      0.1401971317     -0.1846415892
C       0.5529236268      2.0731584646     -0.3894092006      0.0073692410      0.4381853136     -0.1092625971      0.5573383710
C      -0.5476263063      1.6341723146      1.4978243840     -0.0181615127      0.0568650362      0.2165238297      0.1817039101
C      -1.3152217236      1.2160250069      0.4704089514     -0.1952504104     -0.0956034831     -0.0943148346      0.1792681948
C       3.5431966576     -0.6132824161      2.3838288073     -0.6428085910     -0.1505564221      0.2122183670     -0.2044874303
C      -0.4735279757     -1.2084489519     -1.8708310420     -0.6247677847     -0.2176450649     -0.0346851961     -0.2586156091
C       3.0856262958     -1.9803149790      2.8893123678      0.2915079906      0.3224427367     -0.1532697562     -0.0463283828
C      -1.0069962478     -2.6384292531     -1.9131789070      0.2403311868      0.3929259972      0.0031468630     -0.0391193509
H       1.3217227174      3.0073182036      2.7181297361     -0.1268257430      0.0892686418      0.1522038681      0.0860720769
H       2.0529149960      3.6699073124      1.2382239534     -0.0183334722      0.2665152722     -0.0416131259      0.0925699910
H       3.2769734777      1.6055043586      0.8215377556      0.0838304423     -0.0687571756     -0.2204737259      0.1409617638
H       3.6059161609      2.1656498914      2.4707463617      0.2438796735      0.1409002921      0.1980214683      0.0674545778
H      -1.9055131324      1.9385635812     -2.3233745891     -0.1565420570      0.2065177167     -0.0600433803      0.0822229768
H      -0.2389671430      1.4368265560     -2.7129307556      0.2530325245      0.0272081838     -0.0523435890      0.1516093918
H       1.5987923101     -0.0107782974      1.6914926632     -0.1444405943     -0.1140799116     -0.1345724579      0.1672843220
H       1.9571605626      0.4999324642      3.3524310112     -0.1223580168      0.0081428484      0.3264393186      0.0585104390
H      -1.9148676906     -0.3310028655     -3.2217098677     -0.1727374598     -0.0286395995     -0.2537765198      0.0825492890
H      -2.4366806434     -0.3597842183     -1.5350623675     -0.2863719409     -0.0921945425      0.1186365433      0.0808549093
H       1.1155710361      2.6855010072     -1.0774855133      0.1592463940      0.0413246746     -0.2112564968      0.1086398466
H      -0.7017973906      1.5860658519      2.5612945677     -0.0232001387     -0.0457754143      0.2325687121      0.0131030137
H      -2.2752048079      0.7316136526      0.4660334822     -0.1873568930     -0.1256109632     -0.0027326613      0.0235812290
H       4.3385324783     -0.2301263636      3.0326308286      0.2483730984      0.1292965166      0.1208919998      0.0620548885
H       3.9536577011     -0.7197911502      1.3744633982      0.0987518556      0.0469576460     -0.2642923321      0.1200012303
H       0.3363686040     -1.1003745146     -2.5977558077      0.2428726624      0.1165591370     -0.1214925347      0.1307120129
H      -0.0611390525     -1.0006459985     -0.8792053760      0.1825572359      0.0786589747      0.1332027973      0.1593497695
H       2.3098834864     -2.3861373232      2.2384202646     -0.2427816410     -0.1534997526     -0.1776530705      0.0321876810
H       2.6831811069     -1.9010280794      3.9005729769     -0.1353784756     -0.0238692321      0.3124771240      0.0181451581
H       3.9255948176     -2.6754539375      2.9034382021      0.1918650452     -0.3169115200      0.0526178972      0.0241774315
H      -1.8005641293     -2.7748536791     -1.1763640097     -0.2523751963     -0.1010700059      0.2081798127      0.0149275947
H      -0.2034331535     -3.3408267130     -1.6908836595      0.1775600425     -0.3129831860      0.0577143172      0.0330549728
H      -1.4078949602     -2.8710554334     -2.9011106675     -0.1479778850     -0.1413551670     -0.2870009134      0.0173116960
C       3.4577756557     -0.3752408014     -2.1491391753     -0.3911886392      0.3663583897     -0.0011345919     -0.0933185303
C       2.3288859866      0.6305558878     -1.8809469723      0.9348372748     -0.8968143655      0.1469431498      0.9534018995
O       1.8458351100      0.5712618008     -0.7022755911     -0.0429435509     -0.4688165403      0.9662040665     -0.7912018409
O       1.9730403560      1.3995046111     -2.7691989951     -0.4731527713      1.0500086958     -1.2913665131     -0.7918698676
H       4.2739968843     -0.1863437035     -1.4538014394      0.2988124633     -0.0352696886      0.2381126014      0.0487726016
H       3.0857136000     -1.3845545510     -1.9812947069     -0.0610220404     -0.3627771173      0.1145534222      0.0400352709
H       3.8095871622     -0.2750510199     -3.1732607227      0.1279686059      0.0236827624     -0.3040960150      0.0406969160
