51
Properties=species:S:1:pos:R:3:forces:R:3:charge:R:1 energy=-279.34314679141363 homo_lumo=5.370200976420342 dipole="0.13629363324327667 1.428782521701424 -2.761637616642264" free_energy=-279.34314679141363
N      -0.1463092043     -0.0392684344      0.1229245538     -0.0021005305      0.0054632845      0.0017834641     -0.4851200821
C      -0.7599463066      0.7456884085      1.2800289601     -0.0124581262      0.0040069444      0.0043079842     -0.0565982857
C      -0.9370028876      0.2502555841     -1.1368183584     -0.0065756644     -0.0067366069     -0.0009215362     -0.0076840521
C      -0.1648491389     -1.5192040955      0.4649486880      0.0086389453     -0.0018992094     -0.0035012424     -0.1237950056
C       1.2729819204      0.4458080326     -0.1126763157      0.0015719739      0.0048165171      0.0028758421     -0.0154745526
C      -2.2441144348      0.4728440208      1.4548350200      0.0077581933      0.0024135453     -0.0124872797     -0.1908056748
C      -2.4189566046     -0.0524839685     -0.9907117110      0.0026054070      0.0054459611      0.0092158475     -0.1745062085
C      -3.0259080121      0.7369458113      0.1695522169      0.0111983663     -0.0058729146      0.0044347789     -0.1599708258
C       0.4663071768     -2.4497068245     -0.5532914156     -0.0054403829      0.0067775546     -0.0019283370     -0.2604194242
C       2.2634056934      0.1380253353      0.9963259492     -0.0034754113     -0.0008429689      0.0001988905     -0.2947432816
C       0.3073881058     -3.8889638330     -0.0520858886     -0.0038202797     -0.0011514991      0.0035831537     -0.0811533326
C       3.6051936036      0.8027541278      0.6900264658     -0.0005029179      0.0049815249     -0.0070241906     -0.0677414042
H      -0.2050416661      0.4792163917      2.1892216647      0.0039215822     -0.0015955994      0.0107314609      0.2396240471
H      -0.5805469765      1.8062382559      1.0341105500      0.0032298382     -0.0043746907      0.0045090343      0.1017783716
H      -0.7831937554      1.3216880932     -1.3460894899      0.0031132370      0.0060773641      0.0084141832      0.1248641398
H      -0.4718185303     -0.3275289133     -1.9472406909     -0.0039031914      0.0070713965     -0.0000037282      0.1345068981
H       0.3270380846     -1.6015843258      1.4405869414     -0.0036701211     -0.0040022901     -0.0028544283      0.2519770003
H      -1.2102325824     -1.7957213328      0.6406626890     -0.0016979766     -0.0002285071      0.0038453007      0.2310241514
H       1.5981161142     -0.0047767332     -1.0635725235     -0.0005929363      0.0062759313     -0.0010763169      0.1321855392
H       1.1902444246      1.5337721760     -0.2695388918     -0.0043116596     -0.0014907008      0.0051718849      0.1262830644
H      -2.4015531844     -0.5547958408      1.8179886739     -0.0028565268     -0.0114324257      0.0024161367      0.1816597578
H      -2.5876334826      1.1326385201      2.2684784404     -0.0066811199     -0.0012319752      0.0089865414      0.1072002016
H      -2.9022287959      0.2106138796     -1.9465718366     -0.0026852284      0.0048935438     -0.0003895619      0.1018035677
H      -2.5785854494     -1.1336616961     -0.8457778607     -0.0036591047     -0.0021802546     -0.0016287931      0.1174966339
H      -4.0849127079      0.4668853063      0.3012271139     -0.0069345913     -0.0077375642      0.0057217695      0.0909034467
H      -2.9948729812      1.8157344117     -0.0738047007      0.0033247526      0.0064049346      0.0016669421      0.0785179183
H      -0.0183606187     -2.3522596924     -1.5400497548      0.0016761962     -0.0032092667      0.0016045125      0.0901051599
H       1.5372907630     -2.2221538722     -0.6878235492     -0.0057553560     -0.0003572837     -0.0032839997      0.0961730709
H       1.8900471029      0.4849826185      1.9719071987      0.0069232538     -0.0031810978     -0.0044283409      0.1740614145
H       2.4097417181     -0.9481503596      1.0852526531      0.0026347744      0.0029734508      0.0014094900      0.1471216197
H       0.7670797632     -4.5983612878     -0.7547861670      0.0002818529      0.0065193779     -0.0065569999      0.0390579066
H      -0.7558229770     -4.1487464978      0.0619891356      0.0034253936     -0.0009425538      0.0035070323      0.0580740876
H       0.7780327853     -4.0200060831      0.9335031839      0.0009185009     -0.0021159989     -0.0001439772      0.0876617897
H       4.3252112034      0.5849862892      1.4913544017     -0.0027855591     -0.0045605927      0.0005999986      0.0646955918
H       3.5036272264      1.8970148633      0.6180744541      0.0007990680      0.0036044211      0.0001564042      0.0337562697
H       4.0318405780      0.4353399147     -0.2570801163     -0.0017947426      0.0082061372     -0.0057966110      0.0324183772
N      -0.6561439336     -1.6817608460      3.6061044683      0.0047625660     -0.0077044211      0.0002952669     -0.9056298243
S       0.5297938826     -1.2754724873      4.6131981367      0.0027604641      0.0029172629      0.0006819048      1.6364487818
S      -1.4255115747     -3.0988894297      3.5484020200      0.0086006781     -0.0065872560     -0.0081244440      1.6163581623
C       2.0200019518     -2.3928158913      4.2184407900      0.0079571981     -0.0210979329     -0.0004528839      1.1686365509
C      -2.4882496639     -3.2427609281      5.1107021279     -0.0135603142      0.0124729948      0.0125314143      1.1776049009
O       0.9816563020      0.0419623700      4.1523071060      0.0206739926     -0.0162227149     -0.0066276318     -0.7753048925
O       0.2778222924     -1.5109882494      6.0259556116      0.0100916837     -0.0060406149     -0.0059644048     -0.7138326588
O      -0.5589773426     -4.2715436717      3.5797981134     -0.0087854117     -0.0032779612      0.0137365548     -0.7303033141
O      -2.4077206118     -2.9546937067      2.4693370946     -0.0049584287     -0.0045472281      0.0030346097     -0.7712923349
F       3.1569549417     -1.7536045422      4.5907125057      0.0036701238     -0.0009339951     -0.0110416545     -0.4388431235
F       2.1067999462     -2.6402689379      2.8758498587      0.0143109948     -0.0060880383     -0.0099940219     -0.4698850708
F       1.9562736389     -3.5671935139      4.8649268553      0.0083408437      0.0092773666     -0.0134108973     -0.4220516000
F      -3.4572852308     -4.1632024516      4.8823407349     -0.0063860274      0.0084949294      0.0034910076     -0.4356707270
F      -3.0762907667     -2.0586421023      5.4013068290     -0.0120670844      0.0018489027     -0.0088069383     -0.4363748737
F      -1.7542581580     -3.6429134535      6.1645769103     -0.0157311874      0.0167008174     -0.0024631913     -0.4247978720
