57
Properties=species:S:1:pos:R:3:forces:R:3:charge:R:1 energy=-311.74322584675963 homo_lumo=5.661357242460152 dipole="-0.9436924766255328 0.4909511813809323 -2.737883006840662" free_energy=-311.74322584675963
N      -1.0342897449      0.2619663039      0.4539681891     -0.0078284013      0.2813984866     -0.1508728569     -0.4904749709
C      -1.4139639105      0.8387274854      1.7923076061     -0.4138978708     -0.1392937564      0.5018523062     -0.0663098978
C      -2.0885667771      0.6313788287     -0.5454556119     -0.5784416482     -0.2802247397     -0.0750961537     -0.0018081234
C       0.2521604528      0.9094337302      0.0031077461      0.6141595600     -0.2337801645      0.2568142191     -0.0133785540
C      -0.8715865253     -1.2257400171      0.5834428547      0.1645618846     -0.2904135979     -0.5343294128     -0.1014345743
C      -2.8008916180      0.4250420731      2.2612524379     -0.0791818007      0.3167726086     -0.4886182721     -0.1705689531
C      -3.4840697813      0.1807232969     -0.1272566234      0.2109365775      0.4191466845      0.2057702850     -0.1632439074
C      -3.8627802847      0.7817006830      1.2262035177      0.2962987776     -0.3847205975     -0.0724435345     -0.1443711130
C       1.4845144954      0.5344847934      0.8238879262     -0.2431065869      0.5067963598     -0.4390880150     -0.2581986016
C      -0.4856945334     -1.9637431895     -0.6939431974     -0.1183584239     -0.0297968505      0.6189094395     -0.2099950648
C       2.6639787224      1.4270545804      0.4229474686     -0.0579813417     -0.5599711103      0.4673201740     -0.1508103674
C      -0.1601127996     -3.4164979520     -0.3190750871      0.1218899415      0.3226934064     -0.7096761258     -0.1700959614
C       3.9002169547      1.0816016965      1.2598670057      0.0077318485      0.5088002080     -0.4628405637     -0.2039024947
C       0.3049908667     -4.2165181888     -1.5384787465     -0.1030290999     -0.2409563428      0.6165612875     -0.1987038501
C       5.0875980897      1.9663919852      0.8872890439     -0.2596103882     -0.3323303665      0.1825173244     -0.0439261064
C       0.6335048013     -5.6583610938     -1.1560668229     -0.0463821136      0.3831261051     -0.2983657204     -0.0467074627
H      -1.3564565759      1.9263859612      1.6973039142      0.0679104989      0.2582698043     -0.0855188965      0.1045210694
H      -0.6686250984      0.5017743669      2.5115056505      0.1632245145      0.0151202759     -0.0442111980      0.2427033045
H      -1.8095376530      0.1927424050     -1.5055167768      0.1650336172     -0.0543541448     -0.1941091312      0.1316821161
H      -2.0646928644      1.7209796623     -0.6399779818      0.0759801210      0.2513579002      0.0046189118      0.1247563258
H       0.0861126166      1.9891663800      0.0533165285     -0.1267142271      0.2302090153      0.0178593119      0.1251224859
H       0.4011453139      0.6383301182     -1.0452852826     -0.0572282980     -0.0436838165     -0.2574571125      0.1198176067
H      -1.8070915226     -1.6281594159      0.9713111871     -0.1113648840     -0.0142874123      0.1206219054      0.1704810037
H      -0.1041933410     -1.3871036139      1.3381119654      0.0897491933      0.0015866303      0.0958071369      0.2692869767
H      -2.9873437752      0.9544385351      3.1988765456      0.0608909727      0.0085844587      0.2768504704      0.1342939195
H      -2.8260354072     -0.6435445571      2.4834995183     -0.0021087855     -0.1877854738      0.1600039479      0.1212095305
H      -3.5377378934     -0.9101682468     -0.0862732886     -0.0435463764     -0.2994723349     -0.0505831141      0.1031229416
H      -4.1817150664      0.5192415770     -0.8980019031     -0.1657372510      0.0035973592     -0.2858841801      0.0959040572
H      -3.9417220082      1.8699774656      1.1327949265     -0.0656701764      0.3068735755     -0.0338078588      0.0766227493
H      -4.8347447934      0.3954659505      1.5406627305     -0.3075853346     -0.0096066616      0.0910517965      0.0814328287
H       1.2924978425      0.6625879263      1.8911590212      0.0147016033     -0.0543616054      0.2154287052      0.2213425052
H       1.7535708957     -0.5107690163      0.6551710336      0.0636325422     -0.2878941736      0.0345996445      0.1248754107
H      -1.3031996508     -1.9447111013     -1.4208213280     -0.1872386284     -0.0146937600     -0.2574750423      0.0828390605
H       0.3935132127     -1.5088653275     -1.1575830660      0.2563310849      0.0941377243     -0.1510904144      0.1044922246
H       2.3967311450      2.4777240831      0.5798778514     -0.0371307206      0.3078665896      0.0224601367      0.0781486791
H       2.8850985953      1.2918439200     -0.6416730485      0.1148577154      0.0300265592     -0.3243254084      0.0677786327
H       0.6214999436     -3.4187858029      0.4470806979      0.1346281024     -0.0458889635      0.2332697990      0.1457120325
H      -1.0497082652     -3.8859062568      0.1130050215     -0.2126038340     -0.1635341301      0.1727951811      0.0838244642
H       4.1623810241      0.0305223176      1.1017963668      0.0173687178     -0.2955138364      0.0269339093      0.0865732753
H       3.6648015996      1.2125174417      2.3205691371     -0.1131919269     -0.0617949787      0.2693357266      0.1144077896
H       1.1937679136     -3.7411128935     -1.9676227460      0.2007572294      0.1611068776     -0.1520257700      0.0775333858
H      -0.4803515529     -4.2092749946     -2.3024195982     -0.1752273222      0.0458763914     -0.2510809846      0.0734002212
H       5.9521801649      1.7018798706      1.4958142845      0.3450689898      0.0074764107      0.1338620280      0.0358332040
H       5.3489945488      1.8358944087     -0.1639830383      0.1285988120      0.0008416742     -0.3276485225      0.0208692760
H       4.8504823834      3.0172600361      1.0587018079     -0.0222103024      0.3416371037      0.0384462432      0.0276686055
H       0.9668871873     -6.2105992819     -2.0348060057      0.1141239422     -0.2777795667     -0.2055156415      0.0311769159
H       1.4261875497     -5.6825013667     -0.4076562928      0.2338287299     -0.0590003575      0.2418514619      0.0389161388
H      -0.2467107769     -6.1546616798     -0.7457030323     -0.2377407376     -0.1970660620      0.1393099731      0.0311302633
N       0.9007363498     -0.3382525415      3.8982445297     -0.0298039471      0.1095350760      0.0893427084     -0.9213461626
S       0.1535767842      0.6366252037      4.9242275301      0.3577162563      0.1789279212      0.0426658928      1.9583735601
S       0.4933970903     -1.8669346694      3.9018131563      0.0969733713     -0.0174997552     -0.3985493999      1.9577865786
F       0.6849262986      0.1910704212      6.3691431694      0.3056921291     -0.3011724227      0.7132417702     -0.4513563806
F      -1.0844596069     -1.8476711593      3.3945217591     -0.4932730179     -0.1211802093      0.0640734359     -0.4893843987
O       0.6860024375      1.9422025366      4.7067271094      0.7367415022      1.4411874793     -0.2774065299     -0.7416708305
O      -1.2684965866      0.4843722278      4.9874740692     -1.3936999415     -0.3837664701      0.1632148420     -0.7446240967
O       0.4438867849     -2.5442898571      5.1501690711     -0.1644222735     -0.5780974002      1.5679989858     -0.7046245453
O       1.1673029017     -2.4782407472      2.7936733655      0.6949274249     -0.5730316241     -1.2573691006     -0.7767027215
