40
Properties=species:S:1:pos:R:3:forces:R:3:charge:R:1 energy=-222.01231412469252 homo_lumo=3.4530161238984367 dipole="1.3353173333733113 -0.9122059230141266 1.2061498204800754" free_energy=-222.01231412469252
N      -0.8999073305     -0.1270584295     -0.0248827298     -0.0010028360     -0.0037117867      0.0041086235     -0.4793562843
C      -1.8857356659     -0.9803297339     -0.8476976774     -0.0014490832      0.0093708376      0.0118999595     -0.0372611095
C      -1.7546815777      0.4339273306      1.1054448064      0.0030301117     -0.0202955266     -0.0028257264     -0.0178531211
C      -3.1310637114     -1.1662807525      0.0285203532      0.0101783890     -0.0059145879      0.0070095399     -0.1515088806
C      -2.7268438918     -0.6852882212      1.4290641787     -0.0054859294      0.0075327080     -0.0220258733     -0.1434476125
C      -0.3689952664      1.0012740893     -0.8852610901     -0.0031325393      0.0045693870      0.0129148162     -0.0749304873
C       0.2007006215     -0.9890005994      0.5454377103     -0.0021103508     -0.0077085633     -0.0165222395     -0.0192786171
C       0.5976265588      1.9298333751     -0.1734858933      0.0015024690     -0.0063985252     -0.0084992894     -0.2431174279
C       1.1833982077     -1.5246570629     -0.4852129046      0.0031063885      0.0065483494      0.0047727822     -0.2470992977
C       0.9298181430      3.1065293741     -1.0931429232     -0.0133170360     -0.0100954822     -0.0173781114     -0.0662995698
C       2.1272866409     -2.5462907084      0.1475079975     -0.0062013125      0.0056533951      0.0138152139     -0.0668198674
H      -2.1298052931     -0.3971134620     -1.7682992569      0.0096180102     -0.0113635452     -0.0085666269      0.2258799561
H      -1.3778399987     -1.9224042767     -1.0890697142     -0.0033762110     -0.0006339702      0.0053624627      0.0930485574
H      -1.1048915845      0.7530042841      1.9306564526      0.0016401414     -0.0020367900     -0.0113043121      0.0786752224
H      -2.3033401454      1.2750347058      0.6449996738     -0.0008561868     -0.0145791229      0.0054224175      0.2061853889
H      -3.9203111098     -0.5066656632     -0.3639320004     -0.0032454074     -0.0087921718      0.0104766086      0.1499660419
H      -3.4883653123     -2.2060508285      0.0219225220     -0.0088369753      0.0019780216     -0.0042218497      0.0550004993
H      -2.2522036552     -1.4848727085      2.0228453030     -0.0134134134      0.0126713191     -0.0017049186      0.0651030616
H      -3.5814218015     -0.2995321877      2.0032611000     -0.0127166802     -0.0045297327      0.0160752457      0.0891895181
H       0.0832338692      0.5399183081     -1.7748873972      0.0004063120      0.0018652353     -0.0072510393      0.1230781143
H      -1.2835359139      1.5340712073     -1.2045008183     -0.0044569432     -0.0123375642     -0.0069698958      0.2661659417
H       0.7281417235     -0.3864718678      1.3006325113      0.0057748459      0.0178241282      0.0005684976      0.1288665329
H      -0.2991491650     -1.8197350167      1.0664412609     -0.0010773828      0.0005624595     -0.0057391988      0.1525626737
H       0.1371396982      2.3171815140      0.7509372656      0.0047542165      0.0031732977      0.0016709232      0.1054070858
H       1.5279467904      1.4088117619      0.1142518555      0.0055855060      0.0116531789      0.0049009181      0.0826307781
H       1.7685923582     -0.6947372114     -0.9113468470      0.0065807444      0.0005430922     -0.0053940116      0.1212190954
H       0.6411675045     -1.9944677868     -1.3215089564      0.0020087673      0.0037348382     -0.0124335225      0.1166728379
H       1.3760304976      2.7553703846     -2.0370888672      0.0079889807      0.0071577782      0.0096095106      0.0410899857
H       0.0149922581      3.6647914685     -1.3436393584      0.0067076514     -0.0004046043     -0.0024113481      0.0626778224
H       1.6389335673      3.7964469544     -0.6138081922      0.0053897772     -0.0006415884      0.0023718691      0.0370504822
H       2.6980273827     -2.1040498023      0.9794461232     -0.0076793156     -0.0039842299      0.0003860746      0.0402043871
H       1.5706686201     -3.4125854219      0.5382637499      0.0004075646      0.0078612364      0.0073917605      0.0387313369
H       2.8488200558     -2.9184515040     -0.5945178252      0.0003559345      0.0061478661      0.0029997903      0.0529543662
C      -4.6225718844      2.3774805896     -3.0292171909      0.0001980875      0.0029634992      0.0036601780     -0.0913666476
C      -3.4874886297      1.6534399975     -2.2939918702      0.0164125330     -0.0139440337      0.0058723900      0.8826754237
O      -2.8064458129      0.8368658081     -2.9851375088     -0.0201060039     -0.0061083114      0.0078716588     -0.8195687867
O      -3.3142084433      1.9294452381     -1.0600634954      0.0074762046      0.0136801337     -0.0237727541     -0.8564956171
H      -4.1907154758      3.0266523179     -3.8066967128      0.0021955929      0.0107095219      0.0040749997      0.0408284897
H      -5.2544548077      1.6411169634     -3.5477673054     -0.0074168050     -0.0026734118      0.0041778641      0.0347649876
H      -5.2326860716      2.9836845168     -2.3460689184      0.0145621837     -0.0000467350      0.0096066130      0.0237747395
