24
Properties=species:S:1:pos:R:3:forces:R:3:charge:R:1 energy=-138.82161999062978 homo_lumo=3.633716583502915 dipole="2.118778608351471 -2.3931950120428143 -0.9292556692890687" free_energy=-138.82161999062978
N      -0.6201648790      0.6750918186     -0.4153458417      0.0059749363      0.0002621571      0.0107212437     -0.5116444299
N       1.4626614642      0.1929872619     -0.0279937074     -0.0090701948      0.0061372887     -0.0050144102     -0.5628113573
C      -2.0911230766      0.5411655660     -0.5363206277      0.0055235349      0.0024234433      0.0135828369     -0.0781320167
C       0.2256080922     -0.3217354509     -0.1292548024      0.0080308859      0.0187913617     -0.0041109794      0.5916603558
C       0.0801525255      1.8580125356     -0.4881253060      0.0102007671     -0.0111408079      0.0052656482      0.2571946280
C       1.3918753400      1.5551346291     -0.2540308431     -0.0120820163     -0.0087793370      0.0011819716      0.1979798474
C      -2.6801591222     -0.1262663162      0.6944058128      0.0126018562      0.0081054959     -0.0217339984     -0.1130086375
C       2.6604890514     -0.5468524728      0.3482443843     -0.0131114344      0.0109810437     -0.0120290986      0.1019494856
H      -2.4731777818      1.5669836055     -0.6377595692      0.0058582952     -0.0147270912      0.0140582829      0.1889202334
H      -2.2923130722     -0.0162846940     -1.4662485517      0.0051027320      0.0103033558      0.0162525067      0.0967440779
H      -0.0376248345     -1.3614498541      0.0130576375      0.0084710781      0.0126878163     -0.0002952576      0.1021531737
H      -0.4537421590      2.8021079301     -0.6153120816      0.0102458751     -0.0131555717     -0.0015781840      0.1123694858
H       2.2671587661      2.1904196251     -0.1946270919     -0.0097950283     -0.0085695699      0.0022023963      0.0408478394
H      -2.3896851880     -1.1858862789      0.7757839694     -0.0058074670      0.0028140962      0.0038103460      0.0208365743
H      -3.7753645255     -0.0672138054      0.6346772423     -0.0057221107     -0.0116471133     -0.0093790216      0.0766327868
H      -2.3677539817      0.4355475240      1.5858523300     -0.0125158345     -0.0180686289      0.0003394492      0.1132863838
H       2.4178797096     -1.6140723207      0.4022964225      0.0106176292      0.0049089227     -0.0036667062      0.0689852419
H       3.4422367271     -0.3902535376     -0.4055881362     -0.0048220451      0.0027443872      0.0007693369      0.0742840007
H       3.0071315291     -0.2014436539      1.3315728571      0.0019766088     -0.0041896467     -0.0138584514      0.0816010835
B      -2.4219525382      3.4573144356      1.2262230467      0.0074321478      0.0100498118     -0.0084824544      1.3953293945
F      -2.0799269113      3.7341011964     -0.1672692740      0.0016860173     -0.0011371034      0.0145289615     -0.5838207426
F      -2.5095496122      4.6510502215      1.9398015840     -0.0027286442      0.0006738107      0.0040676823     -0.5288117271
F      -1.3766808097      2.6198686498      1.7548622795     -0.0091754631     -0.0015761562      0.0005373111     -0.5807042702
F      -3.6385531269      2.7306166507      1.2341816792     -0.0088921256      0.0021080350     -0.0071694115     -0.5618414113
