24
Properties=species:S:1:pos:R:3:forces:R:3:charge:R:1 energy=-138.3331415897793 homo_lumo=2.5422854332223346 dipole="-0.04414563094537474 1.744973678555545 3.335297665162345" free_energy=-138.3331415897793
N      -0.5262951064      0.1933424318     -0.3607097173      0.9827027662     -0.8294592224     -0.3221604971     -0.5160766223
N       1.6577159107     -0.0694150816     -0.0443954256     -0.9060943363     -0.7258017355     -0.2288323399     -0.5525097980
C      -1.9252194778     -0.1015046066     -0.6580972708     -0.9193869345     -0.4338339765     -0.1247950733     -0.0798206950
C       0.5040194648     -0.6734486494     -0.3852791025     -0.1391284105     -1.4260195728     -0.3754602972      0.6183695690
C      -0.0076943534      1.3817475451      0.0092928727      0.9666614705      1.4403801906      0.5077221058      0.2308289907
C       1.3495939987      1.2183362530      0.2040918452     -0.7384362886      1.7333884082      0.3011646264      0.2437807632
C      -2.7283222357     -0.2050650576      0.6327182699     -0.0009213314      0.0665355298      0.2933664207     -0.1087024447
C       2.9757785425     -0.6835887166      0.0468161064      0.6014955786     -0.3781183593      0.0030459612      0.0627849103
H      -2.3477435738      0.6982178042     -1.3043286833      0.4639752965     -0.2296550234      0.0881367634      0.1377742344
H      -2.0015080819     -1.0647199517     -1.2081215891      0.4464136387      0.4098406504     -0.0563973303      0.1772543696
H       0.4140636774     -1.7230412129     -0.6324896546     -0.0184700411     -0.1092096722     -0.3721087799      0.1278608444
H      -0.5736155107      2.2968749160      0.1286751156     -0.1847986324     -0.0631181374     -0.0940287327      0.0529084988
H       2.0566258127      1.9789362503      0.5098817041      0.1939632396     -0.1070779924     -0.0367738601      0.0509777583
H      -2.3166131758     -1.0170540454      1.2696139471     -0.1919557150      0.2698230909     -0.1257427436      0.0712751742
H      -3.7877843636     -0.4377656457      0.3966844730      0.3361233380      0.0854159914      0.0807276416      0.0785124578
H      -2.6864214482      0.7542033719      1.1906865389     -0.0986497176     -0.3250383828     -0.0517463829      0.0606366879
H       2.9139714193     -1.7704473571     -0.1759837402     -0.1286923546      0.5356250064     -0.0338704712      0.1070081956
H       3.6607749704     -0.2057772202     -0.6844070315     -0.3548912397     -0.1801617058      0.1722999820      0.1028706906
H       3.3806019910     -0.5506039110      1.0721853775     -0.2538154046      0.0156473407     -0.3296445435      0.0791184825
B       0.5074074897     -2.1164930357     -3.9413603128      0.0762833924     -0.1034505693     -1.0793850022      1.3096144334
F      -0.3925061600     -2.6398360983     -2.9758734224     -0.3749302726     -0.0425975658      0.8179492168     -0.5761995292
F      -0.0303061443     -0.9222895254     -4.4907123488     -0.0892601535      0.1937734916      0.1963791041     -0.5587325355
F       0.6955006762     -3.0715606335     -4.9754710636     -0.0073531426      0.0311882826      0.1848799116     -0.5471221780
F       1.7556218495     -1.8338811772     -3.3247840505      0.3391652545      0.1719239332      0.5852743206     -0.5724122579
