24
Properties=species:S:1:pos:R:3:forces:R:3:charge:R:1 energy=-139.04876324759172 homo_lumo=5.010625087589162 dipole="1.2027306101527566 0.8197991884127258 -1.5062648919296753" free_energy=-139.04876324759172
N      -1.0827425637      0.1934353468     -0.6048285809     -0.1481553194     -0.2244661852     -0.3340954906     -0.5028061084
N       0.4827500831      0.1797402376      0.8721038194      0.4173207645     -0.1608814981      0.2620050991     -0.5386174601
C      -2.3551855066     -0.1453517979     -1.2358156785     -0.3820820680      0.2715819943      0.1730676976     -0.0542032210
C      -0.5390986244     -0.5134381207      0.3804083296      0.2828730903     -0.2868676358     -0.3136508966      0.6382027839
C      -0.4121379756      1.3833706046     -0.7251616717     -0.0117659764      0.2610009190     -0.1134674697      0.2023628022
C       0.5747889530      1.3746311464      0.2083854548      0.0879718394      0.2454620920     -0.0108222120      0.2253206861
C      -3.4686786202      0.6677526480     -0.5839726045      0.1747022764     -0.2140590646     -0.1714302365     -0.0797287151
C       1.1687530249     -0.1772829178      2.1024376174      0.1007629835      0.0769671634      0.0379255541      0.1039378353
H      -2.2794510737      0.0584554367     -2.3078854603      0.1205892774     -0.0192254219     -0.2217699731      0.0968305853
H      -2.5229285558     -1.2124714572     -1.0719132334      0.0221806615     -0.1659370814     -0.0122671917      0.1297299594
H      -0.8627411644     -1.4836821438      0.7168323062     -0.0938513087     -0.1461134263      0.0812280984      0.1108609930
H      -0.6839337345      2.1236364546     -1.4572157201     -0.0640419485      0.1688654645     -0.1564754673      0.0305993497
H       1.3251355418      2.1073471637      0.4486981309      0.1656561366      0.1635369300      0.0594655873      0.0279349167
H      -4.4229943351      0.3816778321     -1.0236812495     -0.3156680048     -0.0429268241     -0.1514661102      0.0332672782
H      -3.3074495122      1.7340622288     -0.7391911390      0.0040002216      0.3492575325     -0.0801895843      0.0266182017
H      -3.4900100604      0.4609525265      0.4852193502     -0.0156080943     -0.0344290894      0.2158174896      0.1422022887
H       1.2026333944     -1.2619356970      2.1825250335      0.0482840189     -0.1586678978      0.0562350196      0.0768766837
H       2.1733814632      0.2420906898      2.0978662189      0.2579192208      0.0995679304     -0.1034240316      0.0543751783
H       0.5873477223      0.2178927590      2.9373675120     -0.0981011056      0.0259055622      0.1630997819      0.0923715026
B      -2.2895362470     -1.0423948273      2.5584715012      0.1742552899      0.1292082272     -0.2103442901      1.4297274021
F      -1.9544663803      0.2993148322      2.2093626909     -0.0651139974      0.7941746369      0.1719370592     -0.5780064511
F      -3.1572172495     -1.0809571583      3.6067079477     -0.6546117387     -0.0559310893      0.8051978561     -0.5173501761
F      -1.0681315577     -1.6998849033      2.8412532898      0.4349126156     -0.5576494903      0.3162431516     -0.5737139841
F      -2.8389557725     -1.6321392115      1.3912635355     -0.4424288345     -0.5183737482     -0.4628194410     -0.5767923312
