58
Properties=species:S:1:pos:R:3:forces:R:3:charge:R:1 energy=-321.0018450570911 homo_lumo=3.3077996003017347 dipole="-0.12842455397642363 1.329347634456727 1.4916033751315794" free_energy=-321.0018450570911
N       0.2261931485      1.8197005667     -0.2037844072     -0.0032096506     -0.0054987217     -0.0043839677     -0.4801574460
C      -0.2811317701      2.5429328751     -1.4414348393      0.0103239245     -0.0012261064     -0.0001039016     -0.0379497588
C       0.5554601880      2.9485623136      0.7428497843     -0.0017775544      0.0017933010     -0.0219895013      0.0145912552
C      -0.8432765754      0.9296771103      0.3867756896     -0.0038178547     -0.0000235042     -0.0054084022     -0.0057927393
C       1.4708516765      1.0368126530     -0.5998289585      0.0098489430      0.0108797594      0.0123600914     -0.0968355583
C       0.6164989684      3.7748501395     -1.5593577785     -0.0004348010     -0.0056025792      0.0106778478     -0.1466300933
C       1.1773177260      4.0351368788     -0.1343044365      0.0070900448     -0.0028904623     -0.0030336523     -0.1545028382
C      -1.2672719925     -0.2064097280     -0.5213592926      0.0002281635     -0.0003882179      0.0064335542     -0.2458660286
C       2.1028161075      0.2010618373      0.4972736701     -0.0060860508     -0.0008016501     -0.0143363399     -0.2072909036
C      -2.4131110417     -1.0076609779      0.0925884556      0.0044904222      0.0011792404     -0.0042985188     -0.1563220343
C       3.2533514875     -0.6100650074     -0.1136267975     -0.0074226357     -0.0022924733      0.0154384639     -0.1730087610
C      -2.8264531703     -2.1697463838     -0.8107981317     -0.0001140901      0.0018530059      0.0061374468     -0.1734563053
C       3.9074657186     -1.5549325589      0.8904700477      0.0017715812      0.0045700928     -0.0017651624     -0.1631815575
C      -3.9764149109     -2.9969933054     -0.2413728405      0.0060875980      0.0064291060      0.0011045253     -0.2004264647
C       5.0014098232     -2.4203163038      0.2658797194     -0.0064020255      0.0080171453      0.0052216301     -0.2036029315
C      -4.3765432181     -4.1577714660     -1.1498217591      0.0042966658      0.0034370103     -0.0003496303     -0.0646709528
C       5.6663233153     -3.3558898470      1.2733447180     -0.0034047677      0.0062363360     -0.0049604858     -0.0637386652
H      -0.2310101287      1.8310166726     -2.2980151057     -0.0103682766     -0.0131143443      0.0143426914      0.2189422291
H      -1.3215627400      2.8269269539     -1.2171144868     -0.0057708405     -0.0141009613     -0.0146654272      0.0944298006
H      -0.4020807000      3.2838221713      1.1713011307      0.0156585393     -0.0205600764      0.0030356245      0.1141271249
H       1.2008516368      2.5735887074      1.5477725115     -0.0143598890      0.0034989200     -0.0030734407      0.1253426765
H      -0.4500047145      0.5606471811      1.3471503661     -0.0037323679     -0.0083387338      0.0052574193      0.1208695866
H      -1.6905054365      1.6018480038      0.6060443568      0.0020494032     -0.0037016349      0.0017645510      0.1056112853
H       1.1714963590      0.3643233482     -1.4329571453      0.0062876337     -0.0120627380     -0.0006818721      0.2833950142
H       2.1827323056      1.7809587633     -0.9874281720      0.0001100943     -0.0101488459      0.0051453645      0.1333596830
H       1.4313670915      3.5922386151     -2.2747224274     -0.0100814993      0.0082548404     -0.0095109531      0.0923255116
H       0.0349812416      4.6289642990     -1.9345947996      0.0191762109     -0.0073614071     -0.0160942863      0.0946520699
H       0.9055801351      5.0290570670      0.2493683141      0.0149115505      0.0057574330     -0.0036326529      0.0915525435
H       2.2753124779      3.9697637288     -0.1246321685     -0.0013751646      0.0030280667      0.0080880336      0.0862972836
H      -1.5729847282      0.1903246319     -1.5037387903      0.0113093159      0.0005515103     -0.0085272616      0.1531677625
H      -0.4149343898     -0.8699092475     -0.7443028354     -0.0017564980      0.0041645226     -0.0267489566      0.1890782892
H       2.4771200929      0.8082364699      1.3423201566     -0.0117891417      0.0077338244      0.0038084810      0.0652851604
H       1.3650596305     -0.5133418021      0.9006325162      0.0035221097     -0.0082196430      0.0039079968      0.1118601854
H      -2.1137098526     -1.4035424107      1.0819698292      0.0035899298     -0.0051722604      0.0078993374      0.0683139540
H      -3.2871298482     -0.3509369877      0.2680548333     -0.0094003113      0.0002908704      0.0078983695      0.0624828586
H       4.0167506805      0.0784455000     -0.5217223349      0.0031824502      0.0146895652      0.0025171323      0.0659089480
H       2.8474602432     -1.1798673610     -0.9675660403     -0.0023172182     -0.0013796160     -0.0058874457      0.1648415592
H      -3.1114617185     -1.7715125270     -1.8019514522     -0.0053792577      0.0000059767     -0.0023393554      0.1016402938
H      -1.9482558944     -2.8173017423     -0.9864879974      0.0017003936     -0.0086941828     -0.0014606639      0.1073170139
H       4.3329919808     -0.9747511167      1.7319801426      0.0100540234     -0.0018549441      0.0136433204      0.0681752146
H       3.1332685079     -2.2143243616      1.3260261329     -0.0115187809     -0.0103996237      0.0052086927      0.0822782690
H      -4.8491998951     -2.3385085497     -0.0741012807     -0.0010954972     -0.0060663038      0.0044828459      0.0762126589
H      -3.6855200379     -3.3863035558      0.7519622244     -0.0056502497     -0.0012722153      0.0024475576      0.0772365051
H       4.5608422565     -3.0090746072     -0.5585084095      0.0029467585      0.0042815911     -0.0033969283      0.0954590205
H       5.7634124874     -1.7647407315     -0.1939185559      0.0048239023     -0.0015598290      0.0008953920      0.0812960377
H      -4.6988498369     -3.7899556150     -2.1373637682      0.0026917647      0.0003654180     -0.0024305929      0.0352250410
H      -5.2040684941     -4.7433464143     -0.7204058580      0.0010590057      0.0051819036      0.0037468534      0.0316341312
H      -3.5265653166     -4.8402279815     -1.3108733413      0.0040992326      0.0006537565     -0.0010665325      0.0369332987
H       4.9262215446     -4.0357310536      1.7262068899     -0.0000602136      0.0054715589      0.0010568628      0.0319948774
H       6.4447185641     -3.9743910774      0.8004039055     -0.0056828811      0.0087235454     -0.0051320773      0.0354843164
H       6.1386194293     -2.7842396080      2.0891278124      0.0001420231     -0.0040509222      0.0032989006      0.0274754084
C       0.4430968843     -1.6057488923     -4.7404813295     -0.0060640863      0.0031983534      0.0011850223     -0.0936265789
C       0.4804730372     -0.7559748984     -3.4632379210     -0.0046410510      0.0056944312     -0.0036723699      0.9165938455
O      -0.0301683395      0.4063090172     -3.5405305899     -0.0078156454      0.0096458943     -0.0035436764     -0.8423255171
O       0.9941648511     -1.2907310466     -2.4318647820      0.0155066298     -0.0033494531      0.0005396986     -0.8497682358
H       0.6526723702     -0.9865555080     -5.6244918734      0.0007301161      0.0115760970      0.0018113431      0.0323254298
H       1.1519602681     -2.4431848274     -4.6814310867     -0.0014911031      0.0093517229      0.0058284231      0.0278248135
H      -0.5707443376     -2.0183510643     -4.8651550467     -0.0146690265      0.0036166513      0.0073105817      0.0376124135
