58
Properties=species:S:1:pos:R:3:forces:R:3:charge:R:1 energy=-320.948036763441 homo_lumo=3.3058490622564003 dipole="0.08811607450092745 -0.07588923616171137 1.9549769835316746" free_energy=-320.948036763441
N      -0.3620547012      2.1448532267      0.3358889634      0.0014429180     -0.0076807377     -0.0059226632     -0.4807202425
C      -1.1733474980      3.1400720450     -0.4887612671      0.0055185035     -0.0027737062     -0.0035213200     -0.0319454485
C       0.2986081874      3.0367795724      1.3610840152     -0.0039783845     -0.0069637929     -0.0160069184      0.0129776546
C      -1.2597429445      1.1279327109      0.9970409657     -0.0021532748      0.0072063821      0.0008097539     -0.0011720641
C       0.6536840941      1.4760874945     -0.5805225830      0.0041306110      0.0099394694      0.0029600713     -0.0944241781
C      -0.2743830947      4.3687762298     -0.6060822886     -0.0058362371     -0.0055784714      0.0099157711     -0.1516042686
C       0.7199191635      4.2831390771      0.5833046952      0.0024885722     -0.0094139910     -0.0064283063     -0.1544328591
C      -1.9123265606      0.1632433922      0.0177739019     -0.0004586784     -0.0004201640     -0.0011028235     -0.2297165228
C       1.5748969961      0.4797623259      0.0975243375      0.0039202865      0.0015620427      0.0054890163     -0.2169573755
C      -3.1087582384     -0.5444433348      0.6535961805      0.0018122254      0.0010404187      0.0088222413     -0.1595501688
C       2.4967154781     -0.1530207204     -0.9521310630     -0.0047478626      0.0034279420      0.0001985828     -0.1632618354
C      -3.7729447107     -1.5330230149     -0.3039412225      0.0044893806      0.0029139265      0.0025030025     -0.1661141254
C       3.4611222929     -1.1777234051     -0.3592426187     -0.0067761387      0.0043129088      0.0041163794     -0.1633032014
C      -4.9814955614     -2.2394250948      0.3063227126      0.0000461272      0.0013292198     -0.0009039199     -0.2029620509
C       4.3798042409     -1.8144452642     -1.4013989606     -0.0048874176      0.0029875299      0.0040069409     -0.2040078572
C      -5.6394588722     -3.2268894614     -0.6545223648      0.0045176214      0.0035380070     -0.0029142856     -0.0653130714
C       5.3352541677     -2.8408971467     -0.7977893898     -0.0053030836      0.0053677559      0.0025258074     -0.0641017286
H      -1.4021716912      2.6556225697     -1.4608793608      0.0093698232      0.0026584268     -0.0032745243      0.2203074070
H      -2.0822122789      3.3390444455      0.1011469618     -0.0076852884     -0.0067907915     -0.0088395796      0.0834997431
H      -0.4798890304      3.2717847390      2.1048340705      0.0145239553     -0.0065259770     -0.0188670437      0.1131235114
H       1.1144326058      2.4944408401      1.8556236280     -0.0087608280     -0.0115194164     -0.0055637232      0.1170962425
H      -0.6545689324      0.5991481090      1.7501286429      0.0105463946     -0.0001801341     -0.0091012990      0.1167047109
H      -2.0221694592      1.7148625391      1.5361881495      0.0014095323     -0.0014979639     -0.0263338339      0.1138256757
H       0.0470202550      1.0320408654     -1.3913267305      0.0071711812      0.0066744006      0.0136548287      0.2520778221
H       1.2055387067      2.2854891558     -1.0793005481      0.0015908088     -0.0104093076      0.0163445659      0.1944984017
H       0.2398580787      4.3243980638     -1.5798019142     -0.0005188803     -0.0107373074      0.0111026663      0.1405332297
H      -0.8806860274      5.2849141776     -0.5701057013     -0.0024140624      0.0019394959     -0.0023572555      0.0731930030
H       0.6811475634      5.1667159419      1.2371968393      0.0009078414     -0.0080265366     -0.0010974039      0.0853185122
H       1.7551999609      4.1894955117      0.2226356078     -0.0013249874     -0.0170388578     -0.0011270016      0.0854745685
H      -2.2204745583      0.6944649173     -0.8981329828     -0.0083193628     -0.0086688058      0.0106791320      0.1820689579
H      -1.1771665220     -0.5885398173     -0.3156941158     -0.0078010006     -0.0016729018      0.0092262179      0.1194185732
H       2.1965654493      0.9555832191      0.8779608721      0.0082872624      0.0091735281     -0.0175897626      0.0817765333
H       1.0012964025     -0.3239549773      0.5928146488     -0.0068015561      0.0013736038     -0.0212637028      0.0946628616
H      -2.7957210112     -1.0776305280      1.5718292004      0.0074281650     -0.0030721970     -0.0014919244      0.0717378666
H      -3.8546428703      0.2090047752      0.9711457441     -0.0026241044      0.0031942020     -0.0106895355      0.0782543597
H       3.0679452336      0.6423950245     -1.4641427871     -0.0059606398      0.0025986705      0.0030015185      0.0984164982
H       1.8765125051     -0.6315806375     -1.7312872156      0.0013526859      0.0018733527      0.0040877631      0.1110386648
H      -4.0789546187     -0.9975014335     -1.2213417185      0.0045242314      0.0028345101      0.0028545823      0.1036497494
H      -3.0305602945     -2.2876706230     -0.6250457260      0.0045850182      0.0022558138      0.0102818865      0.0893015380
H       4.0796814952     -0.6958391450      0.4221436170     -0.0034792396      0.0098228049     -0.0025591495      0.0781835016
H       2.8851929821     -1.9740527733      0.1501061621     -0.0079181518      0.0015088160     -0.0015758002      0.0801873482
H      -5.7235833790     -1.4831772176      0.6230594633      0.0065069090      0.0090059512     -0.0020675667      0.0817450998
H      -4.6697395096     -2.7700679093      1.2249838226      0.0085574752      0.0056762225     -0.0005325509      0.0789810516
H       3.7647809973     -2.2952985829     -2.1835587785     -0.0135793431      0.0067878861      0.0058567816      0.0888867192
H       4.9591156051     -1.0220234203     -1.9093920488     -0.0100338700      0.0098036943      0.0056891171      0.0876528991
H      -5.9892798284     -2.7171490397     -1.5665767702      0.0031307860      0.0056460181      0.0061494935      0.0378770124
H      -6.5054087595     -3.7202578209     -0.1877273269     -0.0132479958     -0.0134539142     -0.0124218819      0.0351196499
H      -4.9285877587     -4.0102823148     -0.9639978216     -0.0003513683      0.0035195421      0.0069840778      0.0341504032
H       4.7794787367     -3.6589949475     -0.3108650245     -0.0013582409      0.0054766647     -0.0059015558      0.0314865318
H       5.9835320686     -3.2847564829     -1.5680515540      0.0130751680     -0.0120273881      0.0023649747      0.0387306527
H       5.9829191733     -2.3780079750     -0.0354263473     -0.0017362442      0.0036234378     -0.0074553972      0.0309098807
C      -0.5818966612      1.7366442335     -5.1936207758     -0.0005450377     -0.0048649182      0.0039959682     -0.0904661310
C      -0.4875489842      2.0236508316     -3.6883983293     -0.0049371656      0.0021842421      0.0249025228      0.8952193114
O      -1.2719246856      1.3385058902     -2.9421762481      0.0090398366      0.0207054220      0.0120920291     -0.8600004633
O       0.3547779607      2.8851333304     -3.3071791454     -0.0085235856     -0.0046936028     -0.0041942131     -0.8286224015
H      -0.0013471406      0.8286458761     -5.4238494774      0.0050187457     -0.0052966581      0.0066149101      0.0330082819
H      -1.6249996817      1.5390885235     -5.4803581254      0.0044179002      0.0016417913     -0.0111836619      0.0294079526
H      -0.1704443260      2.5678756059     -5.7828786262      0.0022520640     -0.0042965587      0.0150580010      0.0281736128
