31
Properties=species:S:1:pos:R:3:forces:R:3:charge:R:1 energy=-164.6380623499685 homo_lumo=6.038227140340581 dipole="-2.4719004485061795 -1.6419889875291787 -1.2978662262680385" free_energy=-164.6380623499685
N       0.5509477299     -0.0360012105      0.3453003459      0.2012122944     -0.1299778940      0.1313810756     -0.5368314882
C      -0.3666836202     -0.9659240393     -0.3799357176     -0.4086863763     -0.0349811788     -0.2372667858      0.0221017988
C      -0.3487716447      0.6740742416      1.3096212307     -0.5454754321      0.3643680433      0.0578146145      0.0178116712
C      -1.6755701493     -0.1939027421     -0.5427675073      0.0870086189     -0.0602496609     -0.0286071115     -0.1311003836
C      -1.6606923685      0.8793785757      0.5589285668      0.1110403322     -0.0661250850      0.0228794162     -0.1418077138
C       1.6183950955     -0.7697501362      1.1081162861      0.5718646326     -0.2830512135     -0.1718228354     -0.0956070232
C       1.1441924751      0.9477605549     -0.6024728613      0.0062476812      0.1673676049     -0.1631195256      0.0558272499
C       2.6177212826     -1.4930320415      0.2222319194     -0.4075799513      0.2347777710      0.0774941511     -0.0820081073
H      -0.5076169008     -1.8513919350      0.2440550483      0.0583331185     -0.1673753309      0.1990262843      0.1232737133
H       0.0809621744     -1.2595648705     -1.3292920435      0.1485395833     -0.1158085566     -0.1449367051      0.1190998055
H       0.1295553216      1.5994170697      1.6284551415      0.1923768252      0.0505720462      0.1421796797      0.1777364710
H      -0.4887000571      0.0217319499      2.1740962647      0.0835023802     -0.2105852136      0.1581646759      0.1181166203
H      -2.5255885661     -0.8695018992     -0.4346076487     -0.1952303518     -0.1742872941     -0.0817733513      0.0955591107
H      -1.7322469758      0.2665765388     -1.5310863778     -0.0742640636      0.0604679245     -0.2433096193      0.0863656568
H      -1.7092134542      1.8793289707      0.1238556089     -0.0626735294      0.2483266676     -0.0503995522      0.0877896415
H      -2.5054274057      0.7653368965      1.2399673969     -0.1947267459      0.0749689907      0.1677003563      0.0977620646
H       2.1306911355     -0.0288858579      1.7233407835      0.0228843559      0.0673568597      0.1379462036      0.2676573476
H       1.1024605207     -1.4800026142      1.7598607401     -0.2571972430     -0.1032067183      0.1206659829      0.0888705620
H       1.7062304390      0.4153642852     -1.3655299099      0.1223882413     -0.1680439025     -0.1793572737      0.0730536391
H       0.3443467193      1.5190052623     -1.0674427085     -0.2938834761      0.1025755319     -0.1343679199      0.0842659338
H       1.8051466999      1.6089802340     -0.0478586891      0.1371453262      0.1057831413      0.1264339467      0.1884670653
H       3.2577568542     -2.0895395440      0.8715849897      0.2253205605     -0.1640141717      0.1542299359      0.0761503172
H       2.1269721985     -2.1572661856     -0.4889302763     -0.1124262609     -0.3169987695     -0.1877998734      0.0287823979
H       3.2494337186     -0.7871227625     -0.3130649693      0.2352192895      0.1514143915     -0.0690033850      0.0794677891
P       3.7552056846      2.1863534924      2.0856639999     -0.0987852046     -0.0811909735     -0.1001107232      2.1881286567
F       3.6132475506      0.7888619665      2.9689191656      0.0074197851     -0.1349958064      0.1226350247     -0.5194546292
F       5.3729188840      2.1095679041      2.1621351793      0.2670940093     -0.0140866866      0.0223614846     -0.4907755531
F       3.7687342842      1.2395807418      0.6906577049      0.1569913339      0.1024589409     -0.0109866380     -0.5369313879
F       3.8004088415      3.5228848365      1.1485058485      0.0018352699      0.2114319099     -0.1417848548     -0.5011069018
F       2.0557903822      2.2050798088      1.9679401220      0.0374693790      0.1448499605      0.0892813052     -0.5488711583
F       3.6594590800      3.0775904094      3.4398685916     -0.0229643821      0.1382586719      0.2144520169     -0.4917931658
