31
Properties=species:S:1:pos:R:3:forces:R:3:charge:R:1 energy=-163.47215211150615 homo_lumo=4.60461477656765 dipole="0.01862250059811397 -4.365928885404783 -1.6405627773539846" free_energy=-163.47215211150615
N       0.1621989634      0.2811585042     -0.0684247639      0.3802845370      0.2629740944     -0.0649973966     -0.5557389389
C      -0.4313877827     -1.0287997442     -0.4502538098     -0.4048851448     -2.1781972875     -0.5450493083     -0.0054100495
C      -0.9364019865      1.0398417947      0.6024496333     -1.5916504992      1.7431673528      1.1579564730     -0.0217974782
C      -1.9385864791     -0.8732161869     -0.4313505688     -0.4264490238     -0.0809391006     -0.7150729863     -0.1450859509
C      -2.1765495261      0.1598184141      0.6370826830     -0.4069959650     -0.1331358024      0.6558232749     -0.1466027539
C       1.3027003404      0.1100920149      0.8831619397      1.6226975133     -0.3241730759      0.9625270193     -0.0912432261
C       0.6006987445      1.0193539790     -1.2817244637      0.4961618272      0.7029092850     -1.2408786605      0.0059047992
C       2.4963179605     -0.6800760403      0.3185083528     -0.1895034642      0.1117241894     -0.2247838994     -0.1182001824
H      -0.1733542661     -1.8254092417      0.2853205972      0.2666333927      0.6068628346     -0.0941587124      0.1457758737
H      -0.0934160963     -1.3860424381     -1.4495585802      0.2216219671      0.3669827639      0.4794422824      0.1349099822
H      -1.1951786192      1.9807674244      0.0639370940      0.6970861101     -0.3255912093      0.0666840166      0.1945236928
H      -0.6826756812      1.3496299446      1.6422385059      0.3862687006     -0.0123169503     -0.6124811901      0.1876144891
H      -2.4512899356     -1.8310127725     -0.1949503491      0.2149549210      0.2831685558     -0.3440842193      0.1012247280
H      -2.2919300161     -0.4899440104     -1.4137717823      0.0045348312     -0.2368348590      0.2175173273      0.1031399372
H      -3.1039833708      0.7407784871      0.4407204056      0.3626819707     -0.1536151519      0.3085977129      0.1108627651
H      -2.2550711061     -0.3399930704      1.6282317109     -0.1172993962      0.2153807539     -0.2630974619      0.0998198778
H       1.6789531503      1.1055446580      1.2115855640     -0.5242734470     -0.0999577565     -0.2709611481      0.2010977392
H       0.9535907604     -0.4147446513      1.8022539824     -0.3382505138      0.2661879755     -0.4995887953      0.1423475009
H       1.3357610348      0.4348185052     -1.8750224983     -0.2436524535      0.0219907623      0.4661290713      0.1083689485
H      -0.2613811080      1.2248146273     -1.9560104549      0.1824319180     -0.1638025749      0.5358445785      0.1199760017
H       1.0654950654      1.9922901690     -1.0064929204     -0.3345056248     -0.3520611153      0.1665382172      0.1562036113
H       3.2128740381     -0.8900647203      1.1407964012     -0.2942322508      0.1163381264     -0.2197362289      0.0980658911
H       2.1782675642     -1.6501595905     -0.1140933015      0.1675776909      0.2159930402      0.0955624903      0.0620606783
H       3.0364682663     -0.0884362038     -0.4485057028     -0.1103977457     -0.2576012496      0.1889380272      0.0742023042
P       0.0426276491      5.0919910980      1.8131951412     -0.0917073166      1.5383527223      0.5921839265      2.1171089643
F      -0.8140988444      3.8920033192      2.6949330303      0.7255537406      0.4050525530     -1.0084410682     -0.5213077032
F       1.3600390096      4.0002050068      1.6555075252     -0.7473998078      0.7369135505      0.1387485570     -0.5282289815
F      -0.4763977601      4.5456453543      0.2695634843      0.1439157313     -0.0554325365      1.0837597525     -0.5267746669
F       0.8863145210      6.3887044148      1.0655952376     -0.7458208656     -1.5293961485      0.2485852171     -0.5009308324
F      -1.3865116882      6.0406848035      1.9118779010      1.4955576933     -0.7261279559     -0.0722447868     -0.5016221892
F       0.6776624550      5.7152489381      3.2831112544     -0.8009390258     -0.9648157860     -1.1892620818     -0.5002648316
