52
Properties=species:S:1:pos:R:3:forces:R:3:charge:R:1 energy=-277.9267277255791 homo_lumo=2.785160159696423 dipole="-9.31450024726651 1.7106658237328602 0.4185437011333" free_energy=-277.9267277255791
N      -0.0698936006      1.4812689518     -0.0033887655     -0.0582082594     -0.0787586611     -0.0082004555     -0.5215391703
C       0.5278011051      2.4155923672      1.0012157735      1.3046279291      1.0510294518      1.7219834032     -0.0143098242
C      -0.7384032805      2.3671006402     -1.0061339254     -1.3592125154      0.9559971665     -1.6814718873     -0.0112311826
C       1.0107786311      0.6909667488     -0.6785354851      1.2743572034     -1.2133129092     -0.3348980603     -0.0529934406
C      -1.0834223801      0.6061262316      0.6710861724     -1.0849629662     -1.2237406111      0.3299129555     -0.0453164481
C       0.0134691731      3.8149563917      0.7193192707     -0.4340894578      0.4312953775      0.5905813745     -0.1418955306
C      -0.2959041542      3.7948902271     -0.7507769482      0.4232903379      0.4379701009     -0.6078867716     -0.1440452528
C       1.7568325657     -0.3025235179      0.2461871605     -0.3622936743      0.3246165674     -0.1537885325     -0.2168313381
C      -1.7730846817     -0.4218388599     -0.2596677469      0.3173933500      0.3203288447      0.1523507903     -0.2160306693
C       2.9699482754     -0.9037291953     -0.4733847393     -0.1205266557      0.0768762749      0.1506805434     -0.1729330593
C      -2.8773865724     -1.1740453317      0.4935044771      0.1408460378      0.0833376490     -0.1691424863     -0.1715221438
C       3.7009783634     -1.9152150923      0.4165694107      0.0995216071     -0.0675409925     -0.1389437001     -0.2149790343
C      -3.5914559165     -2.1772058689     -0.4194357614     -0.0688471418     -0.0267623316      0.1611546156     -0.2127930566
C       4.8947754499     -2.5215544713     -0.3144290915      0.1499065794     -0.0675826084      0.0286249131     -0.1010624218
C      -4.6634167797     -2.9478054967      0.3462843686     -0.1403749591     -0.1576480316     -0.0806809868     -0.0904074684
H       1.6389755589      2.4597427565      0.9287660894     -0.4640610449     -0.5278723341     -0.2796641742      0.1676809375
H       0.2959871591      2.1362928876      2.0542012664      0.0271267213     -0.3262232066     -0.6012676701      0.1446852097
H      -1.8482665303      2.3526155912     -0.9070961271      0.4807004512     -0.4764229232      0.2754685173      0.1492088961
H      -0.5143129173      2.0863263440     -2.0603229670      0.0136540790     -0.3206503895      0.6048193882      0.1469773325
H       1.7571684953      1.3906458636     -1.1219516091     -0.4626736313      0.0660765129      0.3193450066      0.1627722012
H       0.5974210528      0.1203120744     -1.5393276916     -0.2184489137      0.3177598446      0.3908740420      0.1582024904
H      -1.8725769120      1.2441331343      1.1330267120      0.4599653159      0.1144806013     -0.3110584663      0.1495526521
H      -0.6183213251      0.0546280156      1.5179137386      0.1969536648      0.3250891435     -0.4104414686      0.1657676213
H       0.7678462034      4.5943914088      0.9642015812     -0.3566682845     -0.3205686857      0.1538591983      0.1137305425
H      -0.9179035686      3.9993755155      1.2991015084      0.3052960754      0.0842829902     -0.0848333874      0.1029490275
H      -1.0893719510      4.5301490986     -1.0085701180      0.3775551434     -0.2988219845     -0.1521075449      0.1065869497
H       0.6248279346      4.0158580100     -1.3346093346     -0.3174575517      0.0646256477      0.0880131672      0.1146726211
H       1.0785961589     -1.1322491577      0.5369839718      0.1027463993      0.2221738474      0.0195521674      0.1243352425
H       2.1010620980      0.2041139241      1.1722696915     -0.1002622785     -0.1124489044     -0.1557942103      0.1192405834
H      -1.0350019221     -1.1665475544     -0.6238573647     -0.1240117966      0.2334820127      0.0086427202      0.1370751876
H      -2.2176380747      0.0858039714     -1.1413455498      0.1350572234     -0.1077017010      0.1370845269      0.1169398022
H       3.6730883782     -0.0884493441     -0.7532406895     -0.1223393262     -0.2376223523     -0.0390446803      0.1144486134
H       2.6300751553     -1.4114527952     -1.4030927735      0.1541562475      0.1523932876      0.1230392366      0.0947066583
H      -3.6207539765     -0.4456583372      0.8858964341      0.1492524903     -0.1931380342      0.0313826333      0.0944115209
H      -2.4267795721     -1.7164841067      1.3540685423     -0.1826823977      0.1544912515     -0.1121018895      0.1034783149
H       3.0071139579     -2.7329657829      0.7091710709      0.0159118485      0.2513210228      0.0650901614      0.0757607246
H       4.0629481547     -1.4115799036      1.3392899475     -0.1865332895     -0.1005448058     -0.1506198487      0.1012746411
H      -2.8564679299     -2.9012950865     -0.8332599444     -0.1140054123      0.2539378599     -0.0175213824      0.0994072995
H      -4.0717786225     -1.6391530278     -1.2655158186      0.2350230085     -0.1070513009      0.0986088347      0.0938546240
H       5.4270240284     -3.2263140126      0.3588518482     -0.0304832412      0.2367881981     -0.3395858886      0.0660362005
H       4.5552061708     -3.0753495294     -1.2157792674      0.1678154095      0.1306829408      0.2233940985      0.0259497056
H       5.5998542313     -1.7219773068     -0.6235099280     -0.0055924460     -0.3539906494      0.0816718401      0.1137937422
H      -5.1683746893     -3.6622157087     -0.3377589885      0.0576539527      0.1630328470      0.3239870018      0.0599243878
H      -4.2048647718     -3.5193076074      1.1817047707     -0.2368692011      0.1437147138     -0.2012675071      0.0494420279
H      -5.4242496637     -2.2485444025      0.7552549490      0.1761066946     -0.2882611055     -0.0522643478      0.0459443160
P       9.7203899280     -0.5270883773     -0.4455075728      0.4682382253     -0.0329696860     -0.0412553818      2.0944165520
F      10.1863707655     -2.1326650380     -0.8400499886     -0.4300490263      1.3995204360      0.3143967457     -0.5098914499
F       9.7573793679     -0.0993302275     -2.1087241156     -0.0681929900     -0.3397404504      1.4112686654     -0.5119839476
F       8.0714860680     -0.9708724859     -0.6150367544      0.9927642732      0.2879263947      0.1557043380     -0.5272278914
F       9.2393180025      1.0701638629     -0.0356193122      0.3427675476     -1.2799574618     -0.3606988230     -0.5156868628
F       9.6691085367     -0.9604481500      1.2158964068      0.0004105660      0.3820233901     -1.3925450899     -0.5127281284
F      11.3705750500     -0.0758058935     -0.2951638369     -1.5202519209     -0.4059222544     -0.0844062440     -0.5078183052
