38
Properties=species:S:1:pos:R:3:forces:R:3:charge:R:1 energy=-204.55633905044837 homo_lumo=1.2194340672169137 dipole="-4.246644182197181 -0.5178434735373301 -3.3168422171301652" free_energy=-204.55633905044837
C       2.6809306659      0.3094701666      1.5066555828      0.3051913838      0.2797805206      0.7891424896     -0.1689574118
C       1.6444193434      1.2622253990      0.9331204716      1.8524301991      1.5685721314      0.3768408162     -0.0160858806
H       1.3004896983     -0.8882331224     -0.9249068148     -0.4441006210      0.4138166888      0.3658319209      0.1435779820
H       0.3432763186     -1.6991356031      0.3590879404     -0.1021924712      0.6246900134     -0.2169085027      0.1383242007
H       3.1286544076     -1.4574036668      0.3157104791     -0.4127340635     -0.0391993769      0.2544327171      0.1066030129
H       2.1385535300     -1.7658509980      1.7990049161      0.2231762239      0.1402143188     -0.3726657014      0.1043427661
H       2.6189873617      0.3071786686      2.6161236367      0.5091606626      0.1131854173     -0.2816169846      0.1691483087
H       3.7081187567      0.6043557913      1.1986562358     -0.4127517753      0.1023453016      0.5175824837      0.1476004640
H       1.3876801127      2.0605784247      1.6675968598     -0.2239646850     -0.3543539506     -0.4271390142      0.1445511638
H       2.1089168099      1.7680968333      0.0537680749     -0.6741987390     -0.2760453746      0.0381523997      0.1402664793
H      -1.2508221556     -0.4226573677      1.4982018750      0.3894847556      0.3051174907     -0.1910495738      0.1148681637
C      -0.4482619212      0.3199800860      1.6962792898     -0.8889838419     -0.2228918712      1.0115663272      0.0139940177
H       0.0989317012     -0.0360321543      2.5972955017      0.1211651096      0.1954847662     -0.5296390804      0.1552043456
H      -0.9251047972      1.2935433834      1.9471496860      0.3502198763     -0.3055291500     -0.2616725744      0.1058591353
C      -0.2149151161      1.1489281756     -0.6180555539     -1.4106170731      0.9464561478     -0.9784138687     -0.0239297571
H      -0.3355148223      2.2294993402     -0.3707891716      0.2952275194     -0.4301183130      0.2895701395      0.1543951715
H       0.4304113937      1.1257520028     -1.5260424978      0.0593157985     -0.2798388883      0.5967081524      0.1400778752
H      -2.3358730365      0.7374745254     -0.1562185919      0.1569112983      0.0272251861     -0.1800286645      0.1095036322
H      -3.0227021200     -2.0929964035     -2.6464453506     -0.1314687598      0.3180848473      0.0611829811      0.0615713899
C      -1.6680731030     -0.7730241428     -1.5845685475     -0.2551806914      0.0614883453      0.0473434450     -0.2493489755
H      -0.8505248786     -0.9104063481     -2.3248171501     -0.0818866805     -0.0171937787      0.2786151926      0.1009466957
H      -1.5522743844     -1.5143600549     -0.7701903529      0.2069130823      0.0606155559     -0.1897513913      0.1204461578
C      -3.0047504236     -1.0489658555     -2.2689423921     -0.0890622642     -0.1578839713     -0.0982601209     -0.0871615406
H      -3.1497461923     -0.3593721071     -3.1277445531     -0.0673424355     -0.2196043099      0.2416183720      0.0485559979
N       0.4619777966      0.4617901151      0.5293121678     -0.4568301194      0.3185478741     -0.1803950552     -0.5557246129
C       1.0357303080     -0.8543512296      0.1563384494      0.5938405376     -2.1185406291     -0.8199016075     -0.0156468641
C       2.3162992391     -1.0561710643      0.9608996496      0.1382084332     -0.7285002706      0.2391907220     -0.1320250274
H      -3.8401102582     -0.9178361816     -1.5481249542      0.1567878328     -0.0410426634     -0.3025474233      0.0499972800
C      -1.6287425625      0.6483294311     -1.0071052515      0.4861710220     -0.2566677013      0.0330757076     -0.1922278978
H      -2.0032701972      1.3473266153     -1.7876901435      0.2014123306     -0.0474437393      0.2110480794      0.1314222459
S       5.2757974131      1.3187869998      4.6673444119     -0.2274807332     -6.8995891235     -7.9634186036      1.5742694615
O       6.5383887931      0.4909531867      4.3877685962     -0.4919453608      2.3481716322      2.4021555287     -0.7532019123
O       4.1831989783      0.2503904598      4.8163182214      0.2315172004      2.1699929086      2.0585310837     -0.7946409091
O       4.9646090478      1.9527544355      3.3041504390      0.0656848142      1.7638372150      2.4611152915     -0.8014355098
C       5.4051572605      2.4872690531      6.0469196588      0.2104732187      0.4623426207      0.6318082490      1.1140238222
F       6.4446291771      3.3656056308      5.8097680692     -0.8672763330     -0.4627714578      0.5140984989     -0.4301088287
F       5.6454944534      1.7933051511      7.2168727041     -0.1965180947      0.8622056203     -0.6892109128     -0.4303843048
F       4.2232772008      3.1928895700      6.1639946113      0.8812434437     -0.2249600322      0.2630084818     -0.4386703371
