40
Properties=species:S:1:pos:R:3:forces:R:3:charge:R:1 energy=-214.99515517824565 homo_lumo=3.714840067837239 dipole="-0.9388350718919198 2.0581255518176382 -0.3962797585239577" free_energy=-214.99515517824565
N      -1.4032370736     -0.1559634405      0.3038426646      0.0019907327      0.0048539156     -0.0043385766     -0.5140811913
C      -1.9651536941      1.2218303402      0.0613614514     -0.0071068337      0.0068063109      0.0082762642      0.0105733510
C      -2.4696730415     -1.0483248911      0.9285953002     -0.0123638385     -0.0032094472      0.0095804124     -0.0192878537
C      -0.2663676309     -0.0885412598      1.3183604375     -0.0007143320      0.0015077370      0.0074567427     -0.0155789389
C      -3.2378600906      1.2056764803     -0.7707350751      0.0030531435     -0.0002615686     -0.0102674982     -0.1621934710
C      -3.7483482995     -1.0857263311      0.1146138404     -0.0011195577     -0.0083134143     -0.0077805768     -0.1683366635
C      -4.3051320506      0.3159565734     -0.1331929300     -0.0080018402      0.0026007337      0.0032026457     -0.1627170531
C      -0.9079142264     -0.7832926989     -0.9673631760      0.0085875179     -0.0093778006     -0.0142530719      0.0282767188
C       0.9853164657      0.6463978235      0.8388755506     -0.0015146655      0.0040069293      0.0037142339     -0.1928994817
C       2.1383004107     -0.3007866852      0.5080646241      0.0022330083     -0.0022938876     -0.0008091953     -0.1857103592
C       3.3651929683      0.4343135817     -0.0137165831      0.0132789490     -0.0044977014     -0.0047445843     -0.1591561800
C       4.5212556201     -0.5066647543     -0.3431621545      0.0095300294     -0.0079990199     -0.0032239247     -0.2033472843
C       5.7543712733      0.2306410133     -0.8555440928      0.0048537635      0.0021098084     -0.0030986582     -0.0635893840
H      -1.1754475472      1.8193546034     -0.4145591999     -0.0023360605      0.0041455198     -0.0037559692      0.1315842931
H      -2.1644693301      1.6435390813      1.0600638845     -0.0128213903      0.0030473827      0.0079021325      0.1176601125
H      -2.6582478813     -0.6181668274      1.9256048674     -0.0051029192      0.0045610253      0.0125864471      0.1052140358
H      -1.9772311363     -2.0412480691      1.0395411346      0.0001226782     -0.0033287873     -0.0027073282      0.1845441258
H      -0.7136199515      0.3861053113      2.2044813853     -0.0054469522      0.0128429787      0.0103997325      0.0841335943
H      -0.0418793696     -1.1576812827      1.5337521681     -0.0072877912     -0.0014004253      0.0048844963      0.1898080484
H      -3.5888478755      2.2474913986     -0.8578611251     -0.0082451567     -0.0024935448      0.0003946269      0.1017925045
H      -3.0163587902      0.8659915013     -1.7962232864     -0.0051448179      0.0005766491     -0.0134223174      0.0987446640
H      -3.5794027822     -1.6132597963     -0.8392058759     -0.0035568173     -0.0077015779     -0.0061152944      0.1009533034
H      -4.4698346591     -1.7023286001      0.6755059595     -0.0020157448      0.0028442741      0.0033292437      0.1097703358
H      -4.6143776668      0.7591365210      0.8314009119     -0.0093865408      0.0051095646      0.0066795354      0.0853715622
H      -5.2015442104      0.2765033337     -0.7718668702     -0.0106068451     -0.0054536677     -0.0079893977      0.0820704724
H      -0.1524442128     -0.1243328178     -1.4106724346      0.0211250282      0.0044262820      0.0106417145      0.0746498112
H      -0.4902691228     -1.7744383286     -0.6819533149     -0.0028999821     -0.0144283242      0.0219519351      0.1430764836
H      -1.7447913765     -0.8994782115     -1.6615376421     -0.0160748152      0.0029393295     -0.0084509129      0.0870286649
H       0.7733759160      1.2889476437     -0.0343104959     -0.0001746968      0.0117094728      0.0027018616      0.0835100570
H       1.3045916916      1.3459469774      1.6315689626      0.0029977173     -0.0066819474      0.0089291942      0.0894720199
H       2.3970512120     -0.8744512184      1.4154329810      0.0033846337     -0.0114724121      0.0033629715      0.1048997949
H       1.8077559567     -1.0636259684     -0.2168083501     -0.0023672169     -0.0045926324     -0.0074355058      0.1394159527
H       3.7006649512      1.1789544887      0.7344037742      0.0025207824      0.0023389730      0.0004707872      0.0746170914
H       3.0957564591      1.0101145799     -0.9210166479      0.0018161038      0.0020860943     -0.0056729306      0.0702981165
H       4.1815388430     -1.2425997256     -1.0941873381      0.0091290015     -0.0020746738     -0.0040228935      0.0905507196
H       4.7785769401     -1.0891695719      0.5596656519      0.0099381078      0.0014594381     -0.0012137404      0.0917354176
H       5.5191133060      0.8013573493     -1.7686916472      0.0083747076      0.0028013618     -0.0092678638      0.0281946784
H       6.1250795932      0.9446837020     -0.1020931318      0.0125326889      0.0046320853     -0.0016265898      0.0296915050
H       6.5734549914     -0.4649338704     -1.0932230264      0.0041648080     -0.0041390798     -0.0023569655      0.0368874593
Cl     -0.1059973699     -3.3855411370      0.8870745413      0.0046554129      0.0123140465     -0.0039111821     -0.7276270333
