40
Properties=species:S:1:pos:R:3:forces:R:3:charge:R:1 energy=-215.04536190407168 homo_lumo=3.971288800369196 dipole="-1.1101490442988313 -0.48746307039455666 -1.717416201444073" free_energy=-215.04536190407168
N      -1.3343545612     -0.4128242399     -0.3331090743      0.0569867793     -0.2723523450     -0.1098978972     -0.5258885710
C      -1.2331859902      1.0809395875     -0.2053630163     -0.3944520678      0.6285358225     -0.2312044425     -0.0215188920
C      -2.0575234354     -0.9767647826      0.8609731400     -0.7632518054     -0.0915630451      0.2029032376     -0.0058836751
C       0.0456043775     -1.0205144557     -0.2987178322      0.5316590121      0.0808483794     -0.5432712262     -0.0388408525
C      -2.5800353534      1.7501688723      0.0311053300      0.1692199297     -0.3610410897      0.3080050539     -0.1468274043
C      -3.4137904995     -0.3314042719      1.1038521421      0.4228833603      0.2636928949     -0.0200202870     -0.1534072225
C      -3.2521360662      1.1768885932      1.2757599396     -0.0989215378     -0.1494656672     -0.3603057838     -0.1480658552
C      -2.0191310428     -0.7978057863     -1.5922918335     -0.0702327680      0.0967736044      0.0094582214      0.0899087824
C       0.9710007053     -0.6136943794     -1.4434506259     -0.0185604245     -0.3749378560      0.2232823445     -0.1866443179
C       2.4300754620     -0.8989012227     -1.0534189756     -0.3379485194      0.5920189378      0.1040131273     -0.1427742480
C       2.9728048383      0.1078598726     -0.0321274237      0.3570049577     -0.7880270459     -0.2424026355     -0.1960840837
C       4.3914764147     -0.2709392739      0.4035664240     -0.3527753547      0.5702573715      0.2133971714     -0.1900204269
C       4.9040187128      0.6721363903      1.4903485213      0.0195109045     -0.3643111793     -0.2808960427     -0.0443939291
H      -0.7774005507      1.4645092005     -1.1194996023      0.1177248789     -0.0291170303     -0.2490990648      0.1013525557
H      -0.5717298561      1.2674483542      0.6487640257      0.2718220591     -0.1020150757      0.3793929490      0.1968155441
H      -1.4065785168     -0.7882361846      1.7226808226      0.3761039214      0.1596434787      0.2252776810      0.1887616169
H      -2.1563051097     -2.0527951611      0.7004469611      0.0573001131     -0.2894352878     -0.1506870314      0.0872522400
H       0.4707079626     -0.7188602543      0.6635705175     -0.0270925516      0.1928919055      0.4227004012      0.2189839869
H      -0.0895122534     -2.1056931285     -0.2979511848     -0.1312393579     -0.2689497963      0.0077574493      0.0871542327
H      -2.3879007948      2.8172361265      0.1692671312      0.0823851343      0.2926215722     -0.0598191175      0.0972288061
H      -3.2339481003      1.6385797643     -0.8401939073     -0.2290943808      0.0632544816     -0.2489910177      0.0665023317
H      -4.1114894563     -0.5508712676      0.2890972235     -0.2795423965     -0.0784934074     -0.1730258323      0.0673925943
H      -3.8205632099     -0.7705587997      2.0183400402     -0.1267521032     -0.2086583358      0.2093296231      0.0980326603
H      -2.6300516031      1.3794285938      2.1524393166      0.2236426251      0.0326039822      0.2318786582      0.1213243450
H      -4.2280538152      1.6447151086      1.4242639919     -0.2737261354      0.1520322965      0.0867261416      0.0640828439
H      -1.4874555432     -0.3615030100     -2.4351888136      0.1621042148      0.1173837558     -0.2061002667      0.0862648224
H      -2.0182772248     -1.8834648442     -1.6754672354      0.0150461178     -0.3053111254      0.0054923141      0.0687488801
H      -3.0429410374     -0.4328030914     -1.5824694733     -0.2388367135      0.0871073498      0.0065131482      0.1007954141
H       0.7220256931     -1.1799467138     -2.3464564969     -0.0814243545     -0.0828267446     -0.3090912492      0.0614989870
H       0.8726017084      0.4491623355     -1.6757447063      0.0155190936      0.2775885874     -0.0383015950      0.1080831668
H       2.5029039924     -1.9138289486     -0.6475501902      0.0728285338     -0.2939228317      0.0874229790      0.0737755311
H       3.0416373277     -0.8599808941     -1.9606145488      0.1922664688     -0.0840448994     -0.2289758598      0.0715828545
H       2.3284399224      0.1383358202      0.8505640844     -0.2101890490      0.1138386979      0.2859537384      0.1786921056
H       2.9759834051      1.1088994158     -0.4766821605     -0.0190180185      0.3118010200     -0.1026286027      0.0584906137
H       5.0648369895     -0.2394435398     -0.4603575347      0.1901189718     -0.0800607968     -0.2451899550      0.0622601645
H       4.3863032445     -1.2977875030      0.7865504988      0.0076785206     -0.2764041108      0.0542049092      0.0755206122
H       4.9438499864      1.6972478980      1.1192063753      0.0203294464      0.3355788125     -0.0622593250      0.0216251616
H       4.2452168363      0.6432499060      2.3584379069     -0.2091643566      0.0375147001      0.2765838343      0.0488424913
H       5.9059495536      0.3752681760      1.8014514475      0.3479443267      0.0050469833      0.1708345338      0.0188659080
Cl      0.2943839915      0.4974047362      2.5721078241      0.1521425252      0.0899030363      0.3510397155     -0.7194897746
