37
Properties=species:S:1:pos:R:3:forces:R:3:charge:R:1 energy=-215.82714414086027 homo_lumo=3.169192132949484 dipole="-0.07641303674707073 -0.18806502429439914 0.3339574861576829" free_energy=-215.82714414086027
N       1.8574644519      0.0017575448     -0.8975925624     -0.0131031919      0.0086439402      0.0022727218     -0.5308253976
C      -1.9032991417     -0.7182216171     -0.7058959630     -0.0021665406     -0.0086375411     -0.0141049909     -0.1748365183
C      -0.5304575874     -0.2558614030     -0.2283578253     -0.0037953717      0.0101392394      0.0068828983     -0.2111030644
C      -3.0345414467     -0.2170602086      0.1897313906     -0.0003211532      0.0024250559      0.0055125760     -0.1672598558
C       0.5997902903     -0.7103821931     -1.1557429260     -0.0027987627      0.0038547152     -0.0111713817     -0.0032184984
C      -4.4196423399     -0.6454787890     -0.2907780306     -0.0047980170     -0.0076246509     -0.0077343228     -0.2038028526
C      -5.5440829606     -0.1404240900      0.6104541920      0.0139165238      0.0062130047      0.0093158411     -0.0650668767
C       2.5081612742     -0.2119747445      0.2851923687     -0.0012034987     -0.0030762886      0.0131088032      0.2450230162
C       2.1714590047      1.1151535981     -1.7176919687     -0.0017300998      0.0010776211     -0.0011372744      0.2794115757
C       3.6566388684      0.4443511622      0.6107201373     -0.0006146704     -0.0052655139     -0.0019412015     -0.0867555738
C       3.5324261361      1.6257074308     -1.4979868685     -0.0004216731      0.0141040253     -0.0120782657     -0.0474272415
C       4.2008084685      1.3508700512     -0.3490009778      0.0022022330     -0.0096212534     -0.0044609545      0.0065463276
H      -1.9354628703     -1.8232595038     -0.7560262092      0.0017076129      0.0010532109     -0.0010235461      0.0747992167
H      -2.0637207563     -0.3495015864     -1.7357110559     -0.0002956715      0.0036981319     -0.0003835012      0.1051279187
H      -0.5089238681      0.8443709337     -0.1699345083     -0.0067776334     -0.0055539879     -0.0038828045      0.1659719989
H      -0.3425666589     -0.6224819153      0.7972975310     -0.0075448069     -0.0021059093     -0.0051071859      0.0838433074
H      -2.8767790046     -0.5781389963      1.2237715269      0.0013614147     -0.0063424059     -0.0045968758      0.0789358642
H      -2.9924288933      0.8878708266      0.2387808507     -0.0020515839     -0.0025193845     -0.0033010043      0.0951468621
H       0.3257470732     -0.5031273340     -2.2004134701     -0.0040574517     -0.0037316944      0.0036330104      0.1369510312
H       0.7801413869     -1.7949715254     -1.0586035968      0.0093875549      0.0051071844      0.0062966399      0.0868519551
H      -4.5728895190     -0.2764497364     -1.3212339994     -0.0046948786      0.0024921002      0.0018615281      0.0861610028
H      -4.4568553353     -1.7488835612     -0.3497426247     -0.0028203750     -0.0005000218      0.0053474765      0.0823382355
H      -5.5443204741      0.9608475236      0.6603318595      0.0045123047     -0.0050321883     -0.0039771625      0.0329186026
H      -6.5314162367     -0.4603546007      0.2442731593     -0.0065662090     -0.0069134142     -0.0055460895      0.0358722322
H      -5.4260777784     -0.5196570544      1.6385028898      0.0046134885     -0.0032876601     -0.0049085320      0.0322690623
H       2.0724596103     -0.9833728298      0.9191843367     -0.0024162342      0.0107085140      0.0141923614      0.0644000494
H       1.8986466154      0.9211614186     -2.7608690148      0.0092195259     -0.0014789407      0.0109015932      0.1163179280
H       4.1683838374      0.2191662885      1.5443066108     -0.0043065975      0.0100421241     -0.0092770260      0.0124225221
H       3.9465414512      2.2830017472     -2.2624603530      0.0095907255     -0.0058059289     -0.0028150488      0.0381737980
H       5.1837796744      1.7932352317     -0.1723980210      0.0018278388     -0.0148693070     -0.0099003333      0.0287620579
C      -0.7148998255      3.6414847809     -1.7445063034      0.0002276337     -0.0068831964     -0.0066412613     -0.1092484534
C       0.1257366088      2.4586020794     -2.1574683219     -0.0121752526      0.0033390331     -0.0068828089      0.9020839892
O      -0.1582241331      1.7262734298     -3.0984932121      0.0012758318      0.0087592561      0.0124489413     -0.7244840093
O       1.1954183534      2.3201848012     -1.3525244517      0.0070673528      0.0027940074      0.0149876140     -0.6710955582
H      -1.6162466837      3.6863230513     -2.3664230219      0.0088784500      0.0005800167      0.0050339185      0.0657425572
H      -0.9871405750      3.5599375528     -0.6824782800      0.0031743695     -0.0002140820      0.0074419913      0.0591022962
H      -0.1329301255      4.5677700153     -1.8583335452      0.0056968131      0.0044321886      0.0016336567      0.0799504931
