31
Properties=species:S:1:pos:R:3:forces:R:3:charge:R:1 energy=-165.548342451288 homo_lumo=3.7177931679643175 dipole="-1.013197271171234 -2.1115501909100494 -0.4245682214118477" free_energy=-165.548342451288
N       0.0863596711      0.1759764866      0.1619988458      0.0081507288     -0.0060038879      0.0044340841     -0.5120254362
C      -0.7821791833      1.2650540812     -0.4614072508      0.0215169446     -0.0029585691     -0.0053722759     -0.0201252748
C      -0.5062030823     -1.1810481829     -0.1149076373      0.0124433981      0.0073731653     -0.0039094674      0.0050530653
C       1.4579753513      0.3042127718     -0.4901103033     -0.0006737570      0.0091567593     -0.0056886893     -0.0378449055
C      -2.2325045880      1.1730126976     -0.0283526844      0.0016413351      0.0090726507      0.0042396954     -0.1688533601
C      -1.9577112653     -1.2943542124      0.3259652425      0.0015572932     -0.0041745126      0.0065817629     -0.1579985449
C      -2.8214538847     -0.2080484479     -0.3134516317     -0.0024835393      0.0046115384     -0.0062737582     -0.1628057269
C       0.2199728270      0.4339054843      1.6377450654      0.0014052397      0.0069366415     -0.0025137430      0.0387868787
C       2.4921494110     -0.7154173813     -0.0467175168     -0.0054024726     -0.0031892287      0.0090597896     -0.2431286011
C       3.8619209726     -0.2930587203     -0.5830586213     -0.0026838213      0.0042309354     -0.0080959251     -0.0654856448
H      -0.6962480997      1.1153574278     -1.5504632746      0.0014699450     -0.0005872580      0.0036967422      0.1049050192
H      -0.2829577788      2.2199107591     -0.1772000549     -0.0007825071     -0.0095382090     -0.0036463767      0.1852584524
H       0.1293381524     -1.9221023608      0.3896425239     -0.0056147989     -0.0006081319     -0.0033668048      0.1345809715
H      -0.4214707484     -1.3298654857     -1.2045762602     -0.0021393659     -0.0016751952      0.0003008226      0.1207648144
H       1.7729016170      1.3457398412     -0.2417529550     -0.0113622412     -0.0090255887      0.0022079966      0.2075782414
H       1.2774738591      0.2271126090     -1.5750696405      0.0035100549      0.0035025833      0.0073880490      0.0973901988
H      -2.7811420402      1.9554589180     -0.5779915783     -0.0057413140      0.0048932754     -0.0025645733      0.1099359930
H      -2.3336012378      1.4276815306      1.0399340242     -0.0052573843      0.0079621892     -0.0017537651      0.1004111952
H      -2.0237985051     -1.2380786116      1.4256883575     -0.0072323284     -0.0078272450      0.0039504600      0.0997854631
H      -2.3116363641     -2.2993328087      0.0425671807     -0.0081479061     -0.0101160909      0.0017347818      0.1010382073
H      -3.8570464488     -0.2778871414      0.0554537326     -0.0134082029     -0.0016203245     -0.0002535915      0.0823302993
H      -2.8546985795     -0.3694555170     -1.4071090456     -0.0102130953     -0.0041480251     -0.0033278441      0.0849311582
H       0.8083781841     -0.3766942598      2.0819871549     -0.0001871696      0.0013172857      0.0014887926      0.0577863929
H       0.7194590329      1.4251054474      1.7339215747     -0.0039432536     -0.0064887579     -0.0047322043      0.1426779106
H      -0.7754171406      0.4552533973      2.0902664619     -0.0049983662     -0.0014787743      0.0059823272      0.0854122761
H       2.5491299135     -0.7564849939      1.0526459189      0.0069623585      0.0089229359     -0.0033153323      0.1164384255
H       2.2447105132     -1.7295184904     -0.4067180381      0.0086972042      0.0061335530      0.0110906438      0.0739014153
H       3.8464611827     -0.1930205394     -1.6796331464      0.0044112558     -0.0103525868     -0.0057299142      0.0386196297
H       4.1498838055      0.6802246515     -0.1581688900      0.0027767162      0.0032909153     -0.0154327549      0.0695376376
H       4.6289382878     -1.0352973163     -0.3189233025      0.0112259052      0.0053200880     -0.0026885815      0.0405805300
Cl      1.4889384478      3.3537837127      0.7826360757      0.0045031441     -0.0029321309      0.0165096539     -0.7294366812
