31
Properties=species:S:1:pos:R:3:forces:R:3:charge:R:1 energy=-165.52905643891262 homo_lumo=3.8377756164063275 dipole="-0.14174174794793604 0.2761888934815631 2.125332632430284" free_energy=-165.52905643891262
N       0.0311612709      0.2163999302      0.1594145358      0.1507528195      0.1918582259      0.1147008568     -0.5280501376
C      -0.8569543720      1.1821898102     -0.5807418159     -0.7192245320      0.3151613697      0.1097115155     -0.0077696641
C      -0.3379623177     -1.1974105560     -0.1919253711     -0.4475582336     -0.5628285175      0.2962755507     -0.0187345060
C       1.4343150600      0.5011478513     -0.3149110492      0.6691603244     -0.3394104530      0.3790042268     -0.0246042128
C      -2.3408268249      0.9076559845     -0.3870994741      0.3096776333     -0.3310304007     -0.1722607858     -0.1537438365
C      -1.8178849575     -1.4907470615      0.0090559978      0.1453099627      0.3680223663     -0.2963049808     -0.1453865390
C      -2.6694806988     -0.5224508169     -0.8078900514      0.0541308714      0.0657980128      0.3816200781     -0.1472595535
C      -0.0678941601      0.4451160218      1.6230124252     -0.0961616449     -0.0716338696      0.0107902510      0.0873956257
C       2.5251435322     -0.3522487111      0.3260427529     -0.1078454162      0.3570278989     -0.2214497284     -0.2395673572
C       3.8676229590      0.0006528000     -0.3159154379     -0.3347245805     -0.1357505995      0.2183463447     -0.0423899343
H      -0.6051825289      1.0699343989     -1.6420973820      0.2223944238     -0.1924146108     -0.3799215752      0.1899918065
H      -0.5939054972      2.1866192992     -0.2406226549      0.1794489624      0.2300227321      0.1644329560      0.0854587036
H       0.2687193451     -1.8614366890      0.4266752073      0.1963149137     -0.0512827407      0.1932214115      0.1021874991
H      -0.0761648156     -1.3253383360     -1.2488862769      0.1302878488      0.1365842051     -0.4471775879      0.1886322203
H       1.6233352444      1.5598082782     -0.1162118195     -0.0386528882      0.2934397108      0.0900496935      0.0974008345
H       1.4226539420      0.3356213191     -1.3986038714     -0.2134045125     -0.0591766267     -0.4462293386      0.2000106814
H      -2.8834230042      1.6162945925     -1.0183487268     -0.1140805874      0.2666165533     -0.1106289546      0.0986137985
H      -2.6486861682      1.0815817292      0.6493826768     -0.1711989249      0.0931497112      0.2710115667      0.0649164700
H      -2.0902125814     -1.4375728545      1.0686687239     -0.1370767337     -0.0629511917      0.3002979075      0.0657142510
H      -1.9915137306     -2.5156535033     -0.3291201784      0.0116706989     -0.3055371287     -0.0116325466      0.0963320023
H      -3.7302182385     -0.7272021807     -0.6449382097     -0.3095889424     -0.0652689869      0.0068200928      0.0630030269
H      -2.4472712475     -0.6497471901     -1.8714990557      0.1254775226     -0.0243190074     -0.2958613971      0.1226565624
H       0.5240601312     -0.3025770744      2.1465005306      0.1587988801     -0.1909736248      0.1117608616      0.0819359450
H       0.3067437834      1.4419404497      1.8503530186      0.1034255851      0.2834471395      0.0261221375      0.0696838512
H      -1.1055332659      0.3649362551      1.9371530284     -0.2395019790     -0.0216887963      0.0571303502      0.1061975529
H       2.5816434180     -0.1732663245      1.4041949369      0.0564762997     -0.0183329091      0.2965267686      0.0783311151
H       2.3260364625     -1.4144930904      0.1648843643     -0.0653201947     -0.2491152977     -0.0547710318      0.1101953740
H       3.8386237798     -0.1970751164     -1.3872747587      0.0099054992     -0.0359048605     -0.3382683548      0.0581837291
H       4.1018015705      1.0543425578     -0.1600658979      0.1321606712      0.3143245886      0.0149913028      0.0297010153
H       4.6578642078     -0.6023511712      0.1303681434      0.2948189765     -0.1295895319      0.0935127691      0.0368358259
Cl      0.2199129805     -0.3056968793     -3.2281431801      0.0441272764     -0.0682433607     -0.3618203596     -0.7258721498
