31
Properties=species:S:1:pos:R:3:forces:R:3:charge:R:1 energy=-165.31432369026462 homo_lumo=3.4274340611706102 dipole="-0.9892761410918268 1.693049409210747 -1.3451758725282716" free_energy=-165.31432369026462
N       0.0012745426      0.2276987422      0.1506588835      0.0595039271      0.2778692786     -0.2169690799     -0.5280778533
C      -0.9883978668      1.1783894517     -0.4558970487     -0.5763830931      0.0764764322      0.1660096479      0.0163681396
C      -0.3954668372     -1.1854463375     -0.1680822873     -0.5345250803     -0.3577473503     -0.0012235797     -0.0255950466
C       1.3329760758      0.5323091970     -0.4886568486      0.5944491101     -0.3904654317      0.2442674320     -0.0007862291
C      -2.4288435409      0.8973975515     -0.0391633053      0.2249234048     -0.3209074110     -0.3196454147     -0.1543040245
C      -1.8139664669     -1.5009280115      0.2796972626      0.0410934466      0.4330309303     -0.4693770781     -0.1446194583
C      -2.8190065425     -0.5451663882     -0.3582199816      0.2294345746      0.1106904403      0.4021418324     -0.1497496226
C       0.0963136766      0.4426970504      1.6220147813     -0.1250498655      0.2858224186      0.1223808601      0.0460068210
C       2.5105399282     -0.2994287842      0.0163143578     -0.0495714281      0.4856728003     -0.4754054489     -0.2229985118
C       3.7809727616      0.1386812298     -0.7096201347     -0.4047529844     -0.0511880528      0.1512178181     -0.0404012116
H      -0.8954277458      1.0858838142     -1.5417501419      0.0753655023     -0.0562596716     -0.2534805667      0.1184784178
H      -0.6933481478      2.1883818803     -0.1609349361      0.1606723024      0.2441758126      0.0504035488      0.1120585962
H       0.3070689281     -1.8433444487      0.3575660092      0.3610730881     -0.2273299057      0.3677120539      0.2054263734
H      -0.2969365058     -1.3095665816     -1.2499038456      0.0149587880      0.1160598861     -0.3359552314      0.0846723431
H       1.5239718923      1.5952080573     -0.3113094241     -0.0297567843      0.2922433213      0.0452165671      0.1126421147
H       1.2051356640      0.3805493481     -1.5645292172     -0.1170950555     -0.0234748714     -0.2581504445      0.1119377995
H      -3.0687529840      1.5915275633     -0.5905417956     -0.1545622565      0.2742650398     -0.0746243113      0.0976368765
H      -2.5668471408      1.0966134434      1.0265375866     -0.0608550992      0.1080942554      0.2598680263      0.0956892107
H      -1.8839551049     -1.4562728229      1.3691407966      0.0557326537     -0.1327075657      0.3104312239      0.1083613179
H      -2.0306810527     -2.5277387120     -0.0241014826      0.0338757390     -0.3205562633      0.0409086694      0.1004227314
H      -3.8226858391     -0.7458040087      0.0233010626     -0.3282737133     -0.0584453141      0.0107712223      0.0778242420
H      -2.8309207190     -0.6902165980     -1.4435544971     -0.0409747125     -0.0495834157     -0.3161004186      0.0750543052
H       0.6710637447     -0.3817383313      2.0558446501      0.2717988769     -0.5828309184      0.1797056825      0.1536564059
H       0.5808214602      1.3996184556      1.8059972036      0.1055195973      0.3704217190     -0.0575138510      0.0438910827
H      -0.8997268264      0.4471538673      2.0551373752     -0.2419762841     -0.0016138376      0.0734483596      0.0887739085
H       2.6427320869     -0.1662025811      1.0908077816     -0.0410222437     -0.1576592614      0.2624692110      0.1306013263
H       2.3354503567     -1.3605396453     -0.1656509272     -0.0718081475     -0.2587658554      0.1713529486      0.1346805203
H       3.6817016175     -0.0067640840     -1.7862560648      0.0624811947     -0.0222998230     -0.3673535635      0.0191736872
H       3.9940827328      1.1912445436     -0.5174339381      0.1570505070      0.3435125516      0.0136369233      0.0179767012
H       4.6209086612     -0.4565247986     -0.3546430894      0.2915199072     -0.1503020400      0.0673786851      0.0541115861
Cl      1.3783179418     -2.4419465755      2.1666513353      0.0371541285     -0.2561978969      0.2064782756     -0.7389125494
