46
Properties=species:S:1:pos:R:3:forces:R:3:charge:R:1 energy=-252.31200945059507 homo_lumo=0.0026176139711907398 dipole="-4.193951530247358 0.9852430551469384 -3.556337073363902" free_energy=-252.31200945059507
N      -1.6269465244     -0.2979151706     -0.1698240386      0.1436956447     -0.3346289843      0.0582969325     -0.5460239445
C      -1.9028606317      1.1198245598      0.2183833466     -0.5957418655      1.6904837695      0.2284261728     -0.0240233111
C      -2.6386033177     -1.2121245068      0.4513364304     -1.5692571719     -0.8863672165      0.6244666706     -0.0206046591
C      -0.2876299091     -0.7201680952      0.3613539000      1.9415785458     -0.1111774452      0.3536804381     -0.0437827021
C      -3.3481139292      1.5643840094     -0.0665883192     -0.0334901865     -0.1880533796      0.0457477120     -0.1599506847
C      -4.1035025570     -0.8031892835      0.2050303893      0.0955181239      0.0773513991     -0.0210678856     -0.1669914275
C      -4.3435122014      0.6419270634      0.6265532020     -0.3018967899      0.0921323950     -0.0671281389     -0.1615970708
C      -1.6436732642     -0.4545337814     -1.6503048808     -0.0582079291     -0.0048448685     -1.3804370993      0.0359136136
C       0.9319826597      0.0559011925     -0.1944469438     -0.3757371340     -0.1157070146     -0.0035417801     -0.2088666855
C       2.2350826530     -0.4617839584      0.4296006821     -0.1726162572      0.0734451922      0.0641920013     -0.1760610301
C       3.4532199815      0.2627205213     -0.1559785165      0.0013454467     -0.3051675410      0.2288394528     -0.1648638043
C       4.7540832306     -0.2584978329      0.4638689409      0.0746031975      0.2234656950      0.0060205795     -0.2222556643
C       5.9698606966      0.4328336843     -0.1454716407      0.1788490399     -0.0761070375      0.0073535137     -0.0790465446
H      -1.2355181428      1.8197661685     -0.3291432023      0.1180506015     -0.6008073664      0.0811175333      0.1464779562
H      -1.7075507949      1.2670784365      1.3056239816      0.0885007741     -0.4721183750     -0.3501725532      0.1485673548
H      -2.4970993385     -1.2496906351      1.5568290017      0.3689518607      0.2838874687     -0.4391316287      0.1523921800
H      -2.5023237024     -2.2540563473      0.0807555525      0.3887790165      0.4382289988     -0.0793692676      0.1291087728
H      -0.2706795830     -0.6211069634      1.4716870887     -0.3923352410      0.0752180663     -0.3857375495      0.1611646559
H      -0.1223210609     -1.8017340978      0.1457272228     -0.4353051692      0.3582778622     -0.0687586688      0.1470932181
H      -3.4917044670      2.5998351017      0.3107963580      0.2889508422     -0.1871080085     -0.1504123492      0.1144929872
H      -3.5434173660      1.5835111939     -1.1598876113      0.0599548813      0.0477046809      0.2108364990      0.0979613523
H      -4.3875270003     -0.9450420672     -0.8580508218      0.0771692012      0.0015278237      0.1703757063      0.0938487640
H      -4.7671325951     -1.4650502153      0.8026107689      0.3133822709     -0.0626976651     -0.1539523147      0.1161893816
H      -4.2339514372      0.7339332520      1.7298766314     -0.0619608360     -0.0022654622     -0.2384800613      0.0981090423
H      -5.3792079706      0.9411037959      0.3565141190      0.1938013366     -0.0539141744      0.1770694906      0.0924969409
H      -1.0179939074      0.3159645611     -2.1491387573     -0.0599888672     -0.2268426425      0.4819151961      0.1042249783
H      -1.2724750538     -1.4594503973     -1.9513651481     -0.0649172313      0.2971555834      0.4201616321      0.0944062124
H      -2.6582823338     -0.3383907513     -2.0769003124      0.1243664325     -0.0262272591      0.4701078541      0.1165748475
H       1.0039617551     -0.0756529729     -1.2936834805     -0.0702852262      0.1378409284      0.1870555528      0.1035699505
H       0.8448829992      1.1370214701      0.0373972345     -0.0251628204     -0.1889115939     -0.1401253689      0.1117561159
H       2.2060276068     -0.3033782955      1.5303124719      0.1166120630     -0.2234685876     -0.2133558341      0.1460071558
H       2.3305021288     -1.5523623642      0.2324932799      0.0086576490      0.2230174067      0.1798371946      0.0995594685
H       3.3640702528      1.3538476587      0.0408533950      0.0128564514     -0.1775222277     -0.1286785879      0.0755083528
H       3.4816552404      0.1031827717     -1.2565084954     -0.0360695249      0.1439107723      0.1333825414      0.0647548500
H       4.8402743019     -1.3538385545      0.2929637778     -0.1150890013      0.2410344471      0.2278551724      0.0946619928
H       4.7463538441     -0.0709011306      1.5590272557     -0.0881501336     -0.3695371011     -0.1691508932      0.1595746571
H       6.0094049849      0.2495964623     -1.2404146908      0.0893848180      0.1488172654      0.2229956030      0.0162024063
H       5.9251913775      1.5267267492      0.0422556897      0.1047298509     -0.2526005284     -0.1239384220      0.0274116661
H       6.8964499266      0.0303440882      0.3152698039     -0.1803628515      0.2085838380     -0.1858959441      0.0539799726
C       4.0692241749     -3.6556848839      4.8623913516      0.3448610578     -1.2447193262      0.0039343238     -0.1822474605
C       3.8740199829     -2.1844516812      4.6758058490     -0.0666338755     -0.3569344437      0.1505352436      0.8696947369
O       3.0473491073     -1.5891270079      5.3476361020     -3.2084062620      0.7238410676      2.8382613162     -0.7738372461
O       4.5393989262     -1.5746226112      3.8543747794      2.9545430772      0.9921877062     -3.4469488854     -0.7977571632
H       4.3908976805     -3.8598919178      5.9052749805     -0.1978668172     -0.0682436948     -0.2416119349      0.0318382462
H       3.1144490002     -4.1863796445      4.6641066117      0.2219676721      0.0285090484      0.2004643911      0.0116069150
H       4.8448989645     -4.0401688613      4.1658762163     -0.2016286641      0.0293505286      0.2149664437      0.0127606541
