40
Properties=species:S:1:pos:R:3:forces:R:3:charge:R:1 energy=-221.35724692815734 homo_lumo=1.1906524911095577 dipole="-1.7305788213885072 1.850235503211687 3.5609509041908978" free_energy=-221.35724692815734
N      -1.4495861813      0.4000176982     -0.0476021252      0.1005428399      0.4991396761      0.2006592586     -0.5471754372
C      -1.7555193897     -0.8742976527     -0.7614398232     -0.1225098727     -1.9834441032     -1.5160761877     -0.0171156959
C      -2.5378153926      0.5691237329      0.9538409755     -1.3962022911      0.4886192496      1.8401231232      0.0086293328
C      -0.1351929402      0.3333547946      0.6626908696      1.8359820849     -0.0258397478      0.3367433814     -0.0295443097
C      -3.0449232648     -1.4503751552     -0.1923451843     -0.1023783194     -0.7258347032      0.2340519961     -0.1362971126
C      -3.7016687064     -0.2986977514      0.5212871552     -0.7522216076      0.3729419357     -0.1756044973     -0.1550683466
C      -1.4831706157      1.5466975775     -0.9932459783      0.0852825096      1.0494321536     -1.0184263781     -0.0027073960
C       1.0977170506      0.2878268114     -0.2698027991     -0.4213513381      0.0240414118      0.0402167357     -0.2370427135
C       2.3635781916     -0.0847022378      0.5116140581     -0.1851943668      0.1061197706     -0.1385015612     -0.1662283549
C       3.5966191156     -0.0755254772     -0.3993062539      0.0514026070     -0.0884459992      0.0779424674     -0.2158367844
C       4.8542498820     -0.4665599343      0.3716711854      0.1820535083      0.0051993709     -0.0701212860     -0.0843788695
H      -0.9532138195     -1.6369864924     -0.6486726958      0.0226043429      0.7410917976     -0.2180645587      0.1837648908
H      -1.8918355905     -0.7205363972     -1.8572681097      0.5514970496      0.2482733304      0.4864130203      0.1773345838
H      -2.8663583667      1.6282044504      1.0678774480      0.5619894151     -0.3149323819     -0.1905294945      0.1292963923
H      -2.2257458168      0.2242805852      1.9677551715      0.3961094893      0.1043695102     -0.5727152801      0.1396882823
H      -0.1165258000     -0.5670889692      1.3203551261     -0.3798247379      0.2379489255     -0.3648784912      0.1356576655
H      -0.0219470401      1.2167856878      1.3327345944     -0.4312630928     -0.1957116965     -0.2532766706      0.1313706112
H      -2.8057188567     -2.2536936511      0.5399576280     -0.1409262387      0.1383778982     -0.3147627762      0.0976755975
H      -3.7018606100     -1.8628086143     -0.9886993607      0.3830201261     -0.0395774419      0.3097796307      0.1093302729
H      -4.3528387401      0.2626750754     -0.1839804420      0.0359318159     -0.1483971515      0.2786189712      0.1002366325
H      -4.3029907237     -0.6455255644      1.3900170133      0.0898217423      0.3536477627     -0.3325935651      0.1004361583
H      -0.7971395182      1.3847558338     -1.8523341581     -0.1577135975     -0.2253305534      0.4264953742      0.1678421223
H      -2.5037093092      1.6846179613     -1.4159352908      0.3177887333     -0.3037967195      0.3567060746      0.1170108684
H      -1.1888661357      2.4913889398     -0.4838099786     -0.0950370652     -0.5142943518      0.0226013878      0.0973955399
H       0.9487321272     -0.4537068296     -1.0807760613     -0.0435992063      0.1285246940     -0.0822058667      0.1960463526
H       1.2481396012      1.2878414976     -0.7308155673     -0.0463067799     -0.3131812559      0.0043772730      0.1140929779
H       2.2384527395     -1.1001685275      0.9486915410      0.0536813189      0.2317335591     -0.0055171741      0.0886469878
H       2.5126056945      0.6420868282      1.3406487021      0.0316462807     -0.2343688200     -0.0437715250      0.0749457038
H       3.7384786143      0.9409443374     -0.8269396218     -0.1372053512     -0.2695874498     -0.0194445389      0.0930191851
H       3.4505578276     -0.7924532019     -1.2366564089     -0.0887443260      0.3041355832      0.1186470380      0.1296201569
H       5.0311525293      0.2432746318      1.2077565210      0.0398255352     -0.2656147163     -0.1617413373      0.0314375044
H       5.7312494700     -0.4392445793     -0.3088445379     -0.1592506242     -0.0628275481      0.3042566977      0.0540717056
H       4.7529864944     -1.4952324197      0.7788136084      0.1144855020      0.2936226441     -0.0475598853      0.0410401182
C       0.6937462808     -1.7935047891     -4.3906370808     -0.3245811987     -1.7554333309     -0.4726467501      0.8355498047
O       0.2806610533     -2.0566097239     -3.2725912145     -1.2384327139      1.3199135362      4.8738846197     -0.8290178917
O       0.7175201204     -2.6653513805     -5.2441819426      0.9111245170     -0.6017330401     -3.5744761611     -0.7528276326
C       1.1702899365     -0.4095539947     -4.7225212231      0.0667804664     -0.5853278003     -0.4210403111      1.2323817887
F       2.4876848429     -0.4618759359     -5.1386485132     -0.4733890490      0.7883972370      0.1521779682     -0.4595289072
F       1.0815265017      0.4178393270     -3.6174926943      0.2975426237      0.7100477691     -0.4828157116     -0.4907725200
F       0.3934592404      0.1147523245     -5.7388384300      0.5670192691      0.5081009956      0.4130749902     -0.4629792643
