35
Properties=species:S:1:pos:R:3:forces:R:3:charge:R:1 energy=-191.16108773194173 homo_lumo=4.298083078200239 dipole="-2.150321397560489 1.92039986272798 -0.3713720480032049" free_energy=-191.16108773194173
N       0.5562963827     -0.1716590661     -0.4685829732     -0.1605702626     -0.1427522414     -0.0246210222     -0.5104781027
C       1.4357335555     -0.1657651214     -1.6863013375      0.3377444017      0.1468471194     -0.3550711857     -0.0188098879
C       1.5188478119      0.0903719915      0.6556199674      0.4190309871      0.3195813312      0.2625230426     -0.0117587056
C       2.4895359060      0.9051164655     -1.4292016691     -0.0913845486     -0.0398454411     -0.0505745065     -0.1238655294
C       2.5633917220      1.0508716972      0.0968949403     -0.1231749891      0.0283789690      0.0782023899     -0.1391405368
C      -0.0938242237     -1.5099228310     -0.2757685830     -0.4286314599     -0.3143743952     -0.3990536102     -0.0974111160
C      -0.4393455405      0.9440525048     -0.5878395276     -0.4119178037      0.1505263119      0.3443465504     -0.0558829323
C      -0.9929229928     -1.9258505790     -1.4276047929      0.2342116225      0.3158020844      0.3388238332     -0.0812936152
C      -1.4690622887      1.0036622262      0.5316836061      0.3389460257     -0.0947680256     -0.3526722299     -0.0796746115
H       0.8324668991      0.0209069430     -2.5748029893     -0.2319826225      0.0336435478     -0.1632775157      0.0863261719
H       1.9024622550     -1.1486312630     -1.7546525070      0.1138881684     -0.0944173461      0.1097786375      0.2265949854
H       1.9757250339     -0.8644951293      0.9209382199      0.0026475659     -0.3166288897     -0.0153256923      0.2230957599
H       0.9803695713      0.4849541510      1.5164996042     -0.2135026304      0.0399204948      0.1748247607      0.1005272012
H       2.2193511756      1.8515646311     -1.9033306618     -0.0570016044      0.2326149264     -0.1346561168      0.0621732955
H       3.4466386707      0.5715622640     -1.8326930213      0.1676720248     -0.0833149095     -0.1345689987      0.1163912195
H       3.5490379315      0.7625589234      0.4650441184      0.1942859028     -0.0705866283      0.1235319038      0.1176121904
H       2.3626644875      2.0800614860      0.4036441134     -0.0088082469      0.2762145054      0.0875189382      0.0587298523
H       0.7160304035     -2.2347699471     -0.1609653609      0.2435210648     -0.0029947135      0.2206973753      0.2390440966
H      -0.6517243939     -1.4688396358      0.6617736183     -0.0393701158      0.0373364337      0.2536571701      0.1245907290
H       0.1340186208      1.8734527369     -0.6138230873      0.1967355633      0.1462003047     -0.0737157850      0.1607332143
H      -0.9476778940      0.8280309363     -1.5479821763     -0.0064264247     -0.0267762449     -0.2261510862      0.1315915717
H      -1.3981475600     -2.9091525493     -1.1905286585     -0.1261922915     -0.2859997063      0.0243691393      0.0693260802
H      -1.8248480881     -1.2377935920     -1.5732782099     -0.3368798231      0.1568409049     -0.0888978302      0.0339107841
H      -0.4286860447     -2.0066478992     -2.3550497289      0.1352277507     -0.0832454322     -0.2890011890      0.0620393968
H      -2.0427680011      1.9217669581      0.4062361053     -0.1955469826      0.2724954118      0.0128649370      0.0654251477
H      -2.1591808232      0.1631563118      0.4871426982     -0.2311503222     -0.2264013597      0.0218964698      0.0540490707
H      -1.0014720177      1.0255665735      1.5143074883      0.0926970759      0.0503447891      0.3259357928      0.0552061246
S       3.5992448283     -2.8724787359     -0.0039375823     -0.0069132733     -0.1280481373     -0.1960560410      1.7638833026
O       2.4192444159     -2.9011234872      0.8567452973     -1.1738259832     -0.1525130357      0.7786165426     -0.8224734670
O       4.7730117473     -3.5044238706      0.5267868488      1.2932541913     -0.8646031196      0.4476456903     -0.7574564996
O       3.8056665881     -1.5738252522     -0.6369272583      0.2365968662      1.0329970881     -0.6711305723     -0.8266838465
C       3.0550137962     -3.9213278806     -1.4367925198      0.2314056131      0.7081996011      0.8488887751      1.1436040294
F       1.9194207684     -3.3834294592     -1.9385876784     -1.1499182014      0.3430503185     -0.6912454327     -0.4853042643
F       2.7784772222     -5.1674930120     -1.0843905576     -0.2619295843     -1.3366592785      0.4188467830     -0.4419142787
F       3.9462504345     -3.9440418792     -2.4170429344      1.0172623461     -0.0270652376     -1.0069499171     -0.4427068302
