53
Properties=species:S:1:pos:R:3:forces:R:3:charge:R:1 energy=-290.19733322150466 homo_lumo=4.568767984178876 dipole="-1.6430500024910903 -1.8874613060344205 0.8846049925089362" free_energy=-290.19733322150466
N      -0.4074861731      1.7638564391     -0.0878385090      0.0700090052     -0.1975015256     -0.0269954704     -0.5029276887
C       0.2425403199      2.6450951416      0.9470883480     -0.1156646133      0.4619854932      0.3936339764     -0.0313632165
C      -1.2781626507      2.6864339542     -0.9093021483     -0.4012315616      0.3809248768     -0.1897846722      0.0076871812
C       0.6268241140      1.1361508227     -0.9774808367      0.4165329294     -0.4837134524      0.2365917635     -0.0543686785
C      -1.2420206409      0.7384209436      0.6197877643     -0.2387713393     -0.4490204094     -0.3830063027     -0.0135050918
C      -0.7601205996      3.7514993566      1.2247597914      0.0322472153     -0.1917494139     -0.0941818510     -0.1287674833
C      -1.4295371032      3.9913563108     -0.1271899327     -0.0841123996     -0.0451608638      0.0049244401     -0.1356828345
C       1.6305258241      0.2564327565     -0.2380367339     -0.1310141340      0.2614282864     -0.5764823424     -0.1975768818
C      -1.8795682993     -0.3106791687     -0.2903086445     -0.0453835344      0.1863072588      0.6734329736     -0.2075418744
C       2.8347609733      0.0029936559     -1.1537190040     -0.0625467274     -0.2496501185      0.7009575316     -0.1666227000
C      -2.8830367038     -1.1445298734      0.5155465578      0.1991373594     -0.0718748412     -0.7694503014     -0.1531655987
C       3.8719481795     -0.8898260116     -0.4676660682      0.0306515555      0.1967115895     -0.6377272461     -0.1981019204
C      -3.5199303552     -2.2310930472     -0.3566842904     -0.1498141011      0.0855796284      0.6893042703     -0.2002903206
C       5.0828806343     -1.1199678866     -1.3699700341     -0.2703715588     -0.0407191523      0.3897562278     -0.0454970586
C      -4.5205091150     -3.0655110525      0.4404086445      0.2529049461      0.1538551742     -0.3739040351     -0.0467517558
H       1.1559183518      3.0527020662      0.5142412494      0.2004189316      0.0356449995     -0.1053461140      0.2286956981
H       0.4880800390      2.0546772616      1.8294143942      0.0740960598     -0.2155281046      0.1478579216      0.0850443908
H      -2.2351090950      2.1986126111     -1.0945172066     -0.1638906301     -0.2261775989      0.0251715223      0.1096580444
H      -0.7777773103      2.8640195885     -1.8617373037      0.1951773895      0.0313273459     -0.1439026396      0.1633286320
H       1.1534261763      1.9595334613     -1.4609960192      0.0266521473      0.1863398053     -0.0773795858      0.2464051550
H       0.0995054620      0.5667108828     -1.7454047825     -0.1878747840     -0.1056441319     -0.1743127358      0.1097347634
H      -2.0174941811      1.2866121228      1.1614341544     -0.1395910513      0.1684119983      0.1354829426      0.1484661154
H      -0.5984444107      0.2410964811      1.3496097379      0.1527831734     -0.0462508918      0.1551734666      0.1355763633
H      -0.2401131788      4.6450671705      1.5719405033      0.1391246269      0.1942011624      0.1155113492      0.1095360074
H      -1.4880496897      3.4443207526      1.9809655361     -0.1760344161     -0.0699073919      0.2286699789      0.0613999535
H      -2.4804140548      4.2625659717     -0.0148532996     -0.2710699018      0.0917640725      0.0253959231      0.0542428516
H      -0.9123075772      4.7931593596     -0.6579910262      0.1551171040      0.1256133781     -0.1124584398      0.1501296952
H       1.1736999839     -0.6945549909      0.0544332653     -0.0808754092     -0.2909035673      0.1234243149      0.0814157655
H       1.9791238369      0.7591111275      0.6672950963      0.1324154474      0.1423502724      0.2097422125      0.1166299529
H      -1.1113877320     -0.9733148096     -0.6971107670      0.1846014627     -0.1475746905     -0.1412168067      0.1198443234
H      -2.3960329475      0.1625923142     -1.1293590832     -0.1277869136      0.0968262162     -0.2459745042      0.1069885116
H       3.2889673171      0.9655388547     -1.4088354966      0.0472121056      0.2358476383     -0.0809867331      0.1476073399
H       2.4956694969     -0.4692724491     -2.0818647638     -0.0627785173     -0.1347541769     -0.2879816924      0.0703822124
H      -3.6645373914     -0.4889230208      0.9143019357     -0.2225045798      0.1464200718      0.1563800341      0.0852765288
H      -2.3703226682     -1.6090361350      1.3645734083      0.0850801545     -0.1327878996      0.2737445686      0.0882521446
H       3.4162648966     -1.8534305220     -0.2128062282     -0.1200856691     -0.2416334397      0.1342877958      0.0679187203
H       4.1976524307     -0.4166159074      0.4646935002      0.0311006080      0.1075871489      0.2680715977      0.0825913979
H      -2.7352705739     -2.8830731094     -0.7545850990      0.2054007164     -0.1312519213     -0.1646186382      0.0857521332
H      -4.0287619868     -1.7627248180     -1.2057144391     -0.0755998459      0.1166175111     -0.2636978803      0.0853419050
H       5.8115650969     -1.7530577651     -0.8632984826      0.3056072363     -0.1986799273      0.0548130441      0.0280147343
H       4.7814918190     -1.6093167734     -2.2972289375     -0.0450040538     -0.1452715759     -0.3017384094      0.0255862118
H       5.5585035254     -0.1704215493     -1.6172555490      0.1653759515      0.2687539676     -0.1072885617      0.0394130747
H      -4.9597094631     -3.8304495915     -0.1997047948     -0.2177977647     -0.2856626860     -0.0980263286      0.0376050360
H      -4.0264023187     -3.5560059739      1.2800290559      0.1005985349     -0.1784476753      0.2772912777      0.0312719155
H      -5.3212467546     -2.4347291264      0.8285178276     -0.2739372404      0.1444799899      0.1450395549      0.0311559600
S       1.9703808407      4.4368665714     -1.4104692500      0.1474518618      0.2948140532     -0.0679852511      1.7586425448
O       1.3926540682      5.2697416650     -0.3689725760     -0.2916506172      0.9730552887      0.8341078685     -0.8039682353
O       1.0097171313      3.9954886965     -2.4158542520     -0.6930912990     -0.2695877629     -1.0757182660     -0.8162452064
O       2.8191373627      3.3617796971     -0.9096226856      0.9697251822     -0.8264949890      0.3828608132     -0.8197974431
C       3.1243744849      5.5479821536     -2.3299794371     -0.6498273001     -0.6294971932      0.4990249626      1.1532841544
F       4.0581261940      6.0271506481     -1.5184745909      1.0340633680      0.5182511621      0.9365603495     -0.4426667300
F       2.4640598600      6.5695366459     -2.8606124020     -0.7384212835      1.1408071384     -0.5975529662     -0.4432999832
F       3.7225846418      4.8806825383     -3.3100442276      0.6832461741     -0.7404601269     -1.1194949080     -0.4447387165
