71
Properties=species:S:1:pos:R:3:forces:R:3:charge:R:1 energy=-389.07821302702627 homo_lumo=1.533718907795631 dipole="-6.693493606197545 0.5307941130771905 0.039267025656893384" free_energy=-389.07821302702627
N       3.0743071452      0.9076220006     -0.0143440399     -0.1410478368     -0.8469744167      0.7765910832     -0.4962979515
N       2.9356188279     -1.3082543634      0.1272407944      0.0349805357      0.7822087593      0.2786348159     -0.5060518431
C       1.5049076359      2.8023724162     -0.2135200433     -0.1418904964     -0.2928906100      0.2237099515     -0.1953431525
C       2.8641108047      2.3165779947      0.3128149674      0.0695755609      0.9824085090      0.0266713713     -0.0281061509
C       1.0560829646     -2.6611591172      0.9950020407     -0.0118328449      0.1662174752     -0.3594415658     -0.2024971856
C       2.5475653977     -2.6281589737      0.6231492015     -0.1584708293     -0.7817432123      0.8243599181     -0.0269588381
C       0.3328775689      2.1297831120      0.5183594585      0.0974523835      0.2653019726     -0.3663785122     -0.2168499011
C       0.1549055044     -2.3138285866     -0.2007460544     -0.0104304653     -0.0583944626      0.4541012964     -0.2053064114
C      -1.0146469402      2.5582023744     -0.0723462182      0.0354224296     -0.3134299124      0.3804587510     -0.1739196352
C      -1.3252403280     -2.3157399663      0.1968243973      0.1712878761      0.1184723386     -0.4535132800     -0.1779098215
C       2.8670648299     -0.1437451437      0.8020237565     -0.4452952983      0.0623712328      1.4485624754      0.5477869332
C       3.2929862320      0.3909343609     -1.2405483743      0.1112383772     -0.8093754447     -1.5071945714      0.2338231754
C       3.2143961644     -0.9830832248     -1.1515579196      0.0857153120      0.7238080273     -1.5429003414      0.2511188723
C      -2.1754165774      1.9085792480      0.6908072505     -0.1001828110      0.1654123771     -0.2058294463     -0.2490308287
C      -2.2052206084     -1.8611880277     -0.9744218948     -0.1687879723     -0.0743265931      0.2402306134     -0.2292898515
C      -3.5174255974      2.2387647617      0.0452738788     -0.2298661331     -0.1346873593      0.1293805067     -0.1028045931
C      -3.6781490944     -1.8237602658     -0.5789323957     -0.1885711701      0.0875563454     -0.2011440905     -0.1003458918
H       1.4406617319      3.9025406420     -0.0670949153      0.1459196343     -0.2729227801     -0.0870747936      0.1177815846
H       1.4378189903      2.5990460520     -1.3047025614      0.0157634745      0.1264551452      0.2329540035      0.1174445028
H       0.8694420672     -1.9455087968      1.8252192141     -0.0080845987     -0.2293209755     -0.1174441052      0.1085101465
H       0.8037705627     -3.6799939251      1.3613653664      0.1808823231      0.2639435699      0.0020755423      0.1195209139
H       3.6763123025      2.9219385221     -0.1444329682     -0.0506322420     -0.4407738242      0.1556193545      0.1522955292
H       2.9149023761      2.4655594773      1.4139721758      0.1085137599     -0.3184397174     -0.3780750545      0.1283608051
H       3.1573160492     -2.8754911596      1.5186268987      0.0312332615      0.1595477881     -0.3655364021      0.1508167583
H       2.7516667194     -3.4019624574     -0.1492956493      0.1522375426      0.5703557096      0.1149340234      0.1337450689
H       0.3705328953      2.4013078941      1.5963120233      0.0031030749     -0.1449723588     -0.1766403061      0.0833019148
H       0.4174084867      1.0260942845      0.4306408327     -0.0205746367      0.1636686128      0.0938400478      0.1519829904
H       0.3212338036     -3.0522844233     -1.0154997061      0.0060953323      0.2340925235      0.0940033283      0.0924110263
H       0.4164171452     -1.3041587167     -0.5836572965     -0.0266977489     -0.2169092156     -0.0339749889      0.1385037293
H      -1.1113287094      3.6648568295     -0.0167597056      0.0091219429     -0.2436046632     -0.1324379124      0.0946210255
H      -1.0572492400      2.2510020147     -1.1408366178     -0.0141981881      0.1754757676      0.1940929273      0.0932909730
H      -1.4765296832     -1.6273415552      1.0572175497     -0.0050264962     -0.2115195289     -0.1049701999      0.1009800924
H      -1.6217060474     -3.3413250208      0.5087485658      0.0096517155      0.2660572493      0.0451561231      0.0932369336
H       2.5796256729     -0.0584650347      1.8429715392      0.1681555217      0.0094201798      0.0320954496      0.1059586365
H       3.4370568050      0.9709778423     -2.1427358538      0.2018917767      0.2123671636      0.1051411292      0.0665058048
H       3.2784589542     -1.6855918732     -1.9722163522      0.1463678242     -0.2255903287      0.1426222539      0.0654122505
H      -2.0482757143      0.8052968418      0.7030425213      0.0837243284      0.2035419138      0.0878511686      0.1510052643
H      -2.1803122640      2.2712135264      1.7417940138      0.0973772032     -0.1833177523     -0.1670981087      0.0782345764
H      -2.0786951228     -2.5593741317     -1.8304146571      0.0939912388      0.2307528975      0.1253110688      0.0893561793
H      -1.8985633127     -0.8439153892     -1.3032986834      0.0666426069     -0.2543138283     -0.0036100887      0.1084934659
H      -3.6787765400      3.3376847952      0.0301718888     -0.0476110209     -0.3183625187     -0.0769003609      0.0508027015
H      -3.5516824215      1.8465634453     -0.9935815292     -0.0805373986      0.1768130895      0.2605440763      0.0486559156
H      -4.3359204362      1.7664403395      0.6284369323      0.0948336488      0.2016128100     -0.2714359943      0.0519201406
H      -4.2863348230     -1.4875911623     -1.4450617534      0.0094881292     -0.1087405613      0.3377738520      0.0473915752
H      -3.8352031224     -1.1135299272      0.2605917898     -0.0553446712     -0.2393824475     -0.2035555783      0.0618643622
H      -4.0213252201     -2.8352362228     -0.2741327633     -0.0063431313      0.3244369161     -0.0253175052      0.0451742315
P       9.4829225425     -0.6977366667      0.1838650472      0.4190629761     -0.5031605951     -3.6179006793      1.6291183430
F       9.7085482817     -1.0347318219     -1.4923369807      1.3521217011      2.0787093526     -1.6754868145     -0.5275282947
F      10.3133488925      0.7599100960      0.5780839430      0.1682258968     -0.6010869349      0.4633866586     -0.5138337633
F       8.4697159150     -2.0180760853     -0.2527599746     -1.0053222317     -0.7034823304      2.1130124293     -0.5252172384
C       8.3678363023      0.6991989919     -0.5526015871     -0.4174479824     -0.2173986532      0.1893679476      0.5545976216
C      11.2823467875     -1.3994864566      0.0593252173      0.1118243451     -0.6951842460      0.6356623126      0.5502027384
C       8.9385731181     -1.2653923469      1.9376994630      0.5957040423      0.6019926577      0.2379407456      0.5464625519
C       7.0689234664      0.2286422805     -1.2406531866      0.3671790009     -0.3790493960     -0.7181545857      1.3367451474
C      12.1492262564     -1.3735435058      1.3435830492      0.8415027347      0.0763305073      0.2610948961      1.3272954043
C       7.4455519259     -1.1496726139      2.3016230344     -0.5152582775     -0.3325266624      0.3252171050      1.3531401720
F       9.0937294640      1.4030301422     -1.5066523147     -0.6473539313     -0.2630096664      0.4073405529     -0.4316722846
F       8.0182320883      1.6084790191      0.4333865152     -0.4383610332      0.2380905773     -0.4762757732     -0.4549964496
F      11.9931188073     -0.6812199441     -0.8975857682     -0.2307361552     -0.3573867101      0.8225193308     -0.4329134709
F      11.2150274939     -2.7192449219     -0.3615445928      0.4294763080      0.2348714958      0.2440618446     -0.4410033986
F       9.6440358799     -0.5233916636      2.8682192557     -0.4376512533     -0.2325642285      0.2915825606     -0.4426238462
F       9.2781980855     -2.5980601454      2.1031751335     -0.4344113336      0.5253580574      0.0678906792     -0.4345016397
F       6.4112853904      1.3302131668     -1.7587584787     -0.2746824482     -0.4009960494      0.0153263768     -0.4757168751
F       6.2243083898     -0.3871677376     -0.3450034106      0.1350904320      0.4714089597     -0.8537909675     -0.4691738122
F       7.3325136175     -0.6403148609     -2.2835475519     -0.8699800454      1.0184022215      0.9321446633     -0.4290549150
F      13.4493843994     -1.7061312506      1.0047806259     -0.4863460563      0.1444938732      0.3879605611     -0.4536483852
F      12.1763323583     -0.1224776855      1.9297608316      0.3027270556     -1.3292245170     -0.2511396763     -0.4381812196
F      11.7204604564     -2.3017694349      2.2696052706      0.5877257754      0.8084232313     -0.5542118360     -0.4482057080
F       6.9781080079      0.1365526017      2.1408876798      0.0717067418     -1.1705300396      0.3677650951     -0.4507026873
F       7.2894809538     -1.4856534418      3.6350211119     -0.1735887758      0.1911049014     -0.6454028291     -0.4511403112
F       6.6785900354     -2.0293364918      1.5598092154      0.2295516902      0.8441083318      1.0038474767     -0.4470437030
