42
Properties=species:S:1:pos:R:3:forces:R:3:charge:R:1 energy=-220.9086692655688 homo_lumo=4.881888290513364 dipole="0.0038120339912517042 3.269127649517417 1.2789749961781618" free_energy=-220.9086692655688
N      -0.4131672029     -0.7118258247     -0.1836656956      0.0062891892      0.1812034501      0.0413108417     -0.6178298700
C      -0.0634668676     -1.4397171690      1.0672505317      0.0479766232     -0.1126797284      0.1809148316      0.0742769120
C      -0.4284866259      0.7502171064      0.0810511483     -0.0009970328      0.0677453589      0.0255825852      0.0946686828
C      -1.7636044027     -1.1403154036     -0.6442691030     -0.2004064250     -0.1196016420     -0.0341777371      0.0352780215
C       0.6026213729     -1.0071488847     -1.2329605001      0.1787882895     -0.0876516789     -0.1361119693      0.0346405656
H       0.9184744007     -1.1121137726      1.4029375305      0.2779649459      0.1286051826      0.0752194410      0.0703712600
H      -0.8127110608     -1.2177516916      1.8247651028     -0.2140630405      0.0964179669      0.1915875132      0.0727487408
H      -0.0504196577     -2.5072753502      0.8597920929      0.0025429948     -0.2770118103     -0.1042845893      0.1666039143
H      -0.6892749726      1.2715025834     -0.8381121240     -0.0716300599      0.1328746306     -0.2497901266      0.0891462820
H      -1.1668279940      0.9646633256      0.8514970640     -0.2024317830      0.0465897452      0.2048921884      0.0845134160
H       0.5590343730      1.0614525044      0.4167168693      0.2753649324      0.0753754599      0.0854730901      0.0849518708
H      -1.9815837492     -0.6597663056     -1.5954821058     -0.0356395545      0.1367248468     -0.2518214410      0.0684019566
H      -1.7687952005     -2.2193107932     -0.7668444892      0.0669289873     -0.1395730741     -0.0210596567      0.2322704030
H      -2.4990354179     -0.8493964374      0.1032336289     -0.1702990408      0.1272347661      0.2619332932      0.0622745178
H       0.3107976633     -0.5101451598     -2.1555124591     -0.0906879170      0.1636708264     -0.2230712033      0.0667700610
H       1.5715010672     -0.6424191049     -0.8972631549      0.2541105897      0.1406857435      0.1472951204      0.0642234709
H       0.6456288293     -2.0801609408     -1.3915415251     -0.0186965262     -0.1866204129      0.0291339126      0.2318460860
P      -0.3929689395     -5.1581230598     -1.8143040095      0.2676186685     -0.2656559733     -0.0669657822      1.6596482612
F       0.5476732176     -6.0109594162     -0.7317276687     -0.0166043691      0.0941452718      0.0202334747     -0.5173052598
F      -0.3692397577     -3.8149365946     -0.7089264808      0.0426208249     -0.1121299852     -0.2078828622     -0.5640788784
F      -0.4649059877     -6.4015984435     -2.9204439499     -0.0872818116      0.1121628649      0.1694343248     -0.5189001466
C       1.3353825401     -4.5687239695     -2.5540943360     -0.7150707406     -0.8747289848      0.1702609750      0.5143808629
C      -1.9268192358     -5.9438064681     -0.8727553721      0.6165236715      0.9447228082      0.0931287084      0.5660251957
C      -1.5178168485     -3.9340041366     -2.9660263567      0.5314341003     -0.8834400120      0.0778148279      0.5638000885
C       2.3152655994     -5.6543020535     -3.0886253913     -0.6920999491      0.1820830120      0.3599675602      1.4032550495
C      -2.3767946096     -5.2822608299      0.4583228767      0.4741163859     -0.0442227413     -0.6944866140      1.3846144043
C      -1.8927335118     -4.3339882290     -4.4142562465      0.4582683750     -0.1492577501      0.7858370534      1.4250226081
F       1.9991615863     -3.8932671122     -1.5869349350      0.8574570604      0.5313734779      0.9551042936     -0.4657488508
F       1.1931850664     -3.7067033584     -3.5808400543      0.1819202578      0.7397295932     -1.1546954562     -0.4608286956
F      -1.6084125562     -7.2099516546     -0.5623974957      0.2222279388     -1.2652491459      0.4246534895     -0.4375838613
F      -3.0036055083     -6.0080011787     -1.6745486018     -1.1772463611     -0.2120694597     -0.6494975642     -0.4500009717
F      -0.9216312851     -2.7108767875     -3.0449637533      0.3568375043      0.9929019825     -0.3601458457     -0.4807425874
F      -2.6791405238     -3.6876927459     -2.3170344816     -1.1718053953      0.3155085956      0.2822912200     -0.4680271733
F       3.5010395403     -5.0843631684     -3.3323392001      1.1180374628      0.6952482629     -0.2216424395     -0.4576878053
F       1.8668317847     -6.1599510142     -4.2319699003     -0.4263671389     -0.4034171130     -1.0904789514     -0.4436519998
F       2.5139215222     -6.6475561658     -2.2348197909      0.2242406274     -0.8248427764      0.7387550279     -0.4413667805
F      -3.3871496522     -5.9523280463      1.0054590372     -0.9894245824     -0.7436775250      0.4102957345     -0.4486391812
F      -1.3795556380     -5.2500365517      1.3400071197      0.8843450313     -0.1242011169      0.8204234756     -0.4528952452
F      -2.7893774009     -4.0170828398      0.2781120966     -0.5767970700      0.9144603336     -0.0701026243     -0.4776094216
F      -2.5111392049     -3.3211206750     -5.0302188041     -0.6225265949      1.0630854409     -0.4815647855     -0.4580399574
F      -2.7094800272     -5.3789408028     -4.4205564312     -0.7887570181     -0.8873034546      0.0779973972     -0.4421900905
F      -0.8076536363     -4.6387996713     -5.1194646687      0.9232179493     -0.1692152356     -0.6117607317     -0.4466058544
