40
Properties=species:S:1:pos:R:3:forces:R:3:charge:R:1 energy=-222.9243543250988 homo_lumo=3.605633665019395 dipole="-2.0479270097662106 -2.1096261223416857 1.066358877491026" free_energy=-222.9243543250988
N       0.4555566146      0.1951677910      0.2127652061      0.1056585415     -0.1880127549     -0.1176211495     -0.4981680352
C       0.0867485695      1.0989993580     -0.9312478053     -0.7145733510      0.4954453561     -0.1073335894     -0.0451008121
C      -0.2685633122     -1.1071492871      0.0447295393     -0.6055581477     -0.1280411622      0.1598191445     -0.0013029646
C       1.9403978443     -0.0509155886      0.0967623701      0.4076910304     -0.3420606875      0.6288791865     -0.0840865721
C      -1.4114515774      1.3265752007     -1.0517026638      0.1601575640     -0.5976809846     -0.0831313330     -0.1604615523
C      -1.7808847088     -0.9463304227     -0.0802229172      0.2762485942      0.1665233776     -0.3669145579     -0.1507118131
C       0.1062527562      0.7973370262      1.5473408369      0.1118332738      0.4993933082      0.3087543598     -0.0786414007
C      -2.1439616216     -0.0025582178     -1.2257892430      0.0661658831      0.1783228495      0.4551926333     -0.1518861828
C       2.5579752714     -0.8981344204      1.2043836756     -0.0184359293      0.1449268423     -0.3909438777     -0.2468812051
C       0.8137129991      2.1028234167      1.8763175019     -0.3042039865     -0.4738428846     -0.0926359221     -0.0712629648
C       4.0323297895     -1.1340186472      0.8708382398     -0.3589188393      0.0375148760      0.1994467743     -0.0455286704
H       0.4640110702      0.6204597353     -1.8378069263      0.1288095070     -0.1135837351     -0.1017098720      0.1431989538
H       0.6252814468      2.0389934054     -0.7952006329      0.4255328731      0.1251620504      0.0011295489      0.2294374363
H      -0.0296073935     -1.7391079083      0.9023078329      0.1454888124     -0.1098563407      0.1561961528      0.1327635736
H       0.1296666693     -1.5741335346     -0.8602701102      0.1589463425     -0.0539044625     -0.2000789350      0.1256496341
H       2.4165978641      0.9325146174      0.0673832277     -0.0341305893      0.3637998792     -0.1493998643      0.2718449474
H       2.0996347611     -0.5300196652     -0.8719404031     -0.0490062720     -0.0420938181     -0.2170766763      0.1350418510
H      -1.5745481142      1.9568710023     -1.9294620847      0.0010456188      0.2777105300     -0.1602717388      0.1050486659
H      -1.7993965537      1.8637322153     -0.1821416893     -0.1174336171      0.2254714753      0.1905174547      0.0902053102
H      -2.2070926857     -0.5812336811      0.8581224547     -0.1402790698      0.0232030861      0.2583732597      0.0914842441
H      -2.1990788002     -1.9390315114     -0.2677828525     -0.1108563870     -0.2852023042      0.0644270984      0.1008200480
H      -0.9730051275      0.9588255026      1.5577656965     -0.1779799401     -0.0688963012     -0.0353738358      0.1557288169
H       0.3398946239      0.0411496182      2.3011264514      0.0042812937     -0.2519758412      0.0693116291      0.1276870193
H      -3.2240579238      0.1610993786     -1.2386560761     -0.3145794346     -0.0135174283     -0.0984541125      0.0795829080
H      -1.8559934007     -0.4571969504     -2.1790631903      0.0550808892     -0.1148079012     -0.2822874081      0.0842364570
H       2.4894613838     -0.3835770944      2.1664707586     -0.0413753321      0.1281572451      0.2605224487      0.0966903918
H       2.0493672422     -1.8626490135      1.2967676678     -0.1064648259     -0.2631599436      0.0957158241      0.0812103034
H       0.4847280480      2.4083148429      2.8699760706     -0.1336149201      0.0721078460      0.3307277207      0.0456574849
H       1.8946572038      1.9927300139      1.8872805148      0.3069430218      0.0852702963     -0.0410206476      0.0776163796
H       0.5605990348      2.8898868746      1.1701970737      0.0761822000      0.2658888798     -0.1753475511      0.0782447335
H       4.5073463154     -1.6933210596      1.6761267441      0.1918107280     -0.1868876026      0.2037328464      0.0357783742
H       4.1278780021     -1.7007286033     -0.0553922693      0.0981561187     -0.1445928178     -0.2770950364      0.0340549460
H       4.5495925281     -0.1829848134      0.7484171539      0.1865778668      0.2193817637     -0.0436773027      0.0711796826
C       3.2053801760      3.2715890525     -1.2629538707      0.5359224065     -1.8047128072     -1.1793149830      0.9280597181
O       3.6909277647      4.3170995476     -1.6177224256      0.8058156661      1.7701739164     -0.5638883963     -0.7206001055
O       2.4061291600      2.9441924469     -0.3743067588     -1.0555907667     -0.3442361268      1.3188703982     -0.8520336896
C       3.6670711022      1.9470462388     -2.1285168714     -0.5521406966      1.1491423829      0.8435717140      1.2201989989
F       4.3464975701      1.0617005154     -1.3516217091      0.7164178235     -0.5782982300      0.5295252617     -0.4855737478
F       4.4156603825      2.1713865657     -3.2074998028      0.5708245642      0.3200109569     -0.7899471752     -0.4527800088
F       2.5653205650      1.2545180415     -2.5570250347     -0.7004485144     -0.4422427833     -0.6011894910     -0.4964011539
