35
Properties=species:S:1:pos:R:3:forces:R:3:charge:R:1 energy=-192.09538793189296 homo_lumo=6.0163579382541466 dipole="-0.21471397565304168 0.9725945162286515 2.538788717888741" free_energy=-192.09538793189296
N       0.0278135078      0.1597322019      0.0048418971     -0.0034813463     -0.0079741533      0.0016014227     -0.5196071398
C      -0.8704010257      0.9936929489     -0.9023170003      0.0151176379      0.0062997208     -0.0010091160     -0.0433366511
C      -0.4666929131     -1.2812161508      0.0132652728      0.0070415995      0.0033735616     -0.0016355986     -0.0589152368
C       1.4390048818      0.2379363324     -0.5775510799     -0.0050619688      0.0182604806     -0.0077062606     -0.0560215879
C      -2.3386358385      0.9092057393     -0.5234654099     -0.0107223660      0.0045066274      0.0013881108     -0.1715562492
C      -1.9398027187     -1.3935201278      0.3774778243     -0.0035713464     -0.0046738819      0.0012831718     -0.1620790850
C      -2.8174433332     -0.5419691251     -0.5376590507     -0.0001621066     -0.0015801462     -0.0073888087     -0.1716740739
C       0.0387945082      0.7187895307      1.3881067863     -0.0009513030     -0.0064227764     -0.0061913245      0.0672644506
C       2.4299456569     -0.7757095981     -0.0347220724     -0.0035325048     -0.0062571666      0.0142591130     -0.2535985717
C       3.8173419670     -0.4687018599     -0.6013686895      0.0001939637      0.0014370971     -0.0010389321     -0.0647881869
H      -0.7095745474      0.5985234091     -1.9169830726     -0.0029743770      0.0019399209      0.0071473583      0.2384680199
H      -0.4801183738      2.0226363827     -0.8545240102      0.0023811821     -0.0069387243      0.0012895925      0.1023625172
H       0.1651146809     -1.8220171808      0.7314255401      0.0016279286      0.0015670691     -0.0110567526      0.1176187327
H      -0.2796954807     -1.6650414407     -1.0008332172     -0.0037994206      0.0057389699     -0.0031372644      0.2476704405
H       1.7732026385      1.2701382384     -0.3768583401     -0.0051793600     -0.0071475649     -0.0101188821      0.1028329606
H       1.3287635965      0.1047645132     -1.6644869685     -0.0006057757     -0.0092348215      0.0114192928      0.2474460916
H      -2.8901619836      1.5034934116     -1.2713542324      0.0024151117      0.0034219480      0.0115650452      0.1120234990
H      -2.5327355983      1.3822435259      0.4561091464      0.0019550789      0.0010374611     -0.0004860681      0.0743089468
H      -2.1099908735     -1.1314758135      1.4376386204      0.0047549129     -0.0028715998     -0.0019194300      0.0733119154
H      -2.2020734361     -2.4599241778      0.2758226570      0.0020052895      0.0034897048      0.0073630081      0.1122645268
H      -3.8715574688     -0.6032372517     -0.2232172465      0.0058675857     -0.0007965389     -0.0028360935      0.0715183761
H      -2.7391841470     -0.9314175302     -1.5662140756      0.0005931792      0.0057070026      0.0107553844      0.1558176353
H       0.7382836572      0.1352627241      1.9982128806     -0.0003514135      0.0039327071      0.0048402332      0.0963419926
H       0.3660546080      1.7650836556      1.3365465048     -0.0067027018      0.0020624151      0.0100063034      0.0735048713
H      -0.9637955406      0.6645311911      1.8221082323     -0.0007208490     -0.0052977959      0.0071137486      0.1063918589
H       2.4720006259     -0.7653024850      1.0689665009     -0.0014321626      0.0101311988     -0.0043524629      0.0818211153
H       2.1341154006     -1.7826068306     -0.3666567198     -0.0022717523      0.0124515690      0.0130835809      0.1401017472
H       3.7954667180     -0.5016498974     -1.7012013982     -0.0068872043     -0.0014590490      0.0038270418      0.0739741340
H       4.1708840334      0.5263718150     -0.2878280065     -0.0017386509      0.0011581821     -0.0022318501      0.0275864046
H       4.5455147597     -1.2155375605     -0.2532342105      0.0044811863      0.0060184741     -0.0023415815      0.0464486650
B       0.2323201390     -1.3401087143     -3.6192768576      0.0008978246     -0.0090191795     -0.0061245755      1.3924079451
F       0.6077291149      0.0504605940     -3.6184659206      0.0095314959     -0.0005949382      0.0048998011     -0.5755093710
F       0.3220079547     -1.8893207045     -4.8917423741      0.0073407837      0.0038064500     -0.0224420629     -0.5243030948
F      -1.1089690955     -1.4231028190     -3.1063353542     -0.0041241070     -0.0083837190     -0.0136608075     -0.5805763754
F       1.0940820095     -2.0208272948     -2.6894643823     -0.0019340437     -0.0176885046     -0.0061643371     -0.5795212229
