38
Properties=species:S:1:pos:R:3:forces:R:3:charge:R:1 energy=-211.69906580818602 homo_lumo=3.4734537737605864 dipole="-0.22937733326710236 1.387116718923918 0.10047323142716026" free_energy=-211.69906580818602
N       0.3538102967      1.6805272119     -0.4351082050      0.5383535882      0.5275494846     -0.3229638140     -0.4893217938
N      -1.7376357008      1.3399284140     -0.0359908992     -0.7500297480      0.3280000893     -0.0934260669     -0.4904662554
C       1.6803672014      1.5459471537     -1.0249157609      0.0490573433     -0.4015938547      0.5252438461      0.0086343039
C       2.5115834021      0.5398491494     -0.2218989958      0.3444029813      0.2638388922     -0.6425497926     -0.2011957862
C      -3.0802043282      0.7788752317     -0.1214212352      0.2672688001     -0.4157133742      0.4762470800      0.0104960697
C       3.8638858901      0.3032725954     -0.8969097298     -0.2794804191     -0.2245336964      0.7109046722     -0.1636688829
C      -3.2009864498     -0.4306919090      0.8121179614     -0.6465099172      0.1239140809     -0.4533055033     -0.2039313286
C      -0.7509309785      1.0934797584     -0.9010097191      0.0139767270     -0.4838833326     -0.2666462688      0.5778191933
C       0.0894728241      2.2170103384      0.8014978435      0.0468751484      0.1094063695      0.2472800593      0.2051910770
C      -1.2250045829      2.0021091273      1.0529528053      0.0141011557      0.1073272657      0.2557149071      0.2057648702
C       4.6831585743     -0.7363030227     -0.1249695164      0.2438318530      0.3007220770     -0.5893697497     -0.1958976171
C      -4.5542613088     -1.1199614489      0.6280183422      0.4280968781     -0.0653999402      0.4354953467     -0.2064229800
C       6.0320642608     -0.9897854449     -0.7951247505     -0.3310295914     -0.0164561858      0.3147244384     -0.0431513192
C      -4.6688136969     -2.3447296709      1.5341678912     -0.1160593528      0.3149167588     -0.3169555341     -0.0429665396
H       2.1548968294      2.5326205808     -1.0344165136      0.0677983910      0.2323407512     -0.0807657700      0.0898686363
H       1.5491550384      1.2032623942     -2.0544727897     -0.0412617769     -0.0705339743     -0.1891032360      0.1040491791
H       2.6600597950      0.9222332514      0.7927046424      0.0610211149      0.1087792271      0.2891964476      0.0757442589
H       1.9548624339     -0.3996034869     -0.1549394808     -0.2711289383     -0.1785001673      0.0094103754      0.1883510797
H      -3.7976858252      1.5601460093      0.1490630153     -0.1557806575      0.2070201179     -0.0393532025      0.0892081193
H      -3.2489153118      0.4839285553     -1.1603370347     -0.0250985256     -0.0524444213     -0.2030399152      0.1027847167
H       4.4214470619      1.2457029644     -0.9512023970      0.2309427882      0.2363815386     -0.0872566557      0.0663366165
H       3.7015216810     -0.0490434676     -1.9211634801     -0.0236405166     -0.1002009866     -0.2964152552      0.0840265972
H      -3.0859655678     -0.0979258410      1.8484154909      0.0291610628      0.0855206822      0.3067506291      0.0765633207
H      -2.3885115070     -1.1275340252      0.5857603490      0.3025743243     -0.1048856952     -0.0881759927      0.1935523117
H      -0.8694641893      0.6687696791     -1.8803377749     -0.0328548909     -0.0510231450     -0.2098656684      0.0873639522
H       0.8473491784      2.7108313660      1.3837009668      0.1607856036      0.0873408825      0.1308526579      0.0213797392
H      -1.8373144254      2.2746203809      1.8944096654     -0.1173192001      0.0432499481      0.1907292868      0.0209407860
H       4.1199395935     -1.6731169423     -0.0722560957     -0.2045974532     -0.1995837763      0.0723972700      0.0970828479
H       4.8446606920     -0.3842107412      0.8995868161     -0.0193818811      0.0580614795      0.2816176203      0.0770940702
H      -5.3635669067     -0.4165178622      0.8557942663     -0.2747627961      0.1704014656     -0.0124275218      0.0664009932
H      -4.6641390305     -1.4305098515     -0.4165259625     -0.0406218113     -0.0426294116     -0.2880200240      0.0824587828
H       6.6147142109     -0.0684839970     -0.8458489121      0.2200475700      0.2511139045     -0.0458743716      0.0213728210
H       5.8901889825     -1.3666573893     -1.8089683445      0.0031090678     -0.1155536663     -0.3180134564      0.0278365786
H       6.5984732886     -1.7278291769     -0.2267508462      0.2830465393     -0.2334886707      0.0943259080      0.0292039147
H      -3.8803172358     -3.0612088625      1.3033874871      0.2443159270     -0.2288372704     -0.0355527258      0.0450237423
H      -5.6346851706     -2.8282357553      1.3871185136     -0.2873528775     -0.2346480748      0.0402176132      0.0264615366
H      -4.5796767980     -2.0546838963      2.5819563707      0.0300898850      0.0365096317      0.3322947059      0.0248314114
Cl     -0.2449588303     -1.3884259600     -0.5001552975      0.0380536044     -0.3724850030     -0.1343223390     -0.6688190231
