51
Properties=species:S:1:pos:R:3:forces:R:3:charge:R:1 energy=-278.7160296953808 homo_lumo=5.0619492643004005 dipole="-1.834993424208428 -1.8544635331144923 2.1902659435900507" free_energy=-278.7160296953808
N       0.4847590579      0.7809444491     -0.6641251880      0.0418026566      0.1043914673      0.0501249800     -0.4949303206
C      -0.3021375314      1.8952665907     -0.0359720108     -0.5758921853      0.0699285102      0.2356135870     -0.0417381515
C      -0.0750697843      0.5172929474     -2.0359002647     -0.6363722094     -0.2897198842     -0.1765820048     -0.0553979118
C       0.4313177722     -0.4342496496      0.2145497800      0.2496645010     -0.4693722433     -0.2145299851     -0.0364528760
C       1.9058921095      1.2438313143     -0.8676925605      0.3780720443      0.0474956162      0.5436436939     -0.1141063111
C      -1.8021724748      1.6265416878      0.0024688367      0.2065873883      0.0194316758     -0.4175568141     -0.1541041478
C      -1.5597565252      0.1890481397     -2.0247184225      0.1589458111      0.4477019848      0.1703779588     -0.1623057418
C      -2.3464593291      1.3365310419     -1.3948555755      0.1692268281     -0.3417009989      0.2781924044     -0.1555352499
C       1.2741825166     -1.6149534185     -0.2669486936     -0.3124358822      0.1205047598      0.3981690721     -0.2550219269
C       2.6966021328      1.5616390498      0.3969127229     -0.0255756836     -0.0147358495     -0.4331281837     -0.2512977362
C       1.0717903900     -2.7973551814      0.6802444922      0.0641766846      0.3234181216     -0.3006588385     -0.0450244206
C       4.0815560454      2.0619337385     -0.0206288831     -0.2939070737     -0.0816210175      0.2349292898     -0.0559747344
H       0.0794131393      2.0442149588      0.9757365832      0.1784624681      0.0319504625      0.1564271212      0.1251435888
H      -0.1007621708      2.7911736291     -0.6267263325      0.0879847295      0.0877478060     -0.0763818332      0.1942054528
H       0.0919820502      1.4260308122     -2.6159727770      0.1792219548      0.0126582142     -0.0616893868      0.2352081713
H       0.5087960886     -0.2829260668     -2.4909048423      0.2368085786     -0.0344358921     -0.0843753231      0.1489543402
H       0.7607256182     -0.1233141530      1.2091166043      0.0464530136      0.1234216177      0.2045735983      0.1369193649
H      -0.6132315183     -0.7423896710      0.2872681136     -0.1782631608     -0.0087218387      0.0264591751      0.1685474300
H       2.4150479164      0.4682254688     -1.4412170829      0.0478009726     -0.0766047783     -0.1850405376      0.1919679255
H       1.8511860969      2.1375645528     -1.4907842717     -0.0374032002      0.0135675511     -0.0685327196      0.2470820341
H      -2.0291703480      0.7959782714      0.6771193939     -0.1034868338     -0.1674894660      0.2270788539      0.0845606480
H      -2.2799134263      2.5220575786      0.4086004426     -0.0996585836      0.2055913904      0.2174345017      0.1033002495
H      -1.8685534570      0.0554445361     -3.0645003363     -0.0226081459     -0.1450444608     -0.2778044771      0.1070172546
H      -1.7578870176     -0.7476283748     -1.4958161182     -0.0997448574     -0.3020516952      0.0815520978      0.0823344485
H      -3.4054927841      1.0763381240     -1.3320303150     -0.3142187764      0.0105620460     -0.0333372231      0.0794843176
H      -2.2485428548      2.2303590572     -2.0184109888     -0.0014610997      0.2361677915     -0.1827099656      0.1024348874
H       0.9793140147     -1.9100050743     -1.2764647579     -0.0258412306     -0.0501564730     -0.2786132577      0.1197850074
H       2.3332589891     -1.3499420665     -0.2850784129      0.2622569155      0.0920052479     -0.0800999570      0.1282372452
H       2.1956616520      2.3356745820      0.9846710713     -0.1235798600      0.1844075272      0.1784303530      0.0877218788
H       2.8057697974      0.6724311646      1.0245177888     -0.0011899587     -0.2402706367      0.2101777271      0.0829943634
H       1.6761609932     -3.6394578339      0.3457214728      0.1469601404     -0.2994687614     -0.0223857609      0.0530682065
H       0.0252472035     -3.1036227750      0.6955765003     -0.3039510273     -0.1555021449      0.0509389543      0.0320263488
H       1.3737895757     -2.5328558675      1.6941124340      0.0859727482      0.0094501727      0.3398536409      0.0373974177
H       4.6672141604      2.3048303883      0.8649629926      0.2126297260      0.0748573788      0.2743424882      0.0255257030
H       3.9901991827      2.9528636754     -0.6419726345      0.0643671926      0.1875518079     -0.2228663936      0.1007697020
H       4.6040138071      1.2972138458     -0.5946999603      0.1798702276     -0.1341134862     -0.2195319791      0.0580205220
N       3.3604598855      3.2403782401     -3.0874430224     -0.1084906326      0.0341803091     -0.2232483474     -0.8745185521
S       2.5673986441      4.5095046181     -3.6707939209      0.1119854797      0.1879317577      0.3681309677      1.6506849610
S       3.1533336029      1.8405076097     -3.8444601659     -0.1294358100     -0.1897779834      0.4400807760      1.6074311705
C       0.9955668697      4.5831061812     -2.6414684080      0.9583757344     -0.2657746758     -0.3862375588      1.1772639136
C       3.9414037287      1.9331612507     -5.5502882114     -0.3326622085      0.1450067186      0.7920400492      1.2076717135
O       3.2604209961      5.6923795248     -3.2486986398      0.5233308346      1.0777523677      0.5877609454     -0.7281871107
O       2.1177313408      4.3979514473     -5.0317462821     -0.5549659556     -0.2446952285     -1.1269076216     -0.7339916577
O       1.7669666579      1.4693238604     -4.0853512145     -0.6590509614     -0.0521871177     -0.4914426609     -0.7724943601
O       3.9526180532      0.8762049744     -3.1176706634      0.7978074523     -0.6914554944      0.3412762656     -0.7750062910
F       0.3766461263      5.7386532991     -2.7813339144     -0.5882484653      1.2317186097     -0.2710642454     -0.4309457825
F       1.3025348115      4.4256627883     -1.3440324531      0.3388989755      0.0549021531      1.3175475518     -0.4724980668
F       0.1340780134      3.6067077067     -2.9451453568     -0.9115630338     -0.8336310379     -0.5049888520     -0.4751520811
F       4.6112916799      0.8105231327     -5.7595396764      0.7104029197     -1.2636528363     -0.2282477364     -0.4352666691
F       4.7798334353      2.9497103758     -5.6102296416      0.9982121956      1.1270997947     -0.1108052248     -0.4322171432
F       3.0196533554      2.0599821615     -6.4809806569     -0.9962713377      0.0907811403     -1.0463891653     -0.4235910239
