39
Properties=species:S:1:pos:R:3:forces:R:3:charge:R:1 energy=-220.7166844091938 homo_lumo=0.27327347770889654 dipole="-4.864033856916256 1.2176581089471303 1.8599048626243717" free_energy=-220.7166844091938
N       2.3665123188      0.0347441969     -0.5272459725      0.7296796122      0.0250871148     -0.0175499125     -0.5293520061
C      -1.4489359331      0.0518293731     -0.7132759930      0.1847639223     -0.0172584194      0.2462563202     -0.1804473479
C      -0.0491748182      0.0174829128     -0.0913709905     -0.0382982049      0.0025122060     -0.0787092430     -0.1955016227
C      -2.5285467036     -0.0162370409      0.3738556491     -0.0690645592      0.0228724440     -0.4280520234     -0.1697633876
C       1.0441098599      0.0798132850     -1.1628619829     -0.8363271434      0.0147243139     -0.2632227168     -0.0156644906
C      -3.9329682419      0.0065740566     -0.2389632261     -0.0185927585     -0.0206640261      0.2453969616     -0.2092908081
C      -5.0064972225     -0.0649651464      0.8434002636     -0.2491741135     -0.0006935651     -0.0655494597     -0.0857928715
C       2.9585664943     -1.1730616077     -0.2768234364      0.8465274035      0.4222734652      0.5246649340      0.2598296349
C       2.9708127031      1.1981357211     -0.1348015202      0.8429168136     -0.5285323029      0.4713933597      0.2598351439
C       4.1835131271     -1.2373018803      0.3917206535     -0.6485655328      0.6080132004     -0.2669128481      0.0113293237
C       4.1954871181      1.1692396197      0.5363548435     -0.6826536635     -0.5546945059     -0.3708367174      0.0115311078
C       4.7985236305     -0.0574860605      0.8069625067     -0.0961135862     -0.0189560834     -0.1198630608      0.0836919434
H      -1.5659018653     -0.8122161603     -1.4040879779     -0.0124464740      0.2548370492      0.0613023368      0.0994305043
H      -1.5704386410      0.9917205692     -1.2958118070     -0.0110610447     -0.2646742749      0.0235546151      0.0976945761
H       0.0696898588      0.8815520540      0.5988899259      0.0182869631     -0.2569248500     -0.0714425912      0.1182366098
H       0.0711048591     -0.9199123590      0.4951318436      0.0158436277      0.2560686328     -0.0419472691      0.1199234719
H      -2.4000817518     -0.9520544180      0.9617909471     -0.0148429316      0.2520512286     -0.0351017701      0.0949299379
H      -2.4134988834      0.8510618306      1.0612338001     -0.0117326956     -0.2538471576     -0.0634015289      0.0939704526
H       0.9350659759      1.0130419724     -1.7598539502      0.3218094081     -0.2907348848      0.2443357632      0.1352096599
H       0.9286624752     -0.7711968284     -1.8711713310      0.3218734397      0.2484490639      0.2841528590      0.1375338333
H      -4.0721443846      0.9426356024     -0.8226465207      0.0947053075     -0.2607453951     -0.0041466493      0.0919180631
H      -4.0564446453     -0.8593629238     -0.9254108047      0.0920548975      0.2592496195      0.0305955083      0.0927433495
H      -4.9215009739      0.8047590241      1.5293954286     -0.0896827414     -0.2965272151     -0.1161140196      0.0425188011
H      -6.0117166510     -0.0485404631      0.3720676205      0.2002953077     -0.0155778801      0.2815654100      0.0519841509
H      -4.9035988232     -1.0043471983      1.4275866885     -0.0953291189      0.3019062059     -0.0813017961      0.0429219213
H       2.4761252634     -2.0956505431     -0.5776747133     -0.4036604987      0.1223467499     -0.2918138549      0.1133335372
H       2.4984512734      2.1548707286     -0.3234406710     -0.4183419077     -0.0886055310     -0.3038519906      0.1094852142
H       4.6444762352     -2.1948111230      0.5967770539      0.0883854266     -0.2883437589     -0.0964181796      0.0903766380
H       4.6659607500      2.0905349009      0.8544784386      0.0527619839      0.2743659482     -0.0498424251      0.0790636568
H       5.7377790290     -0.0936712435      1.3429077009      0.3663517869     -0.0340866965      0.0097473889      0.0963990800
N       7.6130859164     -1.1225192533     -2.9230206075     -0.3281580033      0.3663102401      0.0064685303     -0.8449981175
S       8.0414649476     -2.6850653325     -2.6943263116      4.9540619333     -0.3115768978     -2.4700310447      1.8371138624
S       7.9500434837      0.0235357951     -1.8046726349     -3.4626988949     -0.3971170304      2.1787791621      1.8638169926
F       7.0107062614     -3.3804120748     -1.5734225736     -0.0768311600      0.2722681410     -0.2629980768     -0.4615786541
F       9.5456272217      0.5014613616     -1.9696130733     -0.8310307769     -0.2072943564     -0.0443971862     -0.4341907037
O       7.9395167219     -3.4310730080     -3.9943540064     -1.5272097374      1.1372452849      2.2363070027     -0.7042277666
O       9.4493021950     -2.7608765857     -2.1731814885     -2.4510207688     -0.0857811215      0.4846811668     -0.7108516921
O       7.7515685977     -0.5300111657     -0.4220315559      1.1782487229      0.5721581544     -1.1033467336     -0.7565219838
O       7.0528761379      1.2104130132     -2.0136869506      2.0642697593     -1.2201031099     -0.6823502212     -0.7366400145
