40
Properties=species:S:1:pos:R:3:forces:R:3:charge:R:1 energy=-214.98361828209676 homo_lumo=3.4334836932987876 dipole="-0.3749585284216847 -0.6821226620488192 -2.2490367627107175" free_energy=-214.98361828209676
N      -0.7759898081      0.2832533013     -0.1916694821      0.0097890923      0.0042726298     -0.0016735500     -0.4832676600
C      -1.2653092543     -0.4745777625     -1.4072258975      0.0022257722      0.0139872491     -0.0086763270      0.0000784536
C      -1.9664605220      0.6638294334      0.6850034822      0.0070663452      0.0024793056     -0.0004337827     -0.0457693701
C       0.1956953431     -0.5473117742      0.6349420567     -0.0084756940     -0.0020667910      0.0119637007     -0.0837662423
C      -0.1149812703      1.5527050442     -0.6973357695     -0.0030448225      0.0019028990     -0.0157632115     -0.0161867105
C      -2.1065571349     -1.6913500698     -1.0580719361     -0.0017526246     -0.0083348802      0.0021500534     -0.1682313769
C      -2.8220362187     -0.5353102327      1.0482377847      0.0010997943      0.0032890049      0.0087814969     -0.1563388704
C      -3.2976458397     -1.3060616489     -0.1807940051     -0.0082355488      0.0051215269      0.0003206151     -0.1604448485
C       1.5188939896     -0.8560668753     -0.0360308686      0.0116678574      0.0053449524     -0.0126583130     -0.2189928227
C       0.4920660875      2.4528940666      0.3613503818      0.0022908075     -0.0043059103      0.0108484503     -0.2424958654
C       2.3676342001     -1.7201696632      0.9016661495     -0.0066922133     -0.0002567361      0.0130474731     -0.1994272501
C       1.1530551198      3.6559496747     -0.3069946327      0.0005424678      0.0008304044     -0.0085084794     -0.0625674270
C       3.7298796900     -2.0530816422      0.3023706062      0.0002252784      0.0039166930     -0.0020794405     -0.0667441909
H      -0.3801516009     -0.7428545429     -2.0013969565     -0.0042166006      0.0051869252     -0.0012937819      0.1311544530
H      -1.8650344606      0.2463139367     -1.9873504258     -0.0015357997      0.0004722452      0.0029145034      0.1204324529
H      -2.5419807395      1.3968626967      0.0943805179      0.0039243059      0.0071311716      0.0049991737      0.0909626860
H      -1.5388266244      1.1172638751      1.6115917122      0.0009195602     -0.0090671731      0.0013157256      0.2049977649
H      -0.3282375942     -1.4813586956      0.8721402659     -0.0011495829      0.0002476672      0.0003092581      0.1621485389
H       0.3130443445      0.0060201660      1.6003555509     -0.0105887463     -0.0045229064     -0.0026902585      0.2114029495
H      -0.9023248171      2.0883674079     -1.2545002014      0.0077772424     -0.0072151718     -0.0011301577      0.1183129539
H       0.6469973370      1.2309340055     -1.4258733459     -0.0127173677      0.0000890706     -0.0008298470      0.1261485622
H      -1.4877729947     -2.4522479645     -0.5536885334     -0.0009734465     -0.0043331273     -0.0068198339      0.1030867580
H      -2.4423282906     -2.1419434559     -2.0070171555     -0.0003007732     -0.0025961365     -0.0062640383      0.0977505681
H      -3.6751749560     -0.1476055018      1.6286313693     -0.0052308979      0.0028878497      0.0023023239      0.1099456364
H      -2.2657515787     -1.1860147975      1.7434410147     -0.0060271865      0.0075988078      0.0078940421      0.1100065108
H      -3.9857734871     -0.6691338941     -0.7679898251     -0.0074071820     -0.0060150242     -0.0036575505      0.0808080482
H      -3.8621157066     -2.2055629641      0.1126033789     -0.0023396682     -0.0042684849      0.0022946105      0.0811721897
H       2.0774317795      0.0706293258     -0.2529309124     -0.0014384040     -0.0033469586      0.0066775753      0.1156692112
H       1.3874927054     -1.3937071925     -0.9943848132      0.0111016517      0.0115263466      0.0096141759      0.0824808970
H      -0.2699270092      2.7806123537      1.0851321787      0.0133392390     -0.0110078875     -0.0031795545      0.1415823090
H       1.2237425728      1.9061827111      0.9750334025     -0.0008721916      0.0009899120     -0.0097740212      0.1424711696
H       1.8216943495     -2.6535177693      1.1309174349      0.0038037239      0.0084705703      0.0013781333      0.0844644232
H       2.4887654023     -1.1869361668      1.8606465015     -0.0043163506     -0.0015531026     -0.0023725234      0.1188599777
H       1.5856231654      4.3166031154      0.4580919597      0.0004573477      0.0011245629     -0.0067451267      0.0573553540
H       1.9656546531      3.3466978072     -0.9849386984     -0.0019883567      0.0130869855     -0.0081937190      0.0255284998
H       0.4276450716      4.2459261206     -0.8906273865      0.0062341978      0.0041182925     -0.0046700196      0.0252606017
H       4.3008835809     -1.1346786737      0.0898247755      0.0027219562     -0.0047110374      0.0032157090      0.0359799296
H       3.6228355933     -2.6101868405     -0.6428850756      0.0072270102      0.0002103879      0.0046299946      0.0267321613
H       4.3274420978     -2.6681656686      0.9915248394      0.0052310828     -0.0029879983      0.0052801845      0.0450453526
Cl     -0.2038171651      1.1932613595      3.4027459959     -0.0083412754     -0.0276961337      0.0074763367     -0.7456057780
