44
Properties=species:S:1:pos:R:3:forces:R:3:charge:R:1 energy=-236.54169228989724 homo_lumo=5.151136366345 dipole="2.2969951794781895 0.9389089255649476 -2.4419562153960577" free_energy=-236.54169228989724
N      -0.4263069603     -0.4990440734      0.1942770877      0.0189372741      0.0341754384     -0.1482529352     -0.4994573359
C      -1.4547450739     -1.5310220861      0.5917711960     -0.3908933987     -0.3638289593     -0.3495998289     -0.1494802466
C      -0.9831407389      0.4810908002     -0.8019867797     -0.4071608703      0.3785090350      0.0046193315     -0.0691605008
C       0.7394117549     -1.2122045795     -0.4320527895      0.4898144288      0.2038178466     -0.1986688251     -0.0697877453
C      -0.0094589436      0.2500280448      1.4418474699      0.3396006273     -0.0096593260      0.4344013557     -0.0985411377
C      -2.1658064887     -2.2402076012     -0.5481904750      0.3032527316      0.3438112357      0.1734592348     -0.0882811258
C      -2.2370621300      1.2138631681     -0.3531963523      0.4018652561     -0.3173918763     -0.1244325851     -0.1003859585
C       1.8921801025     -0.3154096625     -0.8604526825     -0.4201305989     -0.1689790814      0.1063736326     -0.0846920691
C       0.8834746728     -0.5281833259      2.3960102259     -0.1438759086      0.1690085199     -0.4776836081     -0.0944560387
H      -0.9308809920     -2.2656925083      1.2039289928      0.0543673474     -0.0255076509      0.2348970768      0.1930163203
H      -2.1922641526     -1.0304052876      1.2209800902      0.0567846262      0.0714087338      0.0758924882      0.2405830094
H      -0.1943229765      1.2091579430     -1.0032047429      0.2127109522      0.0442244470     -0.0358391262      0.1468671462
H      -1.1824087454     -0.0750919584     -1.7213313406      0.0294472547     -0.1702737207     -0.1978203803      0.1371511879
H       1.0874761331     -1.9491876240      0.2941155628     -0.0367093404     -0.1649343114      0.1758175151      0.1507070460
H       0.3577934233     -1.7452445092     -1.3052548432     -0.1511950990     -0.1295221748     -0.0934729162      0.1557601325
H       0.4925075030      1.1651588682      1.1180858880      0.0683824102      0.1973171013     -0.1852366418      0.1112512490
H      -0.9299345909      0.5202149716      1.9626361750     -0.1518378372     -0.0198667958      0.0362086143      0.2150625892
H      -2.7410953864     -3.0486316324     -0.0958763293     -0.2034921759     -0.1972020963      0.1263136967      0.1050418593
H      -2.8585729796     -1.5843280840     -1.0728638451     -0.2361158213      0.1452247267     -0.1775341859      0.0412956019
H      -1.4753901633     -2.6773453474     -1.2677089661      0.1665952569     -0.2291959816     -0.2242882922      0.0312864399
H      -2.4873538287      1.9377731522     -1.1286338168     -0.0818927826      0.2360127982     -0.2343286325      0.0515872179
H      -3.0788565965      0.5379060012     -0.2342440691     -0.2206962232     -0.0940264834      0.0298690416      0.1076494970
H      -2.0818613264      1.7512043531      0.5794665401     -0.0045967011      0.1994267713      0.2194485407      0.0619584805
H       2.7077440490     -0.9629534785     -1.1823115739      0.2703898764     -0.1485366504     -0.1137492770      0.0730948251
H       1.6176766693      0.3233752990     -1.6981873388     -0.0015380353      0.1827000597     -0.2727482087      0.0469251934
H       2.2539038290      0.3067948635     -0.0448639449      0.1739720802      0.1758212528      0.2402401822      0.0624540231
H       0.9250016585      0.0402750462      3.3250865065     -0.0027579323      0.0880106794      0.2687311197      0.0756053893
H       0.4747479163     -1.5084011972      2.6275472917     -0.1534293672     -0.2637295590      0.2156345863      0.1089907283
H       1.8957500764     -0.6374179026      2.0094886358      0.3565081722     -0.0163595242     -0.0958793457      0.0377126032
N      -3.5287140302     -2.2947665929      2.9883610166      0.0092951578      0.0942485952      0.1480492864     -0.8593782665
S      -4.8237173394     -1.4071111859      3.3422233479     -0.2053187525     -0.2751821593     -0.2786344960      1.6410629122
S      -2.1875181842     -1.9641386482      3.7963587101      0.3079198836      0.0311072833     -0.4204348516      1.6019191710
C      -4.7770459245      0.0003796884      2.1056566557      0.2765052543     -0.8511025140      0.5137908535      1.1868643937
C      -2.4054173473     -2.3796123679      5.6210396027     -0.1102009331      0.2030526221     -0.8499819341      1.2118466824
O      -5.9823322622     -2.1453627501      2.9283260839     -1.0216856581     -0.5824676177     -0.5571403851     -0.7288168063
O      -4.8092388280     -0.7775089631      4.6348526744      0.2078512507      0.7092842370      1.0419544044     -0.7366559701
O      -1.7734380508     -0.5680462523      3.7670567058      0.0056912143      0.7776662737      0.3356578523     -0.7711357214
O      -1.1985432999     -2.9192107443      3.3277899077      0.6293794837     -0.8955158891     -0.1292366196     -0.7856891448
F      -5.8441161358      0.7677223959      2.2100169340     -1.1909766148      0.7639799935      0.2397060047     -0.4325025539
F      -4.7407922905     -0.5052157645      0.8650673450     -0.1243919241     -0.5799926232     -1.2833341044     -0.4711994088
F      -3.6922663483      0.7628285148      2.2419523986      0.9493957335      0.8250208915      0.3616569579     -0.4661540792
F      -1.3034177293     -2.9877615874      6.0340459554      1.2347658024     -0.6261866396      0.4585846320     -0.4357599598
F      -3.4306816580     -3.1914099686      5.7883210825     -1.1338204517     -0.9264682425      0.2142097714     -0.4309300726
F      -2.5787959828     -1.2856270462      6.3307571887     -0.1707156483      1.1821013348      0.7927810011     -0.4232295569
