44
Properties=species:S:1:pos:R:3:forces:R:3:charge:R:1 energy=-236.998659642809 homo_lumo=5.033501684278046 dipole="2.756379384424542 1.5550588657958517 1.4155218842823971" free_energy=-236.998659642809
N      -1.2657959381     -0.1828147230      0.5198580176     -0.0012818905     -0.0032616501     -0.0010544334     -0.4960791667
C      -1.3130693659     -0.5528101490      1.9959451878     -0.0087422288     -0.0064158486     -0.0040597906     -0.0781269592
C      -2.5755155606      0.4652709719      0.0751807809      0.0002408613      0.0117728497      0.0011302739     -0.1357346318
C      -1.0584115452     -1.4567766268     -0.3065299155     -0.0056527085      0.0064716010     -0.0059512927     -0.1195065386
C      -0.1327934136      0.8025071569      0.3044652775      0.0032155795      0.0003640299      0.0038677453     -0.0740451257
C      -2.4726338398     -1.4349641458      2.4048678976      0.0035345445      0.0091133247     -0.0051729352     -0.1199176810
C      -3.0017101397      1.6818061522      0.8711204328      0.0061264344     -0.0034003838     -0.0024710514     -0.1044093458
C      -0.6607126006     -1.2299740211     -1.7510341467     -0.0086496925      0.0074712710      0.0053554466     -0.1156636493
C       1.2544713403      0.2983354084      0.6594868939     -0.0150316429     -0.0023999526     -0.0052401128     -0.1035805989
H      -0.3571457088     -1.0528817369      2.2035212740      0.0027438746      0.0000766547     -0.0079571705      0.1486972223
H      -1.3186189976      0.3999941959      2.5454440970     -0.0037368152      0.0167659203     -0.0045640520      0.1331914510
H      -2.4420405503      0.7114628426     -0.9860299261     -0.0000077825     -0.0046859576     -0.0023845205      0.1634666284
H      -3.3451691932     -0.3139511890      0.1283858251     -0.0040671967     -0.0082869588      0.0033534812      0.2624920158
H      -0.2934932555     -2.0392384178      0.2274876893     -0.0005895030     -0.0037649230      0.0100000856      0.1183051417
H      -2.0095641270     -2.0053737586     -0.2591917855     -0.0058872500      0.0034407665      0.0043261852      0.2488041261
H      -0.1850823597      1.0967453794     -0.7526802781     -0.0116401160      0.0014645490     -0.0105887556      0.1481589043
H      -0.3787675628      1.6847693806      0.9102124966     -0.0079238914      0.0009583270     -0.0009503831      0.1590108855
H      -2.3659556424     -1.6399031067      3.4811357699      0.0027350139      0.0056018287      0.0064448855      0.0565741304
H      -3.4521673082     -0.9661657060      2.2429397893     -0.0025872439      0.0092185341     -0.0013198899      0.1026103371
H      -2.4853647310     -2.3975182736      1.8777110455     -0.0004275735      0.0056944353     -0.0020837196      0.1008303395
H      -3.9636508968      2.0107770729      0.4495725390     -0.0042218647     -0.0019335580     -0.0039986638      0.0984372712
H      -3.1824570423      1.4521156450      1.9301952819     -0.0031254548      0.0008323484      0.0004385518      0.0562637540
H      -2.3048431602      2.5284098402      0.7952836891      0.0014235172      0.0048098987     -0.0089588708      0.0355973642
H      -0.6322115871     -2.2197511862     -2.2311864263     -0.0063324096     -0.0033797582     -0.0019894286      0.0997132528
H      -1.4123212922     -0.6525098520     -2.3036420462     -0.0079918564     -0.0011808245     -0.0000822621      0.0888006335
H       0.3331431445     -0.7736726730     -1.8627735388     -0.0010972035     -0.0031625840     -0.0008225599      0.0408733242
H       1.9767647969      1.0764382245      0.3683762720     -0.0013324404      0.0071741025     -0.0037806114      0.0808830820
H       1.3801514505      0.1280500886      1.7370978004     -0.0045559183     -0.0021659451     -0.0033588605      0.0548340047
H       1.5255703148     -0.6184988672      0.1193412396     -0.0043979972     -0.0020692984     -0.0111999793      0.0672485687
N      -5.7768353642     -2.6034552966     -1.4624154824      0.0168655981     -0.0188842655     -0.0006770091     -0.8360172549
S      -5.2713675659     -2.6129974268      0.0575086705     -0.0104803709     -0.0068916016     -0.0219660677      1.6003973190
S      -4.8012801495     -2.1776041235     -2.6564008256     -0.0135941099     -0.0229610193      0.0129861310      1.6326242739
C      -6.6557614544     -3.6803882664      0.7553541258     -0.0134957806     -0.0019290045      0.0050688922      1.1859907449
C      -3.8459757460     -3.7595071435     -3.1148059662      0.0126552779     -0.0163726039     -0.0070161982      1.1637171080
O      -4.0298998161     -3.3638950258      0.2989094860      0.0131060338     -0.0034348558      0.0197750140     -0.7705998998
O      -5.4061404950     -1.3222343835      0.7468234557      0.0148660824      0.0179838636     -0.0013893909     -0.7625368413
O      -3.7347074932     -1.2445727997     -2.2647907093      0.0052554496      0.0080508597      0.0059961124     -0.7943000243
O      -5.5981994273     -1.9109138631     -3.8402820049      0.0056193177     -0.0055594469     -0.0054583269     -0.7146622178
F      -6.4199666007     -3.8487874221      2.0825199969      0.0041030079      0.0049729199      0.0056050274     -0.4421568934
F      -6.6825954704     -4.8930340058      0.1657547386      0.0076014078      0.0103170904      0.0160195194     -0.4275422496
F      -7.8571840738     -3.0856264429      0.6041421802      0.0255338249     -0.0004935757     -0.0089853059     -0.4276658214
F      -4.6277831458     -4.8530783366     -3.0004943462      0.0149780293     -0.0029731555      0.0056011977     -0.4305740460
F      -2.7498158530     -3.9283103981     -2.3258770754     -0.0022889153     -0.0188568246      0.0117177888     -0.4550369857
F      -3.4148431282     -3.6676101059     -4.3987269852      0.0085360025      0.0119088205      0.0157953047     -0.4393659521
