76
Properties=species:S:1:pos:R:3:forces:R:3:charge:R:1 energy=-411.20668774175175 homo_lumo=5.078104089635332 dipole="-0.586722383817092 1.8657673189561674 2.82461536641183" free_energy=-411.20668774175175
N       0.6962698257      1.1631246994     -1.3526085586      0.2281234308      0.0184840074      0.0301840564     -0.4853292553
C       0.2963119225      1.6851008439     -2.7001509084     -0.4477330323      0.3483501574     -0.2210912811     -0.0637014327
C       0.9530959644      2.4166156257     -0.5736504588     -0.1760071206      0.3980260517      0.1297620971      0.0083424822
C      -0.4307146119      0.4025247724     -0.7060825952     -0.1921575253     -0.5540086898     -0.2462735503     -0.0235642070
C       1.9395027663      0.3316920421     -1.4807511649      0.1740079398     -0.3963785851      0.6057420537     -0.1019108331
C      -0.5640093875      2.9098451154     -2.4190592979      0.0869699757     -0.1104228835      0.0682702214     -0.1437094741
C      -0.1049312107      3.4154974328     -1.0418616743      0.0462163644     -0.0794485974      0.0538040289     -0.1307602855
C      -0.8169642919     -0.8973986128     -1.4084271707     -0.2342415682      0.4389164182      0.5756570753     -0.2428573810
C       2.5189719969     -0.1349063979     -0.1492278142      0.0801512367      0.0117367068     -0.6378233239     -0.2056293348
C      -1.9772141969     -1.5635795752     -0.6615229286      0.3993042887     -0.1632556835     -0.5909438791     -0.1469345172
C       3.7997355636     -0.9367653858     -0.4130178785     -0.3269329902      0.0867053929      0.7125258363     -0.1825943937
C      -2.3817560767     -2.8633940354     -1.3645930707     -0.4021637558      0.3116164277      0.7401205606     -0.1645197074
C       4.4439055840     -1.3963279772      0.8973226139      0.2823942496     -0.1140373799     -0.7992090002     -0.1516624382
C      -3.5411002748     -3.5518299655     -0.6385857646      0.3105100393     -0.2551439610     -0.5805432276     -0.1970886406
C       5.7218217849     -2.1961536573      0.6253660860     -0.2441869841      0.1113534887      0.6937412560     -0.2015665916
C      -3.9368749469     -4.8509042195     -1.3382646843     -0.0308528669      0.3481242468      0.3328053429     -0.0454843685
C       6.3682434201     -2.6734787057      1.9243321861     -0.0644626425      0.0726688608     -0.4583657881     -0.0437321956
H       1.2118543778      1.9644837904     -3.2235990630      0.1870519447     -0.0686007557     -0.0161003309      0.1599683434
H      -0.2134862021      0.9103188573     -3.2665577095      0.1488864550     -0.1469526957     -0.0847404200      0.2460212231
H       0.9048061795      2.2063749220      0.4946672708      0.0734097528     -0.0996257018      0.2228986746      0.1151359373
H       1.9571959962      2.7614393263     -0.8301604454      0.2482721874     -0.0187909367     -0.0886097343      0.1270929605
H      -0.1256903206      0.1965595775      0.3229593542      0.0989052661      0.0340341024      0.2134508402      0.1257425808
H      -1.2899532863      1.0766316788     -0.6767104346     -0.1643431436      0.2050704688      0.0233195555      0.1548244224
H       1.6849281844     -0.5231082377     -2.1049958094     -0.0443220611      0.0156932154     -0.1705756308      0.2808942544
H       2.6735213379      0.9395187784     -2.0152887741      0.0315874023      0.1505972926     -0.1368197492      0.1474407434
H      -0.4115003531      3.6604255321     -3.1957081665     -0.0486837129      0.1184916392     -0.2358918605      0.0998401110
H      -1.6242294374      2.6495052387     -2.4033095577     -0.2647554170     -0.0153074093     -0.0660066920      0.0776676226
H      -0.9416278416      3.4523070634     -0.3413741822     -0.1723911897      0.0898857274      0.1831033708      0.0802640131
H       0.3288270578      4.4147456710     -1.1044598411      0.0754262669      0.2549147528      0.0768883231      0.0979267067
H      -1.1249068898     -0.6981851305     -2.4360891947     -0.0037926447     -0.0575017350     -0.2216398985      0.1635890768
H       0.0299283241     -1.5855166481     -1.4375310888      0.1828762137     -0.1652017381     -0.1005636930      0.1441606221
H       2.7496962096      0.7243269372      0.4881255852      0.0861807923      0.1973393781      0.2311236914      0.0833951623
H       1.8026006026     -0.7684800868      0.3809879859     -0.1697644212     -0.1884849330      0.1688145292      0.0948922843
H      -1.6766924132     -1.7777308338      0.3701498522      0.0164086057     -0.0655836551      0.3120243925      0.0720233334
H      -2.8326553809     -0.8799158576     -0.6269989721     -0.2699819880      0.1575582531      0.0616078272      0.0704816809
H       4.5070257156     -0.3181665300     -0.9745389580      0.1986485984      0.1089062836     -0.1893557561      0.0854352212
H       3.5577594968     -1.8080199554     -1.0273546738      0.0268184885     -0.1347470825     -0.1689334344      0.1528568406
H      -2.6752052764     -2.6400757677     -2.3952609692     -0.0164889179      0.0152078269     -0.3089377646      0.1040242426
H      -1.5198287961     -3.5373131441     -1.4021752917      0.2322757052     -0.1778702533     -0.0885165444      0.0989914999
H       4.6805962578     -0.5231801634      1.5158973451      0.0621411486      0.2157358365      0.2281786278      0.0703478559
H       3.7339276689     -2.0176211373      1.4543216346     -0.1882363322     -0.1578794431      0.1954198337      0.0750128174
H      -4.4034012594     -2.8768257168     -0.6068818902     -0.2106896648      0.1999218121      0.0725465661      0.0761932231
H      -3.2477468998     -3.7679455862      0.3946579322      0.0486217699      0.0021036971      0.2973458512      0.0753405690
H       5.4812238486     -3.0611994248     -0.0007730914     -0.0495290530     -0.1751471928     -0.2436016926      0.0962052371
H       6.4306652726     -1.5701678887      0.0734547280      0.1553232828      0.1334662302     -0.2142427256      0.0838370368
H      -4.2475509802     -4.6519368149     -2.3645553507     -0.0890832395      0.0042759872     -0.3255494059      0.0350201336
H      -4.7648155719     -5.3231477796     -0.8091668202     -0.2671799917     -0.2511657661      0.0867694025      0.0287082423
H      -3.0956561935     -5.5447450918     -1.3589063574      0.2323319914     -0.2438075300     -0.0467149307      0.0328595933
H       5.6866548984     -3.3237869007      2.4745534072     -0.1748253948     -0.2043527907      0.2086078639      0.0261301876
H       7.2784264190     -3.2313288797      1.7040962979      0.3140949874     -0.2038893536      0.0618981841      0.0339120754
H       6.6259997942     -1.8244285863      2.5593295409      0.0988398040      0.2284713941      0.2355136173      0.0232865691
P       1.4373726381     -1.7681072481     -5.2508313715      0.4721545432     -0.0685702897      0.3585295600      1.7101565435
F       0.8944991114     -3.2831078671     -4.8395901866      0.0092211833     -0.1193635004     -0.0034036647     -0.5151460498
F       0.6067573731     -1.0621561948     -3.9123054331      0.2344629726     -0.3122646004     -0.3004178558     -0.5505277475
F       2.3073622808     -2.3902014756     -6.5243184601     -0.1136768629      0.0957549917      0.0867772671     -0.5132831224
C       2.8719001002     -2.1718804319     -3.9648043312     -0.2904835841     -0.1122424567     -1.0891469877      0.5032131596
C      -0.2373566525     -1.5961847209     -6.3277783214      0.5444225220      0.7795820096      0.6033597087      0.5488297845
C       2.0545919007      0.0821714281     -5.8122046534      0.1401573971     -0.8385965062      0.4950566449      0.5428737054
C       3.9847070305     -3.1812160096     -4.3455605468     -0.7562365073      0.4764262028     -0.1615292276      1.4106048488
C      -1.1307762399     -0.3145245363     -6.3245721897      0.5102573457     -0.4774386237      0.1782949309      1.3855714280
C       3.4277044371      0.7723651368     -5.5777548699     -0.5415363168     -0.7071435948      0.0901160066      1.4236251036
F       2.2985323408     -2.6586381638     -2.8407446337     -0.4791739810     -0.7408330268      1.1536348419     -0.4725514616
F       3.5014036334     -1.0355753685     -3.5768885223      0.7246982648      0.7674122208      0.3721470851     -0.4833965594
F      -1.0817301741     -2.5572012246     -5.9074971182     -0.9418996374     -0.8134542862      0.4681975672     -0.4414966261
F       0.0360562555     -1.8477563345     -7.6167573189      0.1738641240     -0.2174625020     -1.3519958849     -0.4369176393
F       1.1641355667      0.9786006223     -5.2996524948     -0.4733230660      0.9430665198      0.3150118526     -0.4756181440
F       1.8716695585      0.0856432853     -7.1456817153      0.1875383545      0.0701942320     -1.2911016837     -0.4439118252
F       4.7810103383     -3.3878140861     -3.2886921896      0.7465874118     -0.1305524881      1.1305438236     -0.4654390512
F       4.7389382157     -2.7191528170     -5.3356706074      0.7050132486      0.4494870825     -0.8232796446     -0.4465694815
F       3.4755887953     -4.3507922240     -4.7067446461     -0.4818770787     -1.0412480027     -0.2588927009     -0.4411799177
F      -2.3334817224     -0.6242422778     -6.8126454355     -1.1339803404     -0.3555877392     -0.5422765676     -0.4506477874
F      -1.3302230308      0.1606042749     -5.0837948553     -0.4191683155      0.3328490089      0.9421787256     -0.4813533757
F      -0.6435914773      0.6687116412     -7.0670610432      0.3171282148      0.8019383885     -0.7918209279     -0.4466805157
F       3.4644709689      1.3110376985     -4.3461824394      0.1315660249      0.6445805079      1.0154558259     -0.4807630517
F       3.5920042626      1.7736229826     -6.4404294693      0.0325828606      0.9783380459     -0.8438838634     -0.4492748987
F       4.4573738731     -0.0516340301     -5.7093067887      0.8287286918     -0.6349224969     -0.3326281971     -0.4469371673
