55
Properties=species:S:1:pos:R:3:forces:R:3:charge:R:1 energy=-304.18248653336934 homo_lumo=1.3185012116702897 dipole="0.3817949908858411 3.4205558997416405 2.969686650929197" free_energy=-304.18248653336934
N      -1.0865952272      0.8235573464     -0.1814596394      0.0861595157      0.4029512391     -0.1346072647     -0.5182484573
C      -1.5737469920      1.8658662974      0.7807034582     -0.7878896250      0.9749799798      1.2615606733     -0.0292838676
C      -2.0621759290      0.7246779819     -1.3161597231     -1.4079100610     -0.2770494679     -1.2922553937     -0.0492542187
C       0.2128826967      1.2900014660     -0.7768126914      1.6850140804      0.3580398635     -0.2771900993     -0.0443760008
C      -0.9276474477     -0.4887289291      0.5387194731      0.4541546190     -1.6861847379      0.4038520829     -0.0641427068
C      -3.0195189680      1.6427916617      1.2709560074     -0.0488647244     -0.0925559700     -0.0759927353     -0.1673949056
C      -3.5074114153      0.4361864784     -0.8787764616      0.0543423639      0.0223618898      0.1069723253     -0.1815930508
C      -3.9911663325      1.4986942561      0.1028734962     -0.2843220954     -0.0721241156      0.0921588970     -0.1661470166
C       1.4147884670      1.3742415949      0.1978117379     -0.3902320999     -0.1237290399     -0.1437112845     -0.2195726514
C      -0.3317830945     -1.6473243315     -0.2979936104     -0.2174080291      0.4754126296     -0.0182017194     -0.2560062502
C       2.6619003163      1.8899841811     -0.5335560449     -0.1511583130     -0.0782160397      0.1283228283     -0.1698168030
C      -0.2091692360     -2.9185879887      0.5527226474      0.0124769862      0.1380029620     -0.1279680897     -0.1633275499
C       3.8794283941      1.9327509347      0.3974845351      0.0232415502      0.0402297235     -0.1517845452     -0.2101717624
C       0.3788014542     -4.0785462779     -0.2596137857     -0.1372591742     -0.1540731261     -0.0086464437     -0.2235552617
C       5.1156397612      2.4466217504     -0.3359197938      0.2020926796      0.0279751907      0.0935734478     -0.0876977825
C       0.4923734350     -5.3427535123      0.5869925200      0.1198883542     -0.1028742709      0.0047559078     -0.0807279162
H      -1.5333079521      2.8773277493      0.3142391807      0.1712154964     -0.5372794668     -0.2186227091      0.1368855252
H      -0.9290661816      1.9056250028      1.6848232181      0.1077583266     -0.2471595463     -0.5504940298      0.1504910812
H      -1.7531926103     -0.0417287340     -2.0564246870      0.3029426610      0.0518901214      0.4821138640      0.2067166560
H      -2.0836005337      1.6840540637     -1.8850584246      0.3763252097     -0.1430485222      0.5170763404      0.1409094238
H       0.0799089192      2.3011920279     -1.2273862824     -0.4024057082     -0.3685522912      0.3039903428      0.1446090905
H       0.5037074849      0.6366870700     -1.6296872645     -0.4369315957     -0.0626383980      0.3980556573      0.1772064131
H      -1.8992754808     -0.8434067038      0.9335149204      0.0259151346      0.4617601474     -0.3362626748      0.1811702976
H      -0.2990177103     -0.3527218817      1.4459856706     -0.1015652845      0.4328636601     -0.3861363666      0.1371132542
H      -3.3286410590      2.5167620774      1.8843907801      0.3330310754     -0.2077205150     -0.0662481286      0.1164501935
H      -3.0818825721      0.7535841477      1.9319409049      0.0785900810      0.1734057006     -0.1334937280      0.1085049092
H      -3.6001811410     -0.5768428223     -0.4367293632      0.0620010642      0.1596961728     -0.1731401279      0.1309789926
H      -4.1635140860      0.4539847254     -1.7757829306      0.3955446200     -0.1585792413      0.1159064244      0.1338513381
H      -4.0863281803      2.4745559258     -0.4224171339     -0.0146494081     -0.1842897014      0.1043952234      0.0900100209
H      -4.9948206035      1.2171738052      0.4878303974      0.2123584000      0.2015325088     -0.1357943231      0.1017046326
H       1.1906339087      2.0657673948      1.0351763912      0.0272631301     -0.1993581617     -0.0881281422      0.1084989661
H       1.6516286733      0.3742500832      0.6143721839     -0.1367621459      0.2076990357     -0.0287158300      0.1350111087
H      -0.9863061367     -1.8747989586     -1.1612629067      0.1840537470     -0.0961056058     -0.0625269989      0.2215005688
H       0.6777671908     -1.3859125690     -0.6738870571     -0.2377132923     -0.0214829923     -0.0325542250      0.1172628881
H       2.4620025406      2.9124891980     -0.9229894369      0.0966652749     -0.2390329430     -0.0337238116      0.0910668845
H       2.8860145663      1.2219505217     -1.3943027841     -0.0532450327      0.2280559073      0.1180063727      0.1113639470
H       0.4488839317     -2.7135686030      1.4256013516     -0.1757361989     -0.0645196394     -0.0021399076      0.0620365708
H      -1.2156201755     -3.2080820714      0.9278588792      0.2209319213      0.0339097105     -0.0045253316      0.0823442212
H       4.0913303891      0.9124355309      0.7848653844     -0.1544082473      0.2369288393      0.0178642545      0.0964587287
H       3.6692464199      2.6011458042      1.2604601960     -0.0206096540     -0.2417713027     -0.0963146170      0.0875679279
H       1.3889607136     -3.8023209837     -0.6325189613     -0.2914723168      0.0226123578     -0.0452813575      0.0796654367
H      -0.2720763473     -4.2934584102     -1.1334462362      0.1900893880      0.3272423735     -0.0018310017      0.1775511125
H       5.9808164352      2.4653334461      0.3597639705     -0.1468183458      0.0495329619     -0.3052767039      0.0525053051
H       5.3628345804      1.7812478440     -1.1904863660     -0.0099850700      0.2634670820      0.2013974399      0.0503807133
H       4.9413011862      3.4769493201     -0.7126743496      0.1365399031     -0.2968838639      0.0371652731      0.0426912995
H       0.9192720990     -6.1639391052     -0.0264784218     -0.1405662090      0.1497631082      0.2705339861      0.0503382564
H       1.1590015223     -5.1664028471      1.4577237909     -0.1856771333     -0.1779810555     -0.1103370212      0.0159982998
H      -0.5098628841     -5.6559278056      0.9496465249      0.3032385603      0.0073748934     -0.0356999431      0.0346922565
C      -1.5940506266     -3.2227604508     -3.8987056394      0.9191693388     -0.3239634979      1.3385239875      0.8209608917
O      -2.2372453939     -3.5458194562     -2.9126885408     -3.8793149073     -0.5918141721      2.2576351189     -0.8236508538
O      -0.3772078541     -3.1552047859     -3.8301609438      3.7071646645      1.0162818383     -1.9058859632     -0.8038678296
C      -2.2887550509     -2.9129108102     -5.1908130234     -0.0945458861     -0.4218467092      0.1381064921      1.2587138709
F      -1.9825229783     -1.6224783415     -5.5824561686     -0.4692188678     -0.2488498512     -0.4470573244     -0.4725050551
F      -3.6605821629     -3.0258722156     -5.0434284687      0.4606702362      0.3128567011     -0.8639453002     -0.4622070595
F      -1.8658443531     -3.7977810930     -6.1657848740     -0.5721689566      0.6428576470     -0.0974737969     -0.4596640832
