55
Properties=species:S:1:pos:R:3:forces:R:3:charge:R:1 energy=-305.7682512085686 homo_lumo=3.6937047186625684 dipole="-2.312932979777567 0.1511855600359939 -1.8324283003637254" free_energy=-305.7682512085686
N      -0.4446786937      0.5900129561     -0.0367350999      0.0011662963      0.0016235272      0.0021415221     -0.4866898533
C      -0.7499265847      1.5395293733      1.1096135766     -0.0003745518     -0.0058817717      0.0028288826     -0.0531009718
C      -1.6700057733      0.4818671681     -0.9188709300      0.0038611906     -0.0095678967     -0.0021571255     -0.0057484630
C       0.6760391740      1.1882891746     -0.8800152754      0.0008436918     -0.0020718486     -0.0049957724     -0.0124010967
C      -0.0457547393     -0.7636443948      0.5335976753      0.0015747934     -0.0005430553      0.0024920585     -0.1084807778
C      -1.9819476957      1.1397451700      1.9023158144      0.0000897158      0.0034033314     -0.0051179169     -0.1722640276
C      -2.9088538386      0.0380547209     -0.1580640838     -0.0011996239      0.0078725157     -0.0066725236     -0.1719132475
C      -3.2079972348      0.9854009074      1.0046321262     -0.0009803003     -0.0056903780      0.0024733929     -0.1610854184
C       2.0133746442      1.3159318963     -0.1806421062      0.0046729021     -0.0028096352      0.0138592295     -0.2534777374
C       0.3693048706     -1.8064454865     -0.4864981690     -0.0030119290     -0.0024985463     -0.0048149779     -0.2127979353
C       3.0342942440      2.0349206947     -1.0662489620      0.0033569336     -0.0045971127     -0.0033311395     -0.1570372727
C       0.8523203130     -3.0531584028      0.2633454055      0.0015496115     -0.0025514977      0.0041790149     -0.1723219757
C       4.4073026744      2.0646076839     -0.3926958070      0.0085464248     -0.0056289098      0.0067363123     -0.2144750134
C       1.3490284063     -4.1476721118     -0.6762974751      0.0088806206     -0.0042154410     -0.0129721963     -0.2052402644
C       5.4277345446      2.9046930250     -1.1527941842     -0.0050599299      0.0046864633     -0.0159284595     -0.0623727341
C       1.8881395201     -5.3573356359      0.0829889407     -0.0019722440     -0.0020373949      0.0139217165     -0.0671472832
H      -0.8904090215      2.5296704714      0.6447717786      0.0015888159      0.0041881733      0.0024424229      0.1054530041
H       0.1353314222      1.5699180212      1.7527646037     -0.0015050603      0.0096857555     -0.0041982476      0.2370448969
H      -1.4162748663     -0.2083737124     -1.7354246837      0.0016338180      0.0116263061      0.0031681843      0.1386992819
H      -1.8240164680      1.4854441033     -1.3480290058      0.0062377963      0.0031286170     -0.0041134320      0.1233578863
H       0.2984875172      2.1732578756     -1.2029557514      0.0046815405      0.0001411313      0.0060976433      0.1155198814
H       0.7555682043      0.5520044347     -1.7745919069     -0.0003671297      0.0045089051      0.0002187728      0.1268451610
H      -0.9065978438     -1.1223077123      1.1094589124      0.0000033300     -0.0001395508      0.0013303907      0.1535126191
H       0.7856607034     -0.5920790083      1.2480982450      0.0040526335     -0.0055648037      0.0002000766      0.2753302323
H      -2.1413634637      1.9289653044      2.6546543324     -0.0035104112     -0.0085688611      0.0132803053      0.1156664522
H      -1.7813967891      0.2183928365      2.4718551412     -0.0046991465     -0.0014221266      0.0009703805      0.1203585790
H      -2.7849796451     -0.9960022111      0.2036753322     -0.0056346465      0.0009119604     -0.0064572426      0.1093378246
H      -3.7470394266      0.0193890818     -0.8745656466      0.0002441922     -0.0014156430     -0.0014934886      0.1035075906
H      -3.4894976742      1.9743331477      0.5970218462     -0.0045250222     -0.0011050647      0.0060037760      0.0858424367
H      -4.0684993657      0.6192829472      1.5863761846     -0.0010895555      0.0081247380     -0.0053607217      0.0885964417
H       1.9180516669      1.8888527950      0.7548768247      0.0008970349      0.0063108572     -0.0004761187      0.1506130082
H       2.4050356045      0.3289960690      0.1139133868      0.0038069939     -0.0004501749      0.0056012336      0.1817402656
H      -0.4584621046     -2.0801220731     -1.1665512222      0.0087863009      0.0024400642     -0.0066484379      0.0754180095
H       1.2030052989     -1.4365829062     -1.1061653014      0.0132202727     -0.0008894643      0.0038587498      0.1152291219
H       2.6935943196      3.0696374079     -1.2663404612      0.0070708410     -0.0061886368      0.0014002793      0.0641541510
H       3.1101138532      1.5334155267     -2.0507511692      0.0068322083     -0.0075074787      0.0059463782      0.0657329038
H       1.6574484799     -2.7495137970      0.9542151571      0.0027969300     -0.0037553599     -0.0038688964      0.1622079047
H       0.0302484846     -3.4492301897      0.8887838515     -0.0009893514     -0.0040594478     -0.0030014480      0.0732121284
H       4.7698161516      1.0288390309     -0.2774591847      0.0057213206     -0.0018280019      0.0003309616      0.1050593734
H       4.2958248496      2.4336657128      0.6405938783     -0.0009223549      0.0085815582     -0.0019484560      0.1337594088
H       2.1460010262     -3.7323950500     -1.3203279904      0.0053206170     -0.0050271947      0.0011973891      0.0845465412
H       0.5310486510     -4.4607138569     -1.3517583804     -0.0000010505     -0.0045213897     -0.0046817257      0.0698430726
H       6.4038233019      2.8912677357     -0.6444568557      0.0003494042     -0.0049630369     -0.0050755641      0.0428046314
H       5.5767129179      2.5313964942     -2.1794339804      0.0007697679     -0.0091402487     -0.0049480246      0.0204701133
H       5.1024980197      3.9559782345     -1.2228176648      0.0018111467     -0.0016840485     -0.0103373476      0.0228208179
H       2.2509413381     -6.1379932039     -0.6024682403      0.0019689390     -0.0023352711     -0.0112695144      0.0340781657
H       2.7238089021     -5.0614666243      0.7364095592      0.0020139457     -0.0040997460      0.0004514021      0.0484404217
H       1.1077321514     -5.8028758651      0.7209566091      0.0017914845      0.0029806389     -0.0063904484      0.0325525279
C       2.8222674031      0.2055859678      2.8038794936     -0.0194492916      0.0209079202      0.0137448629      0.8964504458
O       2.4225699189     -0.7997560039      2.1539136703     -0.0092587942     -0.0108321315     -0.0121261416     -0.8316784221
O       3.8509501764      0.8953373564      2.7215431115     -0.0075680771      0.0174299886     -0.0124181434     -0.7589762211
C       1.8094461187      0.7322594419      3.8916222301     -0.0058630500      0.0030362986      0.0018552397      1.2427446667
F       2.3340515639      0.7510094113      5.1458901973     -0.0270151974      0.0049880858      0.0134550094     -0.4512612052
F       0.6273129448      0.0223510306      3.9664836827     -0.0063394057     -0.0013223428      0.0228136416     -0.4806108215
F       1.4204745235      2.0364327353      3.6017276823     -0.0048053905      0.0083366758      0.0078042818     -0.4818692248
