47
Properties=species:S:1:pos:R:3:forces:R:3:charge:R:1 energy=-265.99979003619495 homo_lumo=0.004200147603670461 dipole="4.116857787550882 -1.6139245039334078 -2.216597063235137" free_energy=-265.99979003619495
N       1.3610176036      2.2756548736      0.0295696326      0.4378776586     -0.0167151804     -0.5689428100     -0.5082544772
N      -0.8443524419      2.4361987563     -0.2097270561     -0.2750660960      0.1339304117     -0.0125972532     -0.5139030462
C       2.7378832583      1.8593635039     -0.2286252703      0.5589000143     -0.1502674612      0.1035397892     -0.0146683045
C      -2.1832321425      2.2443952070     -0.7654432440     -0.5313386314     -0.1463179844     -0.6175657809     -0.0368114923
C       3.0110361916      0.4687533107      0.3629726730     -0.2372906028     -0.0576985131     -0.1942244873     -0.1885396284
C      -2.4313835858      0.7664611418     -1.1037241252      0.0326878306     -0.0136138773      0.3024692482     -0.1981229622
C       2.0951187193     -0.6051821189     -0.2449820396      0.2809088635      0.0504391215      0.3663113259     -0.2211111352
C      -2.3774347881     -0.1253915041      0.1455167498     -0.0517333038     -0.0455660589     -0.4191626092     -0.2115417207
C       0.3257459480      2.1799276368     -0.8267716181      0.0715636806     -0.7468915110     -2.5703863655      0.4753451166
C       0.8305379156      2.6143635371      1.2219554900     -1.0143630335      0.3822909020      1.6797263734      0.1916562361
C      -0.5365776462      2.7204936430      1.0720263747      0.7114812215      0.1158515092      1.7216491946      0.2168046899
C       2.4606893241     -2.0024978499      0.2646024571     -0.1774991359     -0.0389443091     -0.1506431419     -0.2062316218
C      -2.5745855437     -1.6003295859     -0.2195088365      0.0525065004      0.0216923671      0.2280963434     -0.2156165097
C       1.5053399432     -3.0551205949     -0.2913777786      0.0034585192     -0.2240907862      0.0770256563     -0.1203421569
C      -2.5068306233     -2.4864841105      1.0213723992     -0.0600507633     -0.2608894879     -0.0396192785     -0.1053736682
H       3.4355130511      2.5985716353      0.2206509378     -0.3450883075     -0.0273444238     -0.1419672907      0.1200921186
H       2.9304617010      1.8397308034     -1.3239953759     -0.3058131374      0.1520365158      0.3254108073      0.1112890246
H      -2.2852634767      2.8558593863     -1.6875844478      0.1301929866      0.0043176361      0.2912744927      0.1120418340
H      -2.9526936372      2.5930692967     -0.0415874195      0.5337323654      0.0151324302     -0.0677863808      0.1648592166
H       2.8671336894      0.5016454966      1.4652128378      0.1127208132     -0.0255432645     -0.2408746614      0.1105110381
H       4.0725644158      0.2055138100      0.1627309782     -0.2011521134      0.1337857078      0.0988518318      0.1039539027
H      -3.4333864723      0.6740889042     -1.5764306560      0.2721112023      0.1074842517      0.0434091255      0.1124677099
H      -1.6744735193      0.4243994001     -1.8432654828     -0.2061924772      0.0467424409      0.0985391543      0.0988324147
H       2.1823322440     -0.5836283042     -1.3538566719     -0.1064551794      0.0095593635      0.1896689323      0.0795245006
H       1.0402329133     -0.3901785169      0.0308720015      0.1780360840     -0.0332195495     -0.1713193123      0.1668968085
H      -3.1715428596      0.1912974163      0.8571306815      0.2415479320     -0.0327440892     -0.0706640139      0.1158692946
H      -1.3915888863     -0.0117651569      0.6457589907     -0.2137765904      0.0191933403     -0.0039872551      0.1342716246
H       0.4140768033      1.8480031094     -1.8542836560      0.0124643898      0.0911532092      0.0476639659      0.0723850575
H       1.3871003182      2.7137909634      2.1449932671      0.2043803037      0.0780864741     -0.0787413800      0.0389693257
H      -1.2556280422      2.9154201161      1.8565286485     -0.2717817394      0.1440186041     -0.0990329779      0.0999275720
H       2.4101664101     -2.0226834151      1.3752679516      0.1501476076      0.0623363755     -0.2320831593      0.0922757773
H       3.4975896267     -2.2545529359     -0.0474941941     -0.1640897866      0.1181914674      0.1997185665      0.0863226949
H      -3.5635674956     -1.7378588469     -0.7085473828      0.2746336968      0.0533878976     -0.0225392181      0.0916944975
H      -1.7813767412     -1.9181450876     -0.9314118994     -0.2372498979      0.1188949515      0.0166624837      0.0980510348
H       1.5396905348     -3.0609142136     -1.4017742379     -0.0983783206     -0.0638401508      0.2903292669      0.0326311248
H       0.4667506737     -2.8458251474      0.0404391472      0.2383749005     -0.1236999330     -0.1629812936      0.1031029506
H       1.7995299434     -4.0591616358      0.0799525702     -0.2142190764      0.1936589838     -0.1916498282      0.0456298735
H      -3.3272236238     -2.2275714093      1.7241519016      0.2966060117     -0.1231217882     -0.1064075806      0.0625593610
H      -1.5309126083     -2.3587538055      1.5368396982     -0.2949645450     -0.0727954508     -0.0458553678      0.0426744779
H      -2.6139616053     -3.5511114032      0.7248005816      0.0343347066      0.2365421265      0.2475299242      0.0478027000
C      -3.9410818315      4.5136843295      3.3913592833      1.1663693277      0.5319332580      0.0656211509     -0.2340138392
C      -5.3967446533      4.1707329524      3.3653839352      0.7067282158      0.2635593362     -0.0118891132      0.8892419830
O      -5.7487608279      3.0035774617      3.4184321200      0.0485316390     -4.1579138240      0.1536797952     -0.7337019501
O      -6.2363147725      5.0535632052      3.2917159229     -1.7737673167      3.5345112716     -0.2500587037     -0.7089693625
H      -3.4922651911      4.1605988850      4.3435240638     -0.0070629243      0.0157458299     -0.2963543373      0.0314106582
H      -3.4282235622      4.0210102138      2.5392604509     -0.0023210476      0.0325829156      0.2139549329      0.0436431516
H      -3.7952905383      5.6122755556      3.3116296549      0.0393575551     -0.3058410556      0.0062012394      0.0244641050
