47
Properties=species:S:1:pos:R:3:forces:R:3:charge:R:1 energy=-268.64685062540764 homo_lumo=2.611115394212484 dipole="-0.24736297757485484 -0.36637531508712035 1.6566779316305438" free_energy=-268.64685062540764
N       1.6134366948      2.2704956170      1.3531456887     -0.0029859503      0.0038955134      0.0002730293     -0.4973885923
N      -0.3552004968      2.7309462050      0.6069666191     -0.0000936798      0.0065778447     -0.0040246207     -0.5111148322
C       3.0158941651      1.8439467937      1.3243601099      0.0051807277     -0.0007046719     -0.0048534433      0.0050758641
C      -1.4634910123      2.8950157441     -0.3476390697     -0.0043144418      0.0011433539     -0.0002418204      0.0025921205
C       3.1283746998      0.3251989544      1.1875926659     -0.0058498071      0.0043274944     -0.0043915871     -0.1756310663
C      -1.8191974365      1.5592617097     -0.9929430408      0.0014485689     -0.0016510272      0.0093634110     -0.1972902413
C       2.4678324224     -0.2125644952     -0.0807461162      0.0016500890     -0.0087685591      0.0129788917     -0.2394241556
C      -2.1430644193      0.4371626011     -0.0130083190      0.0005617938      0.0013922720     -0.0141264610     -0.2038274603
C       0.9230134398      2.5537170982      0.2334703637      0.0023672710      0.0103371801      0.0030858383      0.4481311017
C       0.7682103264      2.2518854327      2.4461103529     -0.0009118972     -0.0019948710     -0.0049448322      0.1835310289
C      -0.4781519203      2.5467085809      1.9719218331      0.0053897989     -0.0004414140     -0.0060930790      0.1840048574
C       2.6736473624     -1.7124239460     -0.2753047509     -0.0078384509      0.0061086850     -0.0033912283     -0.1990185682
C      -2.4405767077     -0.8856163828     -0.7171641813      0.0020206472      0.0015948740      0.0095117451     -0.2178399939
C       1.9729411520     -2.2219131983     -1.5334092605      0.0016652944     -0.0077632157      0.0070054228     -0.0923263139
C      -2.7308622205     -2.0194957265      0.2622158636      0.0023147962     -0.0030475920     -0.0091965601     -0.0706162416
H       3.4983763040      2.2119666731      2.2423431354      0.0049676172     -0.0023515923      0.0015467190      0.0949985567
H       3.4730803728      2.3445625701      0.4572707521      0.0002991527     -0.0036358113     -0.0024582288      0.1394364434
H      -1.1135283534      3.5828733166     -1.1317170413      0.0044856621     -0.0024555019     -0.0032040272      0.1546444090
H      -2.3036494443      3.3315625008      0.2139852251     -0.0023454733     -0.0000577688     -0.0040876666      0.0761481287
H       2.6940164477     -0.1594306777      2.0819013440      0.0065298865     -0.0003959219      0.0049689403      0.0820144820
H       4.2058332598      0.0799288352      1.1840241953      0.0011959131     -0.0022672313     -0.0029301512      0.0924523513
H      -2.6756471971      1.7419433436     -1.6660520445     -0.0038646821     -0.0030470518     -0.0013138437      0.0879263846
H      -0.9728316348      1.2887353135     -1.6474123274     -0.0014844854     -0.0018461039     -0.0041407379      0.1657539008
H       2.8405782085      0.3437054283     -0.9595672400     -0.0140472007      0.0064928337     -0.0025267002      0.1479105615
H       1.3815011721     -0.0126974534     -0.0449935513     -0.0097302503     -0.0065040016      0.0172538119      0.1571265991
H      -3.0084517123      0.7177465457      0.6191796527      0.0013412601      0.0038200291      0.0068953153      0.0703582833
H      -1.2918498085      0.2817579768      0.6757105408      0.0068616024      0.0027224381      0.0001208698      0.1316130163
H       1.4152828217      2.5653348417     -0.8336699184     -0.0019822558      0.0046610371      0.0098400414      0.2556785511
H       1.1202485319      2.0503219123      3.4506601743     -0.0089808757     -0.0005907357     -0.0065085142      0.0307325796
H      -1.4275991164      2.6484819625      2.4830279745      0.0004909948     -0.0035953734     -0.0009525408      0.0332399579
H       2.2960153483     -2.2567943774      0.6102572024      0.0035751830     -0.0046261115      0.0020353817      0.0715471737
H       3.7557250093     -1.9294516956     -0.3375887555      0.0037193672     -0.0020565343     -0.0008048066      0.0749767305
H      -3.2981622839     -0.7506994409     -1.4009686743      0.0009163211     -0.0010856569     -0.0045692533      0.0779445111
H      -1.5776863170     -1.1514060750     -1.3535829826      0.0054268389     -0.0023436836     -0.0005286321      0.1254985768
H       2.3531252943     -1.7033689342     -2.4277981885     -0.0070372516      0.0021100318      0.0018899398      0.0449549389
H       0.8886371353     -2.0330857171     -1.4786193694     -0.0061825917     -0.0032354374      0.0048519472      0.0737014853
H       2.1225663374     -3.3033137452     -1.6733366426      0.0010429845      0.0009499854      0.0018730416      0.0251648038
H      -3.6034093322     -1.7820510801      0.8926680766      0.0002407437     -0.0018676868      0.0002043471      0.0299843374
H      -1.8712109840     -2.1880925761      0.9313542525      0.0041335074     -0.0036511209      0.0021748469      0.0337264048
H      -2.9409814885     -2.9646235482     -0.2616687707      0.0037945324      0.0026450166     -0.0018268095      0.0369790564
C       2.0298822864      2.6074781857     -4.4595673603     -0.0064086321      0.0008935690     -0.0049156028     -0.1064658105
C       1.4558074847      2.6833955429     -3.0454441421      0.0032044603      0.0052979655      0.0062796325      0.9154987145
O       2.2891637721      2.4319266514     -2.0947036859     -0.0077585250      0.0034599252     -0.0138174534     -0.8363022575
O       0.2420329106      2.9714415795     -2.8970993980      0.0065082912      0.0153939549     -0.0037654792     -0.8206490801
H       2.9109970829      3.2616100931     -4.5415472379      0.0045815198     -0.0046534354      0.0030992802      0.0409707137
H       2.3701833619      1.5812119856     -4.6677662763      0.0023668996     -0.0040274955      0.0101566889      0.0390199077
H       1.2759980009      2.9004187492     -5.2016775963      0.0035347258     -0.0051583969     -0.0057950623      0.0345580815
