36
Properties=species:S:1:pos:R:3:forces:R:3:charge:R:1 energy=-194.27850283193524 homo_lumo=3.3803056602609627 dipole="-2.151043771927822 4.555158109375189 0.9944579887214513" free_energy=-194.27850283193524
N      -0.2940937118      0.3380642603     -0.0158304363      0.3009403365      0.4556197360     -0.1664906732     -0.5465648903
C      -1.3614906491      0.5423539082     -1.0227295898     -1.2914489466      0.3559519842     -1.8183301065      0.0000844351
C      -0.7448120254     -0.8519883345      0.7390570208     -0.1445014677     -2.0263593293      1.0814779195     -0.0434638440
C      -2.6718078862      0.0645491256     -0.4061417341     -0.6740382734      0.5080912129     -0.1081825940     -0.1517085577
C      -2.2687907355     -0.8344285641      0.7515189745     -0.3514858546     -0.1337472647      0.7290540916     -0.1389887604
C       1.0132051217      0.1099192294     -0.7015543995      1.7792480604     -0.3136693712     -0.2934048885     -0.0428588113
C      -0.2275693389      1.5258622130      0.8768157372      0.0266206615      1.0595618080      0.8683933432      0.0241759427
C       2.1940679575     -0.1567658800      0.2584337144     -0.2361948145      0.1485020988      0.1603713508     -0.2557735747
C       3.4502637346     -0.5441254910     -0.5165554174      0.0283034648     -0.0583302391     -0.2767542601     -0.0996146325
H      -1.1784476085     -0.0713609585     -1.9358066129      0.4583832210      0.1717572555      0.5473488911      0.1613325173
H      -1.4366441661      1.6037255935     -1.3536848906      0.4118629328     -0.3923626860      0.2426424433      0.1262845251
H      -0.3421019211     -0.8774333645      1.7768312175      0.1188425608      0.1933294799     -0.5976741311      0.1307827683
H      -0.4173222405     -1.7879154925      0.2317018067      0.2113563733      0.4549685289     -0.0737014999      0.2279151790
H      -3.2832122870     -0.4906180207     -1.1509897590      0.2129302534      0.3977077810      0.1972302253      0.1194308480
H      -3.2571534362      0.9331504673     -0.0320685797      0.0272731130     -0.3467980753     -0.2493812317      0.0923907426
H      -2.6353800898     -0.4075710324      1.7110993994     -0.0019163221     -0.3065854895     -0.2909946281      0.0910187000
H      -2.6806492052     -1.8600456109      0.6284771746      0.2879983159      0.3421852942      0.2338363389      0.1334881636
H       1.2655446322      0.9931789140     -1.3321887593     -0.3890615788     -0.1349619358      0.2745166456      0.1395660819
H       0.9315606552     -0.7598587615     -1.3941324133     -0.3524052291      0.2239178130      0.4014579881      0.1739936568
H       0.1565284921      2.4140861677      0.3279549486     -0.1335793832     -0.5030711770      0.0251104336      0.1045502392
H      -1.2302318928      1.7853337768      1.2833344626      0.2537126315     -0.3409344550     -0.3528200442      0.1283576135
H       0.4316573612      1.3426521827      1.7518422263     -0.1593677710     -0.1607933380     -0.5053371013      0.1212484841
H       2.4263657113      0.7554768378      0.8468137316     -0.1893672619     -0.1845603574     -0.0111303796      0.0999379350
H       1.9488895262     -0.9813525997      0.9598929544     -0.0361392602      0.1865514239     -0.1683904879      0.1453568003
H       4.2798902353     -0.7440535902      0.1941332168     -0.2645178893     -0.0055111937     -0.3413315972      0.0769648448
H       3.2662743440     -1.4610260162     -1.1146552683      0.2289212547      0.1850829048      0.2292010652      0.1216277099
H       3.7536766608      0.2802035183     -1.1963889396      0.0059683958     -0.2405363668      0.1488872235      0.0295900468
N       2.0752187806     -4.2463548358     -0.8307369066     -0.2314438145      0.2148761006      0.0571916132     -0.8858570391
S       3.5415286683     -4.8354169868     -1.2545568519      2.2790584799     -1.5953261599      4.2052067954      1.8504268124
S       0.7278429867     -5.1636273163     -0.9697025864     -1.4948121251      1.0543922087     -4.1606851190      1.8573171619
F       3.5649312711     -5.1381150541     -2.9008644887     -0.0865419225      0.3769024455      0.6572291111     -0.4384591113
F       0.8443204163     -6.4832576737      0.0537996278     -0.1235476045      0.8060676849     -0.3078301594     -0.4342390752
O       4.6078337235     -3.8343143072     -0.9122772116     -2.0883700952     -0.4339885554     -1.7126175081     -0.7299199891
O       3.8045853736     -6.1211158825     -0.5220734806     -0.7272121694      1.2576437415     -2.1025104179     -0.7106115096
O       0.5925788679     -5.6573102131     -2.3827766787      0.5068379194     -0.3600883639      2.3952621003     -0.7104780241
O      -0.4795172624     -4.3488586397     -0.6032751701      1.8376938089     -0.8554851441      1.0831492483     -0.7673033888
