36
Properties=species:S:1:pos:R:3:forces:R:3:charge:R:1 energy=-196.34133976785552 homo_lumo=5.181585113234304 dipole="-1.7062608502541283 1.8961893861509904 1.8197273607343112" free_energy=-196.34133976785552
N       0.5889511206     -0.2849384943     -0.4329716674      0.0104594355     -0.0067466741     -0.0084430229     -0.5196391135
C       0.1528611420     -0.3203925409     -1.8900085899      0.0056403338     -0.0011511016     -0.0078512201     -0.0153515798
C       0.3245178695     -1.7122664357      0.0152500070     -0.0009108491     -0.0015146185     -0.0059932261     -0.0322231839
C      -1.0959227419     -1.1997770887     -1.9150154385     -0.0047878794     -0.0078117675      0.0022968637     -0.1689362661
C      -0.9986651487     -2.0903883190     -0.6472331129      0.0076214610      0.0086032729     -0.0072743636     -0.1552646392
C       2.0511905545      0.0929083820     -0.3362146107     -0.0052533385     -0.0064170694     -0.0020823200     -0.0595631904
C      -0.2686291536      0.6703263203      0.3293550891      0.0023534887      0.0023204674     -0.0052461170      0.0681916561
C       2.6524561780     -0.0157999662      1.0526810397      0.0026817511      0.0002239561      0.0022418297     -0.2477664187
C       4.1267777076      0.3901314694      0.9873139137      0.0023082461      0.0092758048     -0.0193979387     -0.0795721069
H       0.9780487307     -0.7835498300     -2.4488188914      0.0045300580      0.0036751622     -0.0052796268      0.2181561821
H       0.0114757038      0.7126251043     -2.2365905071     -0.0012052183     -0.0078626707     -0.0188394742      0.0952798444
H       0.3167613379     -1.7481599786      1.1119112343      0.0074581974     -0.0067496207     -0.0010173644      0.1015576633
H       1.1581760656     -2.3141127531     -0.3769413203      0.0052932411      0.0016242592      0.0013173330      0.2259070855
H      -1.0869732268     -1.8012583342     -2.8342690462     -0.0009566484     -0.0099507504     -0.0056733198      0.1447259893
H      -2.0175218749     -0.5991366450     -1.9082116471      0.0002965360     -0.0074690909     -0.0135028301      0.0757888495
H      -1.8496829033     -1.9121368147      0.0272600897     -0.0054940957     -0.0096583420     -0.0008372360      0.0733712646
H      -0.9777580153     -3.1589298191     -0.9001848804      0.0021350256     -0.0098831736     -0.0032187835      0.1493917772
H       2.1283325322      1.1187248235     -0.7323999459      0.0062997944      0.0007916751     -0.0014522680      0.1157192987
H       2.5784743235     -0.5807609889     -1.0225908748     -0.0008241891     -0.0030629615      0.0049511515      0.2508934701
H      -0.0680874927      1.6873033555     -0.0313598376     -0.0019511547     -0.0028562737     -0.0030025435      0.0807078384
H      -1.3220909072      0.4166673096      0.1646136682      0.0003889824     -0.0025447944     -0.0020766313      0.1167867350
H      -0.0327459263      0.5967027443      1.3967835108      0.0017372973     -0.0051969755     -0.0041311460      0.0949459638
H       2.1209614970      0.6252186732      1.7760509777     -0.0025676148      0.0047920104      0.0026758370      0.0887038954
H       2.5776635141     -1.0583748206      1.4030526649      0.0050512189      0.0064028183      0.0080841176      0.1171215242
H       4.6040967546      0.2729408011      1.9699998477     -0.0054639204     -0.0014834213      0.0155579604      0.0432445364
H       4.6644058635     -0.2338955275      0.2580592886     -0.0048683544      0.0061633692      0.0139534933      0.1092759418
H       4.2307887959      1.4430203106      0.6812752708      0.0037593625     -0.0019577269      0.0067279906      0.0320393376
N       2.8446971490     -2.9634053121     -2.0345135649     -0.0007917660     -0.0009455477      0.0009678131     -0.9184982126
S       4.0115567989     -2.1810341374     -2.8235982304      0.0007045005      0.0124099485     -0.0017700130      1.9231274873
S       1.7183335080     -3.8058372496     -2.8255404460     -0.0078733367      0.0020900000      0.0036959831      1.9404647989
F       3.1826765245     -0.8462480082     -3.4408952222     -0.0209452783     -0.0027523001      0.0092392422     -0.4862406925
F       2.5411368243     -4.9950145422     -3.5839488312     -0.0009943088     -0.0076963650      0.0267204176     -0.4471495032
O       4.8686793377     -1.5801055865     -1.8170886601     -0.0079266516      0.0189687870      0.0043971102     -0.7502767906
O       4.5493112378     -2.8282925475     -3.9983631255      0.0183951813      0.0177288013      0.0104628338     -0.6965079594
O       1.0463008216     -3.0779780160     -3.8920477548     -0.0010397145     -0.0057025806     -0.0012600037     -0.7351976300
O       0.9212160909     -4.4782208494     -1.8123033811     -0.0132597928      0.0143434935      0.0050594720     -0.7532138527
