36
Properties=species:S:1:pos:R:3:forces:R:3:charge:R:1 energy=-194.2052680302661 homo_lumo=3.3635799541247176 dipole="0.3898905485434106 4.727136370188451 -2.0220490404926608" free_energy=-194.2052680302661
N      -0.3432599262      0.2354531072     -0.0372438929      0.3274199693      0.4427473986     -0.2190651333     -0.5403927436
C      -1.3629873180      0.4475918362     -1.0903659579     -1.2363797132      0.4448348072     -1.8749941532     -0.0013098166
C      -0.7777457256     -1.0120559430      0.6302514880     -0.1408139508     -2.0779130041      1.1442896519     -0.0454460927
C      -2.6817899945     -0.1114897764     -0.5694638410     -0.6506244481      0.5074937924     -0.0811232927     -0.1494939838
C      -2.2986174954     -1.0755090727      0.5412473954     -0.3891133268     -0.2192694683      0.6356144355     -0.1466333224
C       1.0084913467      0.1008484660     -0.6585573438      1.7169399017     -0.1423096831     -0.1525684499     -0.0313307001
C      -0.3795103988      1.3759639867      0.9168447146     -0.0341824413      1.0166103174      0.9347066985      0.0214194876
C       2.1477605023     -0.1542690702      0.3540633637     -0.2716290988      0.0553738481      0.1847422611     -0.2623261853
C       3.4551457808     -0.4821582463     -0.3622448840      0.0633339751     -0.0106134843     -0.1998328703     -0.0926307595
H      -1.1060003060     -0.1126997779     -2.0197163985      0.4152746347      0.1678506446      0.5619545645      0.1485236625
H      -1.4656242501      1.5204368692     -1.3736050528      0.4191658417     -0.3885473208      0.2242840903      0.1249194655
H      -0.4444280151     -1.0622708794      1.6907867308      0.1501134312      0.0222008837     -0.5402281842      0.1812832051
H      -0.3661734081     -1.9073686563      0.1083032272      0.1921092243      0.6062964173      0.0978778320      0.1780573533
H      -3.2424756188     -0.6303064885     -1.3776710008      0.1687060353      0.3944555131      0.2305345957      0.1121595618
H      -3.3108017136      0.7108656056     -0.1630540928      0.0521607749     -0.3186208976     -0.2834876203      0.0943718701
H      -2.7511769342     -0.7503437124      1.5038578528      0.0736702147     -0.3540757106     -0.3261396215      0.1031495127
H      -2.6395283993     -2.1078941310      0.3095809472      0.2213845442      0.3133610768      0.3953574264      0.1543899441
H       1.2511465980      1.0238309206     -1.2338673846     -0.3926981766     -0.1760995781      0.2256887738      0.1383275210
H       1.0062919372     -0.7372035068     -1.3935256812     -0.4095035384      0.2259055341      0.3751977583      0.1495698061
H      -0.0148631464      2.3095182659      0.4337559074     -0.1177694542     -0.5056194544     -0.0147975889      0.1007833040
H      -1.4121716654      1.5644987419      1.2856140879      0.3022376290     -0.3281758681     -0.3525777994      0.1350185067
H       0.2461838767      1.1784989822      1.8132229525     -0.1543196630     -0.1679353749     -0.4996966861      0.1273283479
H       2.3178163011      0.7506826241      0.9743989812     -0.1602900312     -0.2282275789     -0.0505108246      0.1088390469
H       1.8951021092     -1.0028343621      1.0236914369     -0.0456169752      0.1918558798     -0.1038044234      0.1738875771
H       4.2613476289     -0.6344253782      0.3861324437     -0.2491485758      0.0200774961     -0.3088862934      0.0811419845
H       3.3458606318     -1.4132448717     -0.9582313926      0.1420342853      0.2680059569      0.1533062845      0.0656167500
H       3.7473005044      0.3526126497     -1.0345576813      0.0307733610     -0.2938508622      0.1319268702      0.0434804180
N      -0.3905513634     -5.5025507898      1.6276765812      0.2841088900      0.2567116668     -0.1987510358     -0.8467325315
S       0.4613639526     -4.5719757454      2.6690698454     -0.6163830980      3.6110957279     -1.8590959022      1.8588005315
S      -1.9629578861     -5.8618904326      1.9012561741      0.3104491231     -5.0196472172      2.6269630079      1.8357809702
F       0.8178362745     -5.4635561086      4.0403454491     -0.0980046363      0.3998518872     -0.7908759109     -0.4341647600
F      -2.8979238388     -4.5051230488      1.6083201169      0.2606452930     -0.0534738779     -0.2001300913     -0.4650311558
O       1.7392125030     -4.1262721694      2.0165383427     -1.2400162680     -1.8081142407      1.1348185907     -0.7406285735
O      -0.3506831204     -3.3725966226      3.0692295468      0.6854499870     -1.5699969987      0.5609884196     -0.7644299545
O      -2.1527785221     -6.2838276891      3.3314918501     -0.2045349599      1.8347195199     -1.7355619904     -0.7117769253
O      -2.3927445087     -6.9713760563      0.9839631280      0.5950512402      2.8830422522      0.1738766108     -0.7045213221
