33
Properties=species:S:1:pos:R:3:forces:R:3:charge:R:1 energy=-173.78059035878374 homo_lumo=6.744099203256417 dipole="-1.0643401766061693 0.23432259711225323 -0.09314662914269384" free_energy=-173.78059035878374
N      -1.2602999241      0.4384536580     -0.1162062028     -0.0001668168     -0.0002636401      0.0008135690     -0.5135516053
C      -1.6161854936     -0.8512570998     -0.8842884056     -0.0000145156      0.0016998308      0.0003695573      0.0016558214
C      -2.3677778589      0.5980639808      0.9382130343      0.0009213297      0.0002725165      0.0003318567      0.0087234438
C       0.0857869004      0.3085648098      0.5816326255     -0.0003642325      0.0004232852     -0.0005756317     -0.0266237293
C      -2.7518343163     -1.4909230746     -0.1004049517     -0.0002776377      0.0006753273      0.0005001816     -0.1535987513
C      -3.5052590049     -0.2796007465      0.4499458062     -0.0001228404      0.0001339327     -0.0009475356     -0.1582344105
C      -1.2703598317      1.6142474643     -1.0415256292     -0.0000525266      0.0009921418      0.0004920917      0.0308032377
C       1.2936919221      0.2970961601     -0.3378192062      0.0004963205      0.0000693259     -0.0004883571     -0.2088231173
C       2.5540497015     -0.0778048918      0.4500111104      0.0000880686     -0.0007001643     -0.0002821993     -0.1676693692
C       3.8117595205     -0.0568775194     -0.4183923810     -0.0003970997     -0.0005716689     -0.0001763233     -0.2137324641
C       5.0607805336     -0.4534914577      0.3626702080      0.0001035676     -0.0011888498     -0.0006194020     -0.0741607187
H      -0.7140510636     -1.4671923989     -0.9742905841     -0.0004357290      0.0004618647     -0.0009808084      0.1530976807
H      -1.9433361936     -0.5481109167     -1.8883499172     -0.0002281368      0.0011841290     -0.0003903820      0.1440087304
H      -2.5976558184      1.6658536053      1.0483630924      0.0003278410     -0.0001096392      0.0010556790      0.1337785029
H      -1.9603515554      0.2154802221      1.8852438708      0.0001520298     -0.0006283174      0.0003491123      0.1505416182
H       0.0232387618     -0.6252922423      1.1628413678     -0.0000148456     -0.0008963196     -0.0001168127      0.1479735808
H       0.1407273950      1.1490549490      1.2924438983      0.0002787382     -0.0008912410      0.0009131540      0.1467126960
H      -2.3610213231     -2.1083381022      0.7253820164     -0.0006062226      0.0000721804     -0.0011533721      0.1123525264
H      -3.3657340232     -2.1381064857     -0.7430182950     -0.0004558605      0.0012102753     -0.0011359952      0.1160960821
H      -4.0840709840      0.2190382875     -0.3452942916     -0.0000375583      0.0008154353      0.0008190964      0.1120996662
H      -4.1987422077     -0.5274137316      1.2660940888      0.0001642713      0.0000613929      0.0002645366      0.1187088811
H      -0.5973057866      1.4178925172     -1.8839716295      0.0001595625      0.0011912088      0.0010227043      0.1238693347
H      -2.2938193586      1.7585505769     -1.4094540246      0.0004900583      0.0010090701      0.0012265861      0.1219130438
H      -0.9375692037      2.5036609358     -0.4914098006      0.0004198374      0.0004724547      0.0015022249      0.1097417884
H       1.1573577286     -0.4274881092     -1.1594366809     -0.0003592229      0.0004688986     -0.0001622596      0.1158573588
H       1.4407287498      1.2883340123     -0.7978359557      0.0001935845     -0.0001135435      0.0008662102      0.1190586481
H       2.4268673682     -1.0852175434      0.8872854129     -0.0000766541     -0.0007652905     -0.0007762139      0.1011702135
H       2.6830096900      0.6199913861      1.2977569884      0.0002124526     -0.0012721421      0.0000593766      0.1046887068
H       3.9427375544      0.9541932811     -0.8440082836      0.0001470003     -0.0002476038      0.0001842846      0.0970573840
H       3.6732191882     -0.7424366365     -1.2740565887     -0.0001971606      0.0001216479     -0.0006753395      0.0950073711
H       5.2363614295      0.2340791942      1.2048436004      0.0000921274     -0.0015952590     -0.0004151914      0.0465067462
H       5.9527868795     -0.4319658492     -0.2796566066     -0.0002035549     -0.0009207674     -0.0007046042      0.0599980532
H       4.9649711010     -1.4715381989      0.7716922661     -0.0002361753     -0.0011704713     -0.0011697933      0.0449730495
