42
Properties=species:S:1:pos:R:3:forces:R:3:charge:R:1 energy=-226.61781782552592 homo_lumo=2.604437797804338 dipole="-3.6314147449582532 -2.6524855245811723 5.455016525167898" free_energy=-226.61781782552592
N      -0.8821965291     -0.1659433275      0.0545015218      0.0563775311     -0.1728732410      0.0327827243     -0.5256551807
C      -2.0124041706     -0.2685843191     -0.9190293091     -1.6322616257     -0.7140772564     -1.6269443325     -0.0125338918
C      -1.2139732163      1.0164315671      0.9079512728      0.0095368061      1.8910524776      1.4969185643     -0.0104922763
C       0.3948609116      0.0751689663     -0.6934743304      1.7461009347      0.1992697999     -0.4642541663     -0.0616019962
C      -2.8331849578      1.0022454314     -0.8274165256     -0.0765159442      0.5300657119     -0.6914488872     -0.1447148585
C      -2.6338477602      1.4474585259      0.5930861507     -0.6025297860      0.0018542835      0.6189534824     -0.1412464585
C      -0.8209679093     -1.3954579398      0.9096598270      0.1950957766     -1.6369326448      0.7624501571     -0.0879346690
C       1.6569465865      0.1781867571      0.1970240801     -0.3881575642     -0.1134050085     -0.1019213998     -0.2155454854
C      -0.4843649794     -2.6899036086      0.1481906725      0.0562653124      0.2811745142     -0.1254888077     -0.1215269823
C       2.8657019631      0.6225312067     -0.6352017159     -0.0753306599      0.1182738287     -0.1176654321     -0.2328980897
C       4.1316014139      0.7051703469      0.2120358708      0.1331226331     -0.0069549299     -0.0055188762     -0.0900443454
H      -2.6998270664     -1.1117691444     -0.6780287694      0.6654595444      0.1082869182      0.2455805257      0.1480319189
H      -1.6771576939     -0.4254447487     -1.9698152305      0.2680495977     -0.0928860530      0.6285473344      0.1582372722
H      -1.1175744172      0.8131565958      1.9991105318      0.2653989545     -0.2642618320     -0.5841934841      0.1402434525
H      -0.5575866791      1.8903870178      0.6915333498      0.1135790562     -0.7313755291     -0.1838936346      0.1666484162
H       0.5660444223     -0.7297800092     -1.4422519786     -0.3810752945      0.1346790025      0.3703403965      0.1723329831
H       0.3032927875      1.0147860679     -1.2873007563     -0.3124581470     -0.2889397834      0.3405363929      0.1803626519
H      -2.4255330967      1.7672072155     -1.5251143308     -0.2554951603     -0.2039277781      0.1137671922      0.1234999610
H      -3.9067463967      0.8208592072     -1.0531873548      0.4638232102      0.0883395580     -0.1629840298      0.1063625366
H      -3.3475498315      0.9144236905      1.2600274266      0.1242402690      0.2859705472     -0.1268019579      0.1003164555
H      -2.7688745090      2.5459622164      0.6999324934      0.0235539660     -0.4462125396      0.1983882386      0.1103096746
H      -0.0761874111     -1.2722037995      1.7261011185     -0.1655220072      0.3742238077     -0.4545161076      0.1654348016
H      -1.7986574996     -1.5481862033      1.4225050407      0.1746603612      0.4964307946     -0.3708262474      0.1504472813
H       1.5004824474      0.9066245652      1.0201686145     -0.0000530756     -0.1771304899     -0.1027685605      0.1088748581
H       1.8869282512     -0.8109806688      0.6451166510     -0.1200685572      0.1915639158      0.0258301981      0.1159736452
H      -0.5809498893     -3.5521979968      0.8410380119     -0.0118063232      0.3267711162     -0.1585447888      0.0908475149
H       0.5601165855     -2.6779340047     -0.2226922256     -0.3106774191     -0.0380210235      0.0383508839      0.0874240320
H      -1.1749913996     -2.8570174645     -0.7029763670      0.2256782737     -0.0118162285      0.2076735743      0.0765733899
H       3.0353869442     -0.0988088670     -1.4643229385     -0.1258625960      0.3098675489      0.0712718010      0.1145262402
H       2.6649024511      1.6235722857     -1.0721464233      0.0742548794     -0.2986234964     -0.1703051473      0.1578120692
H       4.3674682550     -0.2865160569      0.6533527534      0.0226998211      0.3005328282     -0.0268616301      0.0297048242
H       4.0036599567      1.4505358073      1.0255579155      0.1315524947     -0.2377041619     -0.1672966301      0.0361481920
H       4.9834237447      1.0205059763     -0.4272128354     -0.2451498615     -0.0759132108      0.2719554098      0.0873285069
N       3.1857004504      2.0126245906     -5.4934490681     -0.0069586696     -0.1858948931      0.4920479265     -0.8602130727
S       3.0552936442      3.3453408029     -4.5527438344      5.1123487825      1.2987331933     -0.2959474834      1.8430761120
S       3.1549014715      2.1207828732     -7.1260120435     -4.6643694681     -0.5840677586     -1.3579855772      1.8431818251
F       1.4572560348      3.8433573330     -4.5153928503      0.2518892445     -0.3350920606      0.1624376175     -0.4558500049
F       4.6012648927      2.7680323810     -7.6666909822     -0.4843220111     -0.4106823527      0.4001942316     -0.4410660418
O       3.5076476824      3.0239623461     -3.1575780580     -2.1115992247     -0.3843384695     -1.3168469085     -0.7552193106
O       3.8984724545      4.4555541260     -5.1140522934     -2.2371699011     -0.9539388608      0.4633999812     -0.7142199412
O       2.0294357768      3.0180838527     -7.5584530597      2.3003503757     -0.2710034412      0.4115058733     -0.7241900742
O       2.9695153770      0.7533464438     -7.7194381306      1.7933454712      1.6989831971      1.2600815835     -0.7187459359
