42
Properties=species:S:1:pos:R:3:forces:R:3:charge:R:1 energy=-226.40936831105577 homo_lumo=2.2131439238940973 dipole="-7.111687882103829 2.841804968355088 -2.4165171073520395" free_energy=-226.40936831105577
N      -0.8787165368     -0.1668852392      0.0456154772      0.0260897927     -0.1312519438     -0.0132970703     -0.5252291102
C      -2.0127553530     -0.2812295752     -0.9219688325     -1.6220257999     -0.7419329009     -1.5894047273     -0.0089049480
C      -1.2157550023      1.0146289384      0.8984812307      0.0274278819      1.8788986896      1.5004464352     -0.0092493825
C       0.3953301827      0.0830055829     -0.7054871051      1.7368908542      0.1593664730     -0.4086695548     -0.0506468787
C      -2.8442780088      0.9828044354     -0.8307637973     -0.0907758680      0.4962050863     -0.6775103458     -0.1419321170
C      -2.6367028697      1.4417788692      0.5846230291     -0.6049886891      0.0119607078      0.6122573196     -0.1417194208
C      -0.8045668208     -1.3963468649      0.9000042399      0.2670882649     -1.7179169522      0.8091426930     -0.0966680937
C       1.6551985672      0.1872254805      0.1883340178     -0.4323321256     -0.1098292345     -0.1391001981     -0.2264884269
C      -0.4389271634     -2.6821571069      0.1360695356      0.0725079325      0.3144258428     -0.1488256926     -0.1255488029
C       2.8710862583      0.6423361634     -0.6281157219     -0.0082761586      0.0374787144     -0.0764611300     -0.2149932216
C       4.1112016931      0.7650115453      0.2524426957      0.1507143687     -0.0168091534      0.0359539665     -0.1047230974
H      -2.6922395372     -1.1300604094     -0.6756119681      0.6896188024      0.1273943531      0.2338022673      0.1532946194
H      -1.6809349940     -0.4398551874     -1.9737140628      0.2640717065     -0.0971113478      0.6401095448      0.1464146035
H      -1.1171898854      0.8120667912      1.9898022941      0.2696494579     -0.2601220941     -0.5950566514      0.1500980551
H      -0.5624639448      1.8911849644      0.6822246037      0.1245460466     -0.7408212142     -0.1652141200      0.1588903100
H       0.5691965496     -0.7189689347     -1.4572990076     -0.3757802713      0.1022602172      0.4030649497      0.1657425411
H       0.2987650541      1.0248155328     -1.2946000228     -0.3486239883     -0.2729296876      0.3660257772      0.1508151487
H      -2.4504891657      1.7458504779     -1.5381289781     -0.2496361118     -0.1870953043      0.1176744722      0.1076101284
H      -3.9184463031      0.7902974788     -1.0436220087      0.4590374053      0.0912777777     -0.1743783613      0.1067440650
H      -3.3474810909      0.9171031048      1.2609358687      0.1310491701      0.2868240182     -0.1394953799      0.1067255079
H      -2.7712164114      2.5415925653      0.6787318724      0.0204503978     -0.4515923030      0.2216451014      0.1077775992
H      -0.0689584975     -1.2626367913      1.7234309872     -0.1601383699      0.3500738330     -0.4552852168      0.1794167909
H      -1.7832578434     -1.5661937004      1.4050556362      0.1645742971      0.5148918937     -0.3711806368      0.1524503794
H       1.4891203132      0.9059173894      1.0177527025      0.0253935008     -0.1712411000     -0.1131736336      0.1198765162
H       1.8892939714     -0.8037339143      0.6302977129     -0.0721317963      0.2464883980     -0.0036885813      0.1521348321
H      -0.5661944372     -3.5550322764      0.8105269977      0.0300148600      0.3381983621     -0.1558000194      0.1045441536
H       0.6206314260     -2.6662967598     -0.1903585144     -0.3079353020     -0.0666870939      0.0629193917      0.0980037252
H      -1.0907186675     -2.8331298516     -0.7482911161      0.1829723699     -0.0299985617      0.2320673672      0.0674435807
H       3.0740824438     -0.0933703876     -1.4368013209     -0.1123926013      0.2143390134      0.1024920884      0.1061694563
H       2.6647957637      1.6308964851     -1.0936529980     -0.0524705720     -0.2501782755     -0.0368668827      0.0843387461
H       4.3357611812     -0.2055338837      0.7438798450      0.0972957763      0.3462402575     -0.1231662017      0.1067377522
H       3.9540271278      1.5418793601      1.0309363923      0.1337270538     -0.2527515149     -0.1697977480      0.0355326899
H       4.9820202642      1.0575759184     -0.3713227705     -0.1826880700     -0.1456327930      0.3462248944      0.0763869178
N       6.8028654916     -2.4543666999      3.0587403711     -0.1056855326      0.1733533537     -0.0701108533     -0.8439562564
S       6.4101289826     -3.8828901224      3.7543814804     -4.6707089887      0.1473001371      0.2141085973      1.8346769557
S       7.1216144246     -2.3509880670      1.4568192431      5.3635873210     -0.3106043905      0.2921920741      1.8295289838
F       7.7610087325     -4.8711138719      3.7991624460     -0.4564055749      0.5364970826      0.0510701882     -0.4412111746
F       5.7145495284     -2.6177910060      0.5896949823      0.0105116380      0.2449288924      0.1460718751     -0.4656954260
O       5.9212222146     -3.6434002169      5.1539672686      2.1669904144     -0.1185914906     -1.6264827191     -0.7210093805
O       5.3363804833     -4.5635772503      2.9530500282      2.1383041031      0.0660895756      0.4716782269     -0.7380993700
O       8.1343012203     -3.3920012336      1.0705291918     -2.3428233715      0.6992694427     -0.0894313174     -0.7192189288
O       7.6548023195     -0.9840281472      1.1367545445     -2.3566942243     -1.3106647661      0.4834498114     -0.7260600222
