21
Properties=species:S:1:pos:R:3:forces:R:3:charge:R:1 energy=-122.45190274209445 homo_lumo=4.9555025673126085 dipole="-0.19880666280373316 2.168951358262674 0.44729933643279995" free_energy=-122.45190274209445
N       1.2517486098     -0.2530603595      0.1476766628      0.4543683462     -0.0093827470      0.0944084127     -0.5450141915
N      -0.8888145004     -0.4624714052      0.1323026831     -0.4537405538     -0.1174843552      0.0970720744     -0.5447143153
C       0.2457714666     -1.0402748411      0.5144089090     -0.0091142648      0.1283701246      0.3911386950      0.6424725679
C       0.7506486628      0.8434580979     -0.5043513740      0.0182145453      0.2400686494     -0.1406135398      0.2165723728
C      -0.6013315531      0.7103808749     -0.5144540424     -0.0526407453      0.2337840732     -0.1303509455      0.2194682378
C       2.6551375930     -0.5990579563      0.3021314351      0.0672047202      0.0820519039      0.1795828738      0.0989829884
C      -2.1954564243     -1.0885529514      0.2560165979     -0.0734557992      0.0533469212      0.1518562568      0.0999203016
H       0.3338808091     -1.9796211601      1.0342773952      0.0050537006     -0.1499282331      0.1100060191      0.1187387507
H       1.3880631191      1.6117085061     -0.9056278192      0.1413775865      0.1639039159     -0.1055676610      0.0293965906
H      -1.3695123440      1.3403726724     -0.9274858311     -0.1705504472      0.1285621304     -0.1051529232      0.0292736157
H       2.7280748508     -1.6847075267      0.3780356492     -0.0121486841     -0.2037995277     -0.0748385238      0.1268415655
H       3.2042374309     -0.2475399971     -0.5699031637      0.0822629350      0.0366306477     -0.2175744162      0.0486090909
H       3.0535703432     -0.1303326030      1.2032671970      0.0996603848      0.1461729922      0.2028375330      0.0502244444
H      -2.6592625392     -0.7918758440      1.1978876915     -0.1288979558      0.0994875910      0.2079229313      0.0495240010
H      -2.8193363935     -0.7736352607     -0.5785689377     -0.0919529866      0.0581850522     -0.2087497035      0.0452081694
H      -2.0514422843     -2.1699615777      0.2323956433      0.0406548140     -0.1990464139     -0.0659937504      0.1296794001
B       0.4901366162     -3.6763802125     -0.5438776760     -0.0264248546      0.3218814460     -0.0580229967      1.4062380470
F       0.3409961008     -2.5220869183     -1.3585424316     -0.0531732503      0.3178986416     -0.8150753870     -0.5628950556
F       1.6380858598     -3.4537270786      0.2609954119      0.6752728960     -0.1660859958      0.4845033345     -0.5724474327
F       0.5944054099     -4.8119760049     -1.2849902075      0.0908239681     -0.8766768489     -0.5293978050     -0.5133866873
F      -0.6354867588     -3.7013044635      0.3216802814     -0.6027943551     -0.2879399676      0.5320095215     -0.5726924615
