38
Properties=species:S:1:pos:R:3:forces:R:3:charge:R:1 energy=-204.1949267049714 homo_lumo=0.5112940149448556 dipole="-5.8604624999445685 -2.219635816756548 -2.753981326756605" free_energy=-204.1949267049714
N      -0.4107083009      0.1674153819     -0.0723933836      0.0796484980      0.0665340154     -0.0247379652     -0.5248530935
C      -0.9807682747     -0.8884200042     -0.9651017403     -0.3684335672     -1.7539644799     -1.5475301584     -0.0060488504
C      -1.4673117621      0.4161022029      0.9561476410     -1.4066233474      0.8907409631      1.7017500591     -0.0088586525
C      -2.4454296699     -1.0681565443     -0.6140606907     -0.5983769060      0.1173586969     -0.5876064478     -0.1421548431
C      -2.5133506834     -0.6746784855      0.8345561250     -0.1606594163     -0.5335555224      0.6615081443     -0.1422117345
C       0.8298052591     -0.3379932535      0.6018542272      1.7317133014     -0.4862118892      0.3485615783     -0.0627370737
C      -0.1615377784      1.4122545118     -0.8695416814      0.4535853249      1.7572346649     -0.6979242058     -0.0922955477
C       2.0078775246     -0.6366064103     -0.3566020006     -0.2661319022      0.1584432700     -0.1151731766     -0.2619912265
C       0.4202566301      2.5858065819     -0.0607848629      0.0537216787     -0.3519710483      0.1161195123     -0.1453511115
C       3.1527843896     -1.3235507826      0.3846068879      0.0462739325     -0.0416056182      0.2701558980     -0.1003022219
H      -0.4923630285     -1.8783379504     -0.8133933024      0.2608741701      0.6869277350      0.2134545617      0.1571328664
H      -0.8767529041     -0.6522373667     -2.0491996805      0.3140376268      0.1839064556      0.6019491830      0.1426159384
H      -1.9949649988      1.3840422524      0.7928529076      0.6498882765     -0.2195816616     -0.2791731152      0.1535557218
H      -1.0707095640      0.4486139459      1.9968885887      0.2659407674      0.0904395764     -0.6378078172      0.1539636132
H      -2.7850038753     -2.1155433040     -0.7704099770      0.1015210871      0.4550769604     -0.1803184101      0.1047383469
H      -3.0684810977     -0.3770827046     -1.2241716088      0.0771472652     -0.2965654495      0.1164195995      0.1035885680
H      -3.5269034719     -0.3120243023      1.1137037609      0.4497233175     -0.1812196837      0.1351832888      0.1055136123
H      -2.2344256302     -1.5396870684      1.4764716862     -0.2121745802      0.2400328802     -0.1028120970      0.1090488179
H       0.5907310941     -1.2699541204      1.1656256249     -0.3147422856      0.3426062451     -0.3276281220      0.1542096044
H       1.1811770279      0.3877555643      1.3684197614     -0.3423601923      0.0003156567     -0.3611406959      0.1892722161
H       0.5233323732      1.2066672284     -1.7208341194     -0.1889134768     -0.3687246805      0.4436818125      0.1645807650
H      -1.1127287296      1.7599566154     -1.3347413160      0.0771467463     -0.5705808613      0.3404196333      0.1459810182
H       1.6893303023     -1.2948912241     -1.1908905837     -0.0820861252      0.1958499700      0.0980552500      0.1063465509
H       2.3989717227      0.3049883805     -0.7929661784     -0.1767074046     -0.1524664374      0.0740628452      0.1482344397
H      -0.1951917190      2.8197368295      0.8311662124      0.2027996643     -0.0058768553     -0.2207468757      0.0647859246
H       1.4579985345      2.3736588105      0.2591543390     -0.2276551185      0.1443397259     -0.0015310277      0.1397738717
H       0.4492710217      3.4907402908     -0.7034863140     -0.0407870733     -0.3381485967      0.1501067890      0.0901484431
H       3.5094922262     -0.6878240201      1.2226694281      0.0494409727     -0.2465994689     -0.2310984538      0.1085854541
H       2.8188661740     -2.3031370227      0.7880113944      0.1791582260      0.2366880523     -0.0672974384      0.0400188848
H       3.9983988749     -1.4979027493     -0.3138735812     -0.2454074371      0.0769022455      0.3191145212      0.0774169980
S       5.6283200483      2.6648757261      2.5111690318      7.2547606679     -2.2429041409      8.0305017496      1.5497052158
O       6.3103409905      3.8689898219      3.1770682745     -2.3677352808      0.1136853353     -2.5814484054     -0.7482639486
O       5.0179190302      1.9054113558      3.6983516647     -1.9427501110      0.8519151940     -2.7036889972     -0.7682798190
O       6.8104648104      1.7760533420      2.0974484292     -2.5355531604      0.9831176722     -2.1503469276     -0.7560505768
C       4.4699800186      3.0720120828      1.1794076220      0.3768685655      0.6034801951     -0.0180664867      1.1005663505
F       5.1280088306      3.7862043776      0.1971192555     -0.9984190130     -0.5188827560      0.3479765493     -0.4303677636
F       3.4322944820      3.8304570906      1.6863545637      0.2045001746     -0.4562544409     -0.8406717843     -0.4479307607
F       3.9701409536      1.9046265696      0.6405412914     -0.3532338656      0.5695180807     -0.2922723672     -0.4720859980
