25
Properties=species:S:1:pos:R:3:forces:R:3:charge:R:1 energy=-150.45107118012996 homo_lumo=3.384904991904108 dipole="0.028305643697612973 -0.2696039303955307 -0.8088979658838777" free_energy=-150.45107118012996
N       0.3805855154      0.2294404100     -0.1389347671     -0.1236432132      0.0875122768     -0.2061336786     -0.5411748511
C       1.6896045617      0.0402190795     -0.7632372074      0.0909876891     -0.1047396651      0.5226280246     -0.0252516511
C      -0.0370324969      1.5500365163      0.1554337927     -0.7739317763     -0.7501336785      0.0787442035      0.2636186158
C      -0.2805190255     -0.8559732814      0.3750900524      0.0344413953      0.1504690330     -0.3051242368      0.2451987087
C       2.8118243233     -0.0666489941      0.2689764781     -0.1829698056      0.0950670812     -0.3534209856     -0.0829729036
C      -1.4634103202      1.6339437729      0.5486123951      0.5412540345      0.2605712866     -0.3232932181     -0.0685815809
C      -1.5216577406     -0.7478052687      0.8983121890     -0.3749323985      0.2309356555      0.1709295329     -0.0519353240
C      -2.1415622252      0.5398196182      0.9382546900      0.1186673930     -0.5892187159     -0.0360212396      0.0320548083
H       1.6457844667     -0.8752848110     -1.3624939319     -0.0704551972     -0.1304617047     -0.1899366126      0.0917890547
H       1.8733561321      0.8844265769     -1.4354482848     -0.0415912476      0.1420355031     -0.1849238227      0.0983213819
H       0.2367700229      2.2370396068     -0.6551915510      0.1402363669      0.0605483994      0.0778001866      0.1403260226
H       0.2253716368     -1.8078839387      0.2611396684      0.1297190083     -0.1608227009     -0.0111158528      0.0566679335
H       2.9635692624      0.8849478060      0.7751838274      0.0751005223      0.2251100553      0.1406131939      0.0872603549
H       3.7366565059     -0.3468449336     -0.2344790845      0.3499510671     -0.1068460700     -0.1061716471      0.0372214430
H       2.5709945743     -0.8253885322      1.0129660608     -0.0492656963     -0.2552381563      0.2360912824      0.0533191265
H      -1.8990631756      2.6247621022      0.5587764387     -0.1619393541      0.2398576319     -0.0366165975      0.0415488759
H      -2.0442986441     -1.6203174495      1.2634164345     -0.0687223786     -0.2459580385      0.0697819064      0.0134963769
H      -3.1753610684      0.6161863299      1.2551935140     -0.2468138730      0.0647880381      0.0994377255      0.0264247614
C       0.8658508580      1.6185942349      2.4718406818      0.6444733890      0.6838034129      0.6412076680      0.9247344359
O       0.8443922569      2.1444434742      1.2805369701      0.6807415885      1.3584437518     -0.7446654822     -0.6921519354
O       0.2951800665      0.6578025305      2.8905156880     -0.6240633858     -1.2525209664      0.6440477870     -0.6664935202
C       1.8451290228      2.4564812421      3.3778072014     -0.7872181828     -0.6347893833     -0.6470948633      1.3653187747
F       1.8506375430      2.0068955920      4.6274008600     -0.1027505278     -0.4716140062      0.9412662512     -0.4436055423
F       1.5001857148      3.7450426666      3.3982304300     -0.3910574329      1.2043636826     -0.0092814196     -0.4480385548
F       3.0933987246      2.3730341089      2.9011823942      1.1937820155     -0.1011627225     -0.4687481054     -0.4570948111
