25
Properties=species:S:1:pos:R:3:forces:R:3:charge:R:1 energy=-150.67833060312063 homo_lumo=1.9576846454252697 dipole="-0.5968543162006998 -1.5489369887703355 -1.1040631436156214" free_energy=-150.67833060312063
N       0.6446388203      0.3437619709     -0.1451247096     -0.0073661911     -0.0002374002     -0.0023781911     -0.5074424330
C       1.9364773971     -0.1516616644     -0.6709056737     -0.0003903215      0.0004139532      0.0075435028     -0.0547839573
C       0.2748454474      1.6282272946     -0.3691288474     -0.0138264582     -0.0046343402     -0.0116432528      0.2957542633
C      -0.0771116450     -0.4668019789      0.6770215393      0.0012192280     -0.0016516545     -0.0038903435      0.2502491317
C       2.9977496760     -0.1983857743      0.4186636903     -0.0058808979      0.0015584570     -0.0112131351     -0.0961988286
C      -0.9401469098      2.0941296601      0.1469066179      0.0017387902     -0.0000762806      0.0011861570      0.0028046487
C      -1.2632079923     -0.0370633874      1.2154136770     -0.0085794256     -0.0025157571     -0.0009723831     -0.0379019119
C      -1.7156490217      1.2601896512      0.9253011710      0.0018627537      0.0013313229      0.0086087181      0.0393324643
H       1.7448975670     -1.1415464156     -1.1145625329      0.0054941284     -0.0027460008     -0.0059957286      0.1079750250
H       2.2303020229      0.5331619414     -1.4784725339      0.0005899090      0.0006178567     -0.0002585489      0.1223514363
H       0.8562390795      2.1845113275     -1.0942484142      0.0004060245      0.0001020988     -0.0013110041      0.0985792453
H       0.3367078399     -1.4574195766      0.8524695919     -0.0008911857      0.0018254393     -0.0074174064      0.0851566826
H       3.1284366238      0.8062884214      0.8461574812     -0.0021892688     -0.0004166059      0.0038837692      0.1364087449
H       3.9457926093     -0.5498212887     -0.0147995988     -0.0027104873      0.0057542783     -0.0004954721      0.0418720180
H       2.7100486266     -0.8927362771      1.2222625990      0.0070843432     -0.0045398984      0.0011563924      0.0420503141
H      -1.2365936706      3.1179458559     -0.0676695298      0.0075337464      0.0062870018      0.0141566731      0.0586221590
H      -1.8348392967     -0.7092896109      1.8539516560     -0.0024066237     -0.0049724653     -0.0024897268      0.0446658117
H      -2.6632653831      1.6148655949      1.3320179898      0.0045235140      0.0036217091      0.0115360189      0.0524987338
C       1.3871685231      3.2497198098      1.8770506531      0.0095156860      0.0095529727      0.0021446135      0.9338126985
O       0.2305823057      3.6485922888      2.0775543705      0.0039415171     -0.0023512615     -0.0120796899     -0.7474245133
O       1.9110223528      2.7172576619      0.8462496734      0.0141874267     -0.0055282105     -0.0199663942     -0.7925651635
C       2.4230257344      3.4038192450      3.0425108296     -0.0091742784      0.0030180954      0.0016927825      1.2992058098
F       2.9619092925      2.1857057048      3.3884284502     -0.0041105647     -0.0021191082      0.0086228134     -0.4674054854
F       1.8857126343      3.9363599651      4.1686352936     -0.0099840660     -0.0024707661      0.0021806114     -0.4510704272
F       3.4647068934      4.2085372173      2.6671314111      0.0094127016      0.0001765642      0.0173992244     -0.4565464667
