37
Properties=species:S:1:pos:R:3:forces:R:3:charge:R:1 energy=-198.8148707766258 homo_lumo=4.3162993359317126 dipole="-2.3473383487540502 -0.7327631114552883 2.1725444227123965" free_energy=-198.8148707766258
N       0.5590641570     -0.2144326254     -0.1611871763      0.0022680267     -0.0040028666     -0.0009806085     -0.4942337497
C      -0.5923541833      0.0383941876      0.7897739875     -0.0105728569     -0.0159649086     -0.0018007434     -0.0710233796
C       0.0998224163     -0.1961435319     -1.6171268725     -0.0042912140      0.0068522383     -0.0057615498     -0.1262996984
C       1.1513210920     -1.5861936954      0.1363078612      0.0140865278     -0.0073957262     -0.0078296968     -0.0771910424
C       1.6042606667      0.8807155286      0.0236420284      0.0071790745     -0.0023229451      0.0104202943     -0.1454081595
C      -1.7891089067     -0.8791470870      0.6263208340      0.0105613865     -0.0062156244     -0.0035692834     -0.0970629804
C      -0.6815409991      1.0347157849     -2.0295022077      0.0061823051     -0.0109194547      0.0110802999     -0.1088874171
C       2.4240827781     -1.9158489777     -0.6157500840     -0.0080207698      0.0159406120     -0.0070622468     -0.1100354442
C       2.2429752369      0.9404562244      1.3958343544     -0.0097902079     -0.0089905546     -0.0040199645     -0.1020835737
H      -0.1760126534     -0.0556099434      1.8017429655      0.0025686771     -0.0025902557      0.0026977830      0.1542760555
H      -0.8827615639      1.0882739505      0.6436003423      0.0016397576      0.0027715424     -0.0051603860      0.1435497690
H       1.0173052247     -0.2584134273     -2.2266116994      0.0096963065     -0.0077775464     -0.0043881850      0.2701088348
H      -0.4915134274     -1.1129281511     -1.7586798035     -0.0095300529     -0.0013875627      0.0092702029      0.1099631766
H       1.3076466768     -1.6198477835      1.2248551346      0.0029720730      0.0043362590      0.0016822091      0.1276068481
H       0.3601856569     -2.3070495719     -0.1122228034     -0.0062638642     -0.0021775412      0.0040680981      0.1460413726
H       2.3797045736      0.7251153746     -0.7432775740      0.0027233159     -0.0047098715     -0.0070310378      0.2815578413
H       1.0904992084      1.8233712731     -0.2059494811     -0.0132472548     -0.0087066680      0.0075735866      0.1478910359
H      -2.5395168951     -0.5911315988      1.3779356433     -0.0081846029      0.0028641122      0.0059514789      0.0764977796
H      -2.2590709846     -0.7858406651     -0.3617752474     -0.0017280528     -0.0097030879     -0.0055006415      0.0650297171
H      -1.5399015396     -1.9336943379      0.8052026625     -0.0043178243     -0.0115107513      0.0010379832      0.0552754272
H      -0.9419727106      0.9035213628     -3.0905438102      0.0003145865     -0.0075910903     -0.0123486312      0.0864332381
H      -1.6181974639      1.1767895211     -1.4712820720     -0.0076183405      0.0026093268     -0.0031954823      0.0317237164
H      -0.0726226218      1.9457968056     -1.9747761289     -0.0030336092      0.0095135931     -0.0018590200      0.0853043708
H       2.7079634492     -2.9452018815     -0.3468687348      0.0015289380     -0.0032028926      0.0041634479      0.0556039511
H       2.2968602015     -1.8673245799     -1.7051561700      0.0048300656     -0.0048363833     -0.0190088786      0.0990674104
H       3.2579225306     -1.2482982812     -0.3623432511      0.0111432330      0.0041963542     -0.0055826519      0.0934702970
H       3.0060001752      1.7322396081      1.3511809697      0.0084250226      0.0042124087     -0.0110165279      0.0955771717
H       1.5428245450      1.1998740819      2.2028334668     -0.0021666147     -0.0093003851      0.0057476638      0.0309785444
H       2.7704041296      0.0117970368      1.6539960266      0.0063906636     -0.0087403774      0.0104255533      0.0554760765
S       3.8014398128      0.7441855826     -3.1374644161      0.0020811880      0.0135159219      0.0035713762      1.7454742259
O       4.1613968147      0.7696986910     -1.7002803950      0.0017159029      0.0181424873      0.0163758755     -0.8087474588
O       2.5664677303     -0.0305358260     -3.4215871803     -0.0033157768      0.0015067669      0.0044605511     -0.8216085820
O       4.8986726998      0.5734805519     -4.0841425749      0.0051466091      0.0073626851      0.0083050694     -0.7494563970
C       3.2217686779      2.5065709113     -3.4388107732     -0.0036509857      0.0085270495      0.0047912418      1.1181688613
F       2.2303213441      2.8565350593     -2.5430928265     -0.0118911404      0.0292523693      0.0068817335     -0.4791206532
F       2.7018273095      2.6598289799     -4.6830946190     -0.0098373718     -0.0040437799     -0.0096943964     -0.4432595868
F       4.2258880492      3.4041974336     -3.2882522358      0.0160068796      0.0104865469     -0.0026945165     -0.4406575983
