37
Properties=species:S:1:pos:R:3:forces:R:3:charge:R:1 energy=-195.93482532885147 homo_lumo=1.6612327154613402 dipole="0.8148287638822109 -1.5570614546195634 4.617670009334405" free_energy=-195.93482532885147
N       0.0002671050     -0.0007236124      0.0025880602      0.0008181571     -0.0591147054      0.1257851409     -0.5261157929
C      -0.8431336946     -0.2594204232      1.2221273272     -1.0835472457     -0.5522605919      1.2524236933     -0.0884697064
C      -0.8535168871      0.2539149204     -1.2103539568     -1.3152674453      0.6843109045     -1.4660443991     -0.1322009424
C       0.8504292382     -1.2155207325     -0.2557826614      1.1924982189     -1.2464805485     -0.5412993524     -0.0936379886
C       0.8462061698      1.2182070817      0.2549928229      1.1855890049      1.2628639227      0.5334072475     -0.0963817033
C      -1.9016129117     -1.3719101899      1.0827973616      0.1005236164      0.0514324535     -0.2414113136     -0.1221137106
C      -1.9194637750      1.3581368689     -1.0595390524      0.1207542991     -0.0956711898      0.3277466733     -0.1273688551
C       1.9056210131     -1.0739725606     -1.3704981953     -0.1525518882      0.2270838013      0.0085328418     -0.1298932558
C       1.9046354454      1.0828025968      1.3678346908     -0.1400786819     -0.2510092602     -0.0412424204     -0.1231820565
H      -0.2038149562     -0.5559309749      2.0809295934      0.2210449929      0.2164922617     -0.5568019379      0.1638366512
H      -1.3617314435      0.6682682251      1.5499505187      0.3769483091     -0.1077604759     -0.5198097088      0.1571000302
H      -0.2216766172      0.5555792885     -2.0734596197      0.0909432581     -0.1094663319      0.4201698451      0.2375771149
H      -1.3687133167     -0.6767120814     -1.5349939278      0.4160719563      0.0846305466      0.4592577564      0.1526850043
H       1.3741290874     -1.5369643069      0.6713528924     -0.3886308599      0.4662495788     -0.0697843989      0.1450846262
H       0.2149282525     -2.0784228539     -0.5492484484     -0.2224314451      0.5923597691      0.2186993678      0.1748073297
H       1.3666223354      1.5390085979     -0.6742386759     -0.4550921998     -0.4679115499      0.0772349249      0.1794142632
H       0.2076167808      2.0796476782      0.5465016899     -0.2179959900     -0.5931386660     -0.2863970588      0.1779925318
H      -2.4630380186     -1.4495579505      2.0377245664      0.2514347717      0.1135102914     -0.2295205315      0.0884806440
H      -2.6418841091     -1.1535222933      0.2885573057      0.2247507715     -0.1086393777      0.1844222832      0.0860508490
H      -1.4359663717     -2.3604492352      0.8999151174     -0.1833300314      0.2453615202     -0.0071168879      0.0691741160
H      -2.5118541850      1.4121866881     -1.9961888164      0.4637855905      0.0066279237      0.0202268761      0.1444705285
H      -2.6382758133      1.1471427633     -0.2449576500      0.1922413480      0.0523982954     -0.0657538583      0.0475190150
H      -1.4568786886      2.3535820282     -0.9056664625     -0.2157005292     -0.2640534094     -0.1315207705      0.0758572682
H       2.4675441409     -2.0287599295     -1.4497928660     -0.2532083069      0.2340523881      0.1241971921      0.0887789699
H       1.4377655765     -0.8907378842     -2.3580078800      0.1966910796      0.0450032096      0.2395903908      0.1074925350
H       2.6458795084     -0.2800020973     -1.1513768608     -0.2062734093     -0.1821910129     -0.1416803640      0.0735922554
H       2.4642978968      2.0390094812      1.4441622566     -0.2474964343     -0.2450900973     -0.1280772146      0.0964165609
H       1.4399512033      0.9011418966      2.3570841657      0.1933746156     -0.0115334933     -0.2310497934      0.0645695712
H       2.6459424163      0.2895124559      1.1495144752     -0.1841747293      0.1817940904      0.1252141909      0.0703905180
S      -1.0521173028      2.2825493845     -5.5757419721      2.6563217417     -8.9454864873      4.9673171363      1.5734663625
O       0.4146643655      1.8416591044     -5.6836689470     -1.2676866327      2.6308012514     -1.3783770935     -0.7712969787
O      -1.2688567872      2.3934390492     -4.0614532575     -0.6877646529      2.3233053616     -1.3401147089     -0.8192593359
O      -1.8310460436      1.0125328101     -5.9479598378     -0.4100608150      3.0145495854     -1.2760540292     -0.7645677274
C      -1.4897604632      3.7697960780     -6.5136649953     -0.2107446859      0.6661583731     -0.4898332673      1.1155346563
F      -1.2417081757      3.5585387406     -7.8556960490     -0.3166493799      0.5079911505      0.9786257723     -0.4289562888
F      -0.7313331952      4.8338602244     -6.0660256145     -0.6984969197     -0.4821376844     -0.5633728011     -0.4338809024
F      -2.8298005038      4.0507607363     -6.3307571735      0.9733905510      0.1149682033     -0.3575894224     -0.4329661566
