42
Properties=species:S:1:pos:R:3:forces:R:3:charge:R:1 energy=-229.03604150498884 homo_lumo=5.563338015353305 dipole="-1.3873134042030555 -1.570303166881174 2.0967455878325025" free_energy=-229.03604150498884
N      -0.4187836380      0.0715525142     -0.7420731308      0.1232833636     -0.1302850358      0.1188571260     -0.4949755596
C      -1.3001784138      0.0376986761     -1.9773921505     -0.3978303881      0.2685921294     -0.3610642492     -0.0146227477
C      -0.7681640241      1.3498539969     -0.0135638215     -0.3926303846      0.4300289267      0.1649030278     -0.0076196543
C       1.0245567881      0.0958387766     -1.1587373737      0.4438846600     -0.0773473675      0.4864774914     -0.0936346910
C      -2.0290292405      1.3743496422     -2.0195899654      0.0782112315     -0.0502517805      0.2074334834     -0.1465105442
C      -2.1256478888      1.7707615136     -0.5519172169      0.1924335690     -0.1908603751     -0.0931081791     -0.1290914579
C      -0.7211405300     -1.0974627255      0.1455585783      0.1194018657     -0.5768553275     -0.0752641841     -0.0600342255
C       2.0169579013      0.1524416477     -0.0022084174     -0.0466024757      0.0397138241     -0.6293657298     -0.2077594764
C      -0.3731527391     -2.4452268449     -0.4708741260     -0.0774822170      0.4649744757      0.1770088682     -0.0769862866
C       3.4089191682      0.4688954455     -0.5676844647     -0.0907493139     -0.0069392562      0.5728029889     -0.2272778566
C       4.4501557417      0.5564495291      0.5445903673     -0.2548451372     -0.0753413439     -0.3695209401     -0.0446337269
H      -2.0091719954     -0.7845363219     -1.8682422781     -0.1098551667     -0.2064489206      0.1155305305      0.1097654837
H      -0.6836776468     -0.1368332495     -2.8577597093      0.1535822805     -0.1029735528     -0.1740755809      0.1895241650
H      -0.7544833872      1.1758141711      1.0619787028      0.0634074414     -0.0981739755      0.2463716381      0.1010708037
H      -0.0181350374      2.0982894008     -0.2726610369      0.1473907244      0.0462610702     -0.0679948259      0.1930178457
H       1.2066150676     -0.7793460209     -1.7845973893     -0.0124411134     -0.1016073639     -0.2003725034      0.1642932410
H       1.1429575265      0.9857572197     -1.7773781727     -0.0431346148     -0.0313236249     -0.0562255734      0.2559888771
H      -1.4435720949      2.1099809905     -2.5741872552      0.0989841914      0.0777387194     -0.1543115501      0.1734639756
H      -3.0053221472      1.2685173829     -2.4927421938     -0.2362850570     -0.0008953424     -0.2003791646      0.0665194798
H      -2.9320194996      1.2291525345     -0.0491699789     -0.2398582611     -0.1101325758      0.1764764723      0.0738257961
H      -2.2797563809      2.8418067494     -0.4201991803     -0.0894136634      0.2740613301      0.1002033084      0.0871018695
H      -0.1611490376     -0.9595977547      1.0733761451      0.1010926116      0.1091434305      0.1815977225      0.1427972990
H      -1.7887742596     -1.0492746994      0.3755129453     -0.2469248678      0.1173453337      0.0624993549      0.1302978948
H       1.7305732626      0.9322160724      0.7089076435     -0.0274671273      0.2379025335      0.2318392664      0.0957336937
H       2.0468304926     -0.8009391650      0.5347310807      0.0195010356     -0.2483868749      0.2012406758      0.0849009279
H      -0.7669477622     -3.2245100942      0.1810293284     -0.1044013141     -0.2661465473      0.1696243447      0.0644525909
H       0.7039186499     -2.5792902218     -0.5505356454      0.3106663664     -0.0750362193     -0.0445086466      0.0641395681
H      -0.8165905722     -2.5655414684     -1.4574018725     -0.1321856156     -0.1056448594     -0.3115909208      0.0620445269
H       3.6939257866     -0.3115336406     -1.2801216994      0.0482682845     -0.1325826026     -0.2690681393      0.0876975592
H       3.3723487686      1.4192334727     -1.1076477411     -0.0072824625      0.1299266412     -0.1831044499      0.1810767736
H       4.5195920994     -0.3893209137      1.0844886170      0.0766424014     -0.2716736812      0.2178522048      0.0161719074
H       4.1877006016      1.3436029661      1.2525394982     -0.0284013082      0.2467765632      0.2421159942      0.0265626492
H       5.4256022994      0.7859436822      0.1168493842      0.3392601506      0.0760507779     -0.0308391795      0.0424093579
N       2.2272394132      1.8441832087     -3.5110452933     -0.0015035023     -0.0679514130     -0.0597180246     -0.8919273791
S       1.9490801193      3.3387897394     -3.0561110909      0.3909563851     -0.1657364902      0.1336250212      1.9302401877
S       1.1459754582      1.1567252846     -4.4550171554      0.5145642986     -0.3314760215     -0.1483836895      1.9717320066
F       0.6528019371      3.1276797485     -2.0232351474     -0.5230348152      0.0989111011      0.3820450385     -0.5070145349
F       1.7065379635      1.4296186545     -5.9336517480      0.3225876477      0.2338214310     -0.7080495498     -0.4530210319
O       2.9999201034      3.7163170280     -2.1715409117      1.2167356146      0.3400420302      1.1576045383     -0.7377526669
O       1.4584010674      4.2611319416     -4.0196411271     -0.7246277198      0.9311489340     -1.2469295136     -0.7044140853
O      -0.1766630375      1.7079869377     -4.4516773230     -1.1983582006      0.7625800557     -0.0470018691     -0.7513864437
O       1.2694782093     -0.2616057688     -4.2780457828      0.2244606024     -1.4609487559      0.0847673672     -0.7661661118
