34
Properties=species:S:1:pos:R:3:forces:R:3:charge:R:1 energy=-182.12181772186375 homo_lumo=3.776392535520179 dipole="-0.1407327546244904 0.38727919111250614 2.1635734742073467" free_energy=-182.12181772186375
N      -0.4834819815      0.2501331295      0.1785887781     -0.0097322166     -0.0006410516     -0.0045195851     -0.5118777710
C      -1.4792980493      1.0957163726     -0.6111085060     -0.0065926060      0.0002114557      0.0070579886     -0.0213538038
C      -0.7292769734     -1.2260878771     -0.1105318653     -0.0053440819     -0.0136520715      0.0105503501     -0.0342822389
C       0.8937813989      0.6355871733     -0.3444372637     -0.0073162963     -0.0026163963      0.0056283032     -0.0315710127
C      -2.9226721955      0.6884941438     -0.3785108758     -0.0051035577     -0.0073906555     -0.0057823428     -0.1638764697
C      -2.1724763059     -1.6364254583      0.1254512978     -0.0148602832      0.0040061471     -0.0055542292     -0.1549335598
C      -3.1206949644     -0.7879756198     -0.7199039445     -0.0134681658     -0.0027260608      0.0034112873     -0.1607004721
C      -0.5913281819      0.5354428330      1.6340140019     -0.0063384057     -0.0014126779      0.0189330556      0.0753508710
C       2.0609562341     -0.0840909557      0.3017268234      0.0004479940      0.0022256656     -0.0096648227     -0.2059668760
C       3.3646400165      0.3575215927     -0.3679408066      0.0175462560     -0.0012949112     -0.0005779604     -0.1983896124
C       4.5792791383     -0.3464914968      0.2292044727      0.0134047349      0.0011156194     -0.0030367559     -0.0662826118
H      -1.1993902944      0.9188734093     -1.6734549543     -0.0007558706     -0.0192678762     -0.0127062508      0.1925116339
H      -1.2814881598      2.1401261125     -0.3232287235      0.0005514390      0.0101619269     -0.0092288944      0.0901464585
H      -0.0361071045     -1.7868413660      0.5309252842      0.0044345030     -0.0058023917     -0.0061309741      0.1068708480
H      -0.4645794306     -1.3404814538     -1.1858792927     -0.0097770042      0.0113074686     -0.0158255152      0.1918827706
H       0.9705158169      1.7248608239     -0.1929181085      0.0026418354      0.0143119167      0.0017897933      0.0991653080
H       0.8380075257      0.4169404377     -1.4340851175     -0.0019444753     -0.0081537962     -0.0126896667      0.1957474737
H      -3.5393361397      1.3263771231     -1.0346451351      0.0089082528     -0.0065915627     -0.0057180330      0.1082004170
H      -3.2507818782      0.8966929772      0.6563828717     -0.0054302090      0.0073529336      0.0109067929      0.0683092353
H      -2.4450695116     -1.5771047033      1.1954183048     -0.0031754006      0.0001868484      0.0110931682      0.0683672407
H      -2.2468286444     -2.7006268592     -0.1560266372      0.0037915084      0.0115980628     -0.0073001032      0.1059408968
H      -4.1672775680     -1.0889149906     -0.5521168509      0.0060916415      0.0032661435     -0.0006730276      0.0677827555
H      -2.8770935292     -0.9413630874     -1.7865930648      0.0081844903      0.0030825731     -0.0055308730      0.1309045222
H      -1.6187357739      0.3644034718      1.9682486417     -0.0165801338     -0.0054987609      0.0048174388      0.1094200478
H       0.0880770074     -0.1272253999      2.1814362817      0.0062597186     -0.0082843513      0.0140899442      0.0859414637
H      -0.3134101034      1.5834660826      1.8057416371     -0.0045119214      0.0209093569      0.0085632271      0.0732553302
H       1.9597627844     -1.1732671604      0.1704838200      0.0024160315     -0.0195973003     -0.0124900955      0.1167734833
H       2.1284883295      0.1200794034      1.3848142284      0.0028107433      0.0012715233      0.0158537625      0.0799101271
H       3.4759907816      1.4516309378     -0.2658593736      0.0104894750      0.0130741128      0.0028033256      0.0852732594
H       3.2929011298      0.1465875328     -1.4483774569      0.0138808818     -0.0033928801     -0.0159833557      0.1164826141
H       4.4991083876     -1.4379813306      0.1036576951      0.0039993304     -0.0033681686     -0.0026869641      0.0387377750
H       4.6689168215     -0.1372790646      1.3074721798      0.0044279912      0.0048025595      0.0022111261      0.0282124477
H       5.5112910322     -0.0205463145     -0.2563621634     -0.0087131587      0.0044600496     -0.0051397045      0.0444388236
Cl     -0.2663902859     -0.4501735010     -3.2968097801      0.0093569595     -0.0036534504      0.0235295903     -0.7303913748
