58
Properties=species:S:1:pos:R:3:forces:R:3:charge:R:1 energy=-312.1087439108223 homo_lumo=5.216313866275264 dipole="-3.217998518935547 1.1273634466213847 0.07480467685592068" free_energy=-312.1087439108223
N       1.0041689832     -1.0482153187      0.8313140174     -0.3260891808     -0.0694662609     -0.1362083315     -0.4914939142
C       1.9772720879     -1.0392677861     -0.3121933125      0.4354045439      0.1203754667     -0.2200780656     -0.0594668052
C       0.4548722882      0.3467356606      0.7918066480      0.1006248078      0.5129344434      0.0521420710      0.0123165627
C       2.6369829853      0.3353645340     -0.2763948085     -0.0413489621     -0.0586931971      0.0628000578     -0.1532962722
C       1.6539693981      1.2387550362      0.4827770571     -0.1485576913     -0.0775657435      0.0361019935     -0.1377862551
C       1.7433898622     -1.3056658365      2.1166806691     -0.3604596297     -0.0172336829      0.5857416540     -0.1071507774
C      -0.0931106090     -2.0442905255      0.5912371998      0.0345095735     -0.4967207348     -0.1531684712     -0.0003342886
C       0.8781961850     -1.2463107148      3.3742251443      0.3693069683     -0.0357047052     -0.1630826868     -0.2656569453
C       0.3681942517     -3.4971960715      0.4088307901     -0.1931884434      0.1842403510      0.5045469303     -0.2613847721
C       1.7582710582     -1.4057607083      4.6143183476     -0.3193491346      0.0458949899     -0.2555966841     -0.0622683043
C       0.3056731043     -4.3481076908      1.6755432759      0.0761062312      0.2375722895     -0.3437894523     -0.0976159883
H       2.6866089225     -1.8525119168     -0.1940578157      0.0263753734     -0.0287641447      0.0567801561      0.2634742156
H       1.4061433730     -1.1829126557     -1.2318886145     -0.2536146111     -0.0629370891     -0.1596234668      0.1038085555
H      -0.2770835178      0.3869010117     -0.0186374735     -0.1500285980     -0.1111885019     -0.1829184518      0.1164235788
H      -0.0429138254      0.5862651896      1.7298479016     -0.1844477778     -0.0254942554      0.1840859158      0.1266442901
H       3.5994864082      0.2859633439      0.2343218692      0.2233970353     -0.0644680244      0.0194344644      0.1444138422
H       2.8113120170      0.6905217568     -1.2928744363      0.1071510860      0.0331730487     -0.2232794016      0.0906846730
H       1.3387373195      2.0934367920     -0.1179213579     -0.1028309733      0.2616914558     -0.0451458521      0.0907637258
H       2.1027558575      1.6177574038      1.4031407253      0.0883749872      0.1529011248      0.2045304279      0.0844734558
H       2.2115607972     -2.2858301466      2.0181672001      0.1322814505     -0.0346930050     -0.0852195194      0.2492857768
H       2.5412836018     -0.5642385207      2.1794508336      0.1885688632      0.0633097729     -0.0666933810      0.2134843561
H      -0.8015578542     -1.9568379902      1.4185002829     -0.1597821541      0.0640840581      0.1667229114      0.1335205746
H      -0.5977281795     -1.7139323811     -0.3206760331     -0.0515738455      0.2064642065     -0.1591847545      0.1148586361
H       0.3535981356     -0.2889640763      3.4387954772     -0.1746428809      0.2217483975      0.0293868034      0.0931655443
H       0.1274061340     -2.0404358733      3.3630036161     -0.2131125781     -0.1752986912     -0.0080350763      0.1106224597
H       1.3764439055     -3.5334765764     -0.0052617616      0.1132216451     -0.0176839774     -0.1893954971      0.1870099928
H      -0.2998336665     -3.9418846803     -0.3354895638     -0.1035168036     -0.0718736955     -0.2346112579      0.0901914886
H       2.2824209640     -2.3592181884      4.5942060875      0.1520325873     -0.1955297219      0.0760080858      0.0844833671
H       2.4946907793     -0.6045370567      4.6647246355      0.2243261440      0.1869835451      0.0828253045      0.0461141166
H       1.1359300654     -1.3668793278      5.5078128850     -0.1380638691      0.0072402940      0.3000019684      0.0328521413
H       1.0486848623     -4.0374566902      2.4071427445      0.1672726078      0.0093535911      0.2492205125      0.0904516403
H      -0.6843397980     -4.2949110682      2.1299613808     -0.3220637713     -0.0188303222      0.1662285635      0.0165750538
H       0.5110751731     -5.3851558381      1.4113681192      0.0823174190     -0.3289489402      0.0499253682      0.0636054035
P       5.7971785166     -2.6532482598      0.7950953920     -0.2511801065      0.1233654005      0.6324598690      1.6803559789
F       6.5804980282     -1.2767343228      0.2809971511      0.0790273846      0.1218882086     -0.0831561973     -0.5180683116
F       7.1116726869     -3.6231480458      0.5287308093     -0.0991507189      0.0367812022      0.0935872204     -0.5082566340
F       4.3688052405     -1.7276160974      1.1320087005      0.4390116261     -0.2524576587     -0.1426734573     -0.5532493071
C       6.4926120324     -2.1575392181      2.5565548598     -0.8392026923      0.2856825958     -0.8719407974      0.5570502831
C       5.2897284087     -2.7334078161     -1.1384274067     -0.2115131587     -0.5712700085      0.7359476990      0.5267865910
C       4.6952453372     -4.2732781879      1.3309923856      0.5341882402      0.9131230140      0.3024391069      0.5466422275
C       5.9131481066     -0.8831818112      3.2324436641     -0.0522613865     -0.6311930192     -0.6201422905      1.3898651287
C       4.4092229689     -3.7587110656     -1.9158356960      0.2667043256      0.4320823720      0.5068715853      1.3956917843
C       4.1914834622     -4.6877461557      2.7395826203      0.3210541607      0.5264616880     -0.5238670053      1.4338314566
F       7.8139111091     -1.9617997790      2.4466089024      1.3329951527      0.3038255568     -0.0186385326     -0.4389621049
F       6.3162239792     -3.1618408620      3.4382687499      0.0398655245     -0.8174039363      0.9830149794     -0.4627791202
F       6.4619060280     -2.7256681398     -1.7896346007      1.1169793570     -0.1997667034     -0.7488668302     -0.4320587015
F       4.6834679621     -1.5463603190     -1.4050409764     -0.5741698932      1.0770980546     -0.4853410960     -0.4610122431
F       5.2548752772     -5.3733410792      0.8071856583      0.5560307736     -1.1278790500     -0.1625102237     -0.4420326162
F       3.5247145455     -4.0612445290      0.6480218350     -1.0677517088     -0.0109729823     -0.3340820610     -0.4854991393
F       6.6282974487     -0.5560779029      4.3068733592      0.7982541394      0.1772624764      1.0573475399     -0.4511250541
F       4.6517950959     -1.0869446325      3.6418495144     -0.8790088050     -0.1791437776      0.4872813868     -0.4787187237
F       5.9003828948      0.1654496735      2.4155347709      0.1234642769      0.9553346874     -0.6952344439     -0.4532065938
F       4.6287830035     -3.6116477748     -3.2231508171      0.2267575241      0.1983879481     -1.2494295545     -0.4492580302
F       4.6382227026     -5.0235130858     -1.6077508432      0.3451804769     -1.0706306221      0.1627800024     -0.4450423239
F       3.1010683764     -3.5066057411     -1.7200099036     -1.0775114717      0.1309268781     -0.0616884707     -0.4823424746
F       5.1019541672     -5.3159790595      3.4602693932      0.8383979168     -0.6833856045      0.5207256388     -0.4409519884
F       3.1404529751     -5.5099679338      2.6126155503     -0.8562156803     -0.8953723459     -0.1699076660     -0.4676907132
F       3.7537945389     -3.6185606969      3.4204838654     -0.3885456757      0.7403832844      0.4845707597     -0.4827384987
