18
Properties=species:S:1:pos:R:3:forces:R:3:charge:R:1 energy=-90.25058177701808 homo_lumo=3.6444730416697984 dipole="-1.0749959669694162 -1.7935656596872889 0.8946050500792131" free_energy=-90.25058177701808
N      -0.1090117759     -0.0161503108     -0.1112021909     -0.1317543934     -0.1618777475      0.0969505065     -0.6127966100
C      -0.8247076853     -1.1755728527      0.4783189698      0.0122308797     -0.0267066420     -0.0149859783      0.1171581908
C       0.7553326754      0.6190629134      0.9222008390      0.0970197650     -0.0314622974      0.3630233083      0.0916546454
C      -1.0989822640      0.9815261939     -0.6038310996     -0.3817237963      0.0616406628     -0.0351729739      0.0901234976
C       0.7402116248     -0.4677900522     -1.2482394433      0.0876096003     -0.2943969115     -0.1840021793      0.0915983974
H      -0.0945646147     -1.8989453084      0.8380100783      0.2178989782     -0.1907384559      0.0973427335      0.0743959214
H      -1.4411049807     -0.8285526788      1.3060202319     -0.1599743781      0.1119282831      0.2224119453      0.0757202908
H      -1.4524939778     -1.6315886741     -0.2856326945     -0.1623529564     -0.1104304174     -0.2178833838      0.0747186540
H       1.2597125856      1.4701037027      0.4530967753      0.1701540864      0.3827428783     -0.3519032164      0.1405008698
H       0.1302645334      0.9533236371      1.7483530202     -0.2437834191      0.0363054362      0.2231645970      0.0489713583
H       1.4822552509     -0.1117693542      1.2718764778      0.1635306030     -0.2928704598      0.0853063939      0.0486189434
H      -0.5386776022      1.8200567867     -1.0295467893      0.3994545805      0.3430242473     -0.1723241242      0.1418142744
H      -1.7242990991      0.5137536006     -1.3621683184     -0.1656458786     -0.2251449334     -0.1853396025      0.0481129601
H      -1.7096917571      1.3157477953      0.2329830272     -0.1603497895      0.0188080139      0.2935994190      0.0489193126
H       1.2521130197      0.4136057110     -1.6475823703      0.1620917225      0.5056345290     -0.0939299605      0.1398327864
H       1.4620485733     -1.1960292369     -0.8827552209      0.1594268045     -0.2427757473      0.1840124663      0.0493179208
H       0.1026478859     -0.9179881192     -2.0068145109     -0.2430889762     -0.1501641450     -0.1672049853      0.0497913665
Cl      1.4881041139      2.6482746182     -1.4393369742      0.1792565677      0.2664837066     -0.1430649656     -0.7184527799
