73
Properties=species:S:1:pos:R:3:forces:R:3:charge:R:1 energy=-395.3824935070399 homo_lumo=5.279807222955819 dipole="-1.3675572234226823 0.3932585593981971 -3.134355607601112" free_energy=-395.3824935070399
N      -0.9624176291      1.1680551052      1.2329405987     -0.0500754001      0.1863531437     -0.2856718725     -0.4930134233
C      -1.0539844492      2.3647397261      2.1448970321     -0.1981378730      0.1505031300      0.5528762685     -0.0433181392
C      -2.3254782751      0.8771028871      0.6753445496     -0.5114761678     -0.2829901266      0.2954813188     -0.0041040415
C      -0.0819040466      1.5140069845      0.0603786424      0.6597333883      0.0546343633      0.1477840575     -0.0058382704
C      -0.4138897399     -0.0014381658      2.0043044977      0.1066492926     -0.5551621003     -0.3010948691     -0.1390221822
C      -2.1067973280      2.2116638607      3.2347649838     -0.2124880422     -0.0670926776     -0.4512084621     -0.2125831989
C      -3.3823065287      0.6660510662      1.7533366181      0.1753723544      0.4709252423     -0.1215904349     -0.1649422005
C      -3.4799942681      1.8971061714      2.6516985954      0.3405217529     -0.3004304784      0.0078684730     -0.1459056460
C       1.3785630292      1.7860660169      0.4104702117     -0.4680787498     -0.0021482093     -0.5741801901     -0.2491562804
C      -0.1826015964     -1.2790001662      1.2053862492     -0.0200844952      0.2895603153      0.5192775476     -0.2162033393
C       2.1504400353      2.1714135798     -0.8563614026      0.2214247364     -0.0770810090      0.7157717761     -0.1496169078
C       0.3707103140     -2.3427942139      2.1644200680     -0.0853041022     -0.1300897475     -0.7872468422     -0.1882647265
C       3.6235124427      2.4346495793     -0.5259443018     -0.2718719020      0.0583204844     -0.6597416637     -0.2088682008
C       0.6541872545     -3.6572947744      1.4336703455      0.0662502160      0.1296810301      0.6241398640     -0.1951193788
C       4.4124908422      2.8188926327     -1.7756046592     -0.1102562444     -0.1025680370      0.4532036481     -0.0437787049
C       1.2099498878     -4.7057479356      2.3957243183     -0.1500283254      0.1853984102     -0.4250452683     -0.0464833734
H      -1.2858261897      3.2261252377      1.5119053173     -0.0668275483      0.1681798150     -0.2566016440      0.0986669514
H      -0.0744358295      2.5059938561      2.6022233831      0.1744189702      0.0051289952      0.0285638013      0.2066176671
H      -2.2416384010     -0.0036618535      0.0359806118      0.1083953530     -0.1391257685     -0.1851939541      0.1358506733
H      -2.6006435698      1.7338692104      0.0530863001      0.0014516414      0.2187361102     -0.1469519306      0.1218993388
H      -0.5213455076      2.3986179046     -0.4092762239     -0.1814360049      0.1800003940     -0.0830009965      0.1189439949
H      -0.1497738832      0.6841850159     -0.6474320529     -0.0798410744     -0.1928767675     -0.1384659949      0.1324818457
H      -1.1128461223     -0.2039409895      2.8130723807      0.0170211669      0.0869264817      0.1213822664      0.2351912621
H       0.5230269823      0.3288027450      2.4492459265     -0.0202352703      0.0946758368      0.1545337158      0.2625598196
H      -2.1387115000      3.1555744074      3.7838707672      0.0963508118      0.1650672469      0.1780464916      0.1157837910
H      -1.8127830275      1.4348104166      3.9416701967      0.1004102821     -0.0192163913      0.1635529361      0.2039057102
H      -3.1554055339     -0.2216126806      2.3485043974      0.0184573796     -0.2748548658      0.1361896759      0.1100354523
H      -4.3349954585      0.4923027210      1.2460534731     -0.2398563522     -0.1566342242     -0.1610111230      0.0964013678
H      -3.8453666571      2.7489617143      2.0680463105     -0.1592196362      0.2297354033     -0.1631429731      0.0685551229
H      -4.1886446385      1.7080343774      3.4606474495     -0.2365534921      0.0263422715      0.1982394354      0.0871925322
H       1.4520789761      2.5991165216      1.1351390483      0.0551938244      0.1246133761      0.1516826515      0.1386453623
H       1.8383066465      0.8985100499      0.8478946804      0.1016954902     -0.1497202955      0.1257059402      0.1583011412
H      -1.1160829774     -1.6384690940      0.7619329953     -0.2281892171     -0.1624101708     -0.1573375417      0.0816000137
H       0.5361751932     -1.1125276717      0.3983773172      0.1961925689      0.0046158272     -0.2414537203      0.0898964242
H       1.7048999251      3.0686323494     -1.2997950797     -0.1013850800      0.2425073180     -0.1872216623      0.0730273955
H       2.0759095732      1.3619139632     -1.5907168492     -0.0072391520     -0.1896173735     -0.2589583231      0.0776320996
H       1.2916849581     -1.9702653737      2.6214387384      0.1247631189      0.0492613065      0.1920584130      0.1562871517
H      -0.3519255771     -2.5149077287      2.9676856554     -0.0789088165     -0.0356844260      0.2536798691      0.1117986290
H       4.0599917497      1.5355492973     -0.0794765262      0.0963931118     -0.2032471854      0.2036346488      0.0976279615
H       3.6903236486      3.2405186292      0.2117623694      0.0170080613      0.1443244169      0.2585877349      0.0952886696
H       1.3762347644     -3.4794599961      0.6290521837      0.1406291352      0.0492060881     -0.2571957209      0.0713621232
H      -0.2697026956     -4.0305075993      0.9777219362     -0.2283829616     -0.0860722372     -0.1869223823      0.0687736015
H       5.4541718377      3.0030806901     -1.5138236030      0.3582405444      0.0845029614     -0.0421406835      0.0395532407
H       4.3758732343      2.0164327900     -2.5136522022      0.0201912199     -0.2195626372     -0.2685342079      0.0270624523
H       4.0014995066      3.7238642222     -2.2251994127     -0.0886340256      0.2817966598     -0.1828623662      0.0267846052
H       1.4124674834     -5.6338192283      1.8609530719      0.1005954439     -0.3518088022     -0.0700165748      0.0276072514
H       2.1376823373     -4.3533793330      2.8474434113      0.2734750131      0.0692331199      0.1826028165      0.0399140526
H       0.4929505753     -4.9106180925      3.1914020904     -0.1705586596     -0.0849272252      0.2739454972      0.0360986116
P       1.1596917051      0.4593057700      5.7746947549     -0.0101515597     -0.1274040129     -0.4941066378      1.6821442209
F       1.4084571841     -0.8918472154      4.7945592481      0.0668100926     -0.0254883476      0.1683502838     -0.5415996515
F       1.7548908801     -0.3614801428      7.0852494033     -0.0009824257      0.1933068949      0.0255180237     -0.5155902407
F       0.5124780460      1.3335090101      4.4192935625      0.0693688222     -0.2442287571      0.4071871195     -0.5619742711
C       2.9683891905      0.9691445747      5.1696603971     -1.1291348864     -0.1486692473     -0.3099703856      0.5842063642
C      -0.6646504396     -0.2641746972      6.0061016274      0.9627265266      0.0575511459      0.5562444997      0.5270227389
C       0.8618899095      2.0373695785      6.9645074190     -0.0222196965     -0.3666537057     -1.0932423071      0.5985815395
C       3.1972155331      1.1627820996      3.6421283691     -0.5463854201     -0.0985604383      0.5396163126      1.3862363648
C      -0.9227523481     -1.3159590143      7.1147710089      0.4829638114      0.5430707793     -0.4526012476      1.4056611555
C       0.4455148208      3.3901768876      6.3313498164      0.1733863713     -0.8872672426     -0.1148364501      1.4046009736
F       3.8246849469      0.0108357712      5.5553211248      0.9312090180     -0.9761318568      0.2994916213     -0.4387856987
F       3.3900255242      2.1270708795      5.7097449540      0.6367929739      1.1482377374      0.3180383635     -0.4527165067
F      -1.0318972267     -0.8797718211      4.8514320690     -0.4916357941     -0.7425858502     -0.9477712242     -0.4791427344
F      -1.5596344838      0.7309085133      6.1650927045     -1.0462668521      0.7565514108      0.2213983257     -0.4648799238
F       1.9715837050      2.2658591060      7.6865517189      0.9814533673      0.3147624773      0.7367027941     -0.4453063022
F      -0.1000834375      1.7150603649      7.8522269639     -0.8253876390     -0.0394931239      0.9666756419     -0.4528576938
F       4.4956020427      1.2868861873      3.3773784500      1.3072223346      0.1154144501     -0.0922421700     -0.4517656712
F       2.5935911297      2.2725697974      3.1997607719     -0.2963156996      1.0529426034     -0.2460144874     -0.4756059282
F       2.7397958166      0.1485000228      2.8979689796     -0.1395240108     -0.9133413781     -0.5603066161     -0.4851766086
F      -2.2055536358     -1.6955885151      7.0875975449     -1.3039753064     -0.2936897954     -0.0997488554     -0.4593164429
F      -0.1766290099     -2.3965991266      6.9050868949      0.6592840992     -0.9866976830     -0.2701606432     -0.4467933042
F      -0.6627198668     -0.8481211599      8.3273681805      0.1659996522      0.4574531023      1.0320067505     -0.4428118589
F       0.4242071259      4.3645562900      7.2370662955      0.0201066928      0.8386465290      1.0360651721     -0.4503128438
F      -0.7773036926      3.3113200183      5.7930814209     -1.0420793284     -0.0156385568     -0.2563303305     -0.4706967527
F       1.2852300308      3.7518114223      5.3606308583      0.7909685718      0.4210038735     -0.7159809985     -0.4582492265
