29
Properties=species:S:1:pos:R:3:forces:R:3:charge:R:1 energy=-161.63932165328475 homo_lumo=5.149554007117448 dipole="-2.246608000947156 -0.876662695968577 0.8796388016927775" free_energy=-161.63932165328475
N       0.8977890145     -0.9883676940      0.3967074235      0.1502153929     -0.4561883108      0.1516223478     -0.5048457737
N      -0.0795636429      0.2528500568     -1.0646424580     -0.1351538887      0.2394318727     -0.3845437079     -0.5489082864
C       1.9427635808     -1.7769462954      1.0462687412      0.4891202076      0.2714828969      0.1570977287     -0.0074309558
C       2.9320205727     -0.8805780324      1.8002445259     -0.4490578021     -0.0105064779      0.1740962749     -0.2460568541
C       0.9600926943     -0.5492432572     -0.8566451324     -0.0563641034     -0.2430850314     -0.2174045150      0.6379271422
C      -0.2071439354     -0.4530033603      1.0042334348     -0.2783380281      0.0623566022      0.2123033522      0.1958620104
C      -0.8246178279      0.3307824150      0.0811011994     -0.1901099523      0.0808708550      0.2317522169      0.2264795605
C       2.3075905690     -0.1500466570      2.9841184710      0.1543414727     -0.2264569357     -0.3330547197     -0.0826521623
C      -0.3132820334      0.9929213134     -2.2943905139     -0.0870763417     -0.1131856066     -0.1105280813      0.1012099283
H       2.4734210774     -2.3207277265      0.2606550184      0.0115394480     -0.1309437200     -0.1428506387      0.1266396683
H       1.4596133687     -2.4899423648      1.7208668908     -0.1624607080     -0.1593505930      0.0893570672      0.0970942717
H       3.7388608293     -1.5294606580      2.1525405726      0.2404347614     -0.1977360885      0.0290381640      0.0837627104
H       3.3587499814     -0.1562268518      1.1043167371      0.1494754809      0.0219012299     -0.1166755459      0.2174321038
H       1.7220362954     -0.7937462777     -1.5756408445      0.2203958158     -0.0027889699     -0.1320766821      0.1386416344
H      -0.4721180851     -0.6780745429      2.0219259688     -0.0150520874     -0.0375554131      0.2420834800      0.0421244890
H      -1.7152717560      0.9305223321      0.1485838957     -0.1951370219      0.1410284120      0.0006736337      0.0296006008
H       1.7953902962     -0.8473103972      3.6496444992     -0.1576934660     -0.1820740344      0.3006719054      0.0117516411
H       1.5949865241      0.6015506766      2.6430959751     -0.1851669309      0.2825544915     -0.0407686876      0.0649717920
H       3.0902117597      0.3570647494      3.5476574764      0.1619525801      0.2103901419      0.2182462625      0.0583885170
H       0.6498840442      1.1884160935     -2.7649226538      0.2133463032      0.0971350191     -0.0394571538      0.1304687498
H      -0.9429232590      0.4041476852     -2.9630966390     -0.1772997301     -0.1204242484     -0.1496961321      0.0520104268
H      -0.8086939243      1.9314330956     -2.0523406241     -0.0606436631      0.2136936498      0.0827504154      0.0512478482
P       3.8719537790      1.0147159109     -1.5667884375     -0.0665809835      0.0181648304      0.0171126029      2.2109146032
F       2.5844415954      1.3001404077     -0.5194103064      0.0718275251      0.2232642019      0.0868421288     -0.5299856879
F       4.9101204176      1.2379527997     -0.3275044701      0.1288211221      0.0254634725      0.1454366172     -0.5025427375
F       3.7632374253     -0.6170731814     -1.1641917296      0.0718093867     -0.0796975348     -0.0948256207     -0.5360928037
F       5.0758479796      0.6814187307     -2.6003928468      0.1508129818     -0.0602742256     -0.1528682804     -0.4885525787
F       2.7377155804      0.7299202679     -2.7740723508      0.0084541362     -0.0472951495     -0.1668872630     -0.5356474579
F       3.8958161766      2.5948230226     -1.9528139816     -0.0064119073      0.1798246639     -0.0574471693     -0.4938123999
