25
Properties=species:S:1:pos:R:3:forces:R:3:charge:R:1 energy=-142.95066033123103 homo_lumo=3.6748621255066523 dipole="-1.5356476955236327 -0.16850431974746685 2.846217346940293" free_energy=-142.95066033123103
N       1.3446630262      0.1056827169      0.1131647891      0.4881840905     -0.1174531839      0.2219538556     -0.5429416541
N      -0.5747090329     -0.0217495788     -0.8480012628     -0.4527795541     -0.1912436682     -0.1589249702     -0.5323785631
C       0.6233714863     -0.5926113037     -0.7573608500     -0.1649145607     -0.2656615844      0.0640012794      0.6261225344
C       0.5984288911      1.1548987253      0.5771054743     -0.0981612240      0.2155181467      0.1137235119      0.2348213956
C      -0.6142912167      1.0745192077     -0.0298763223     -0.0598181649      0.1464467438      0.1172067859      0.2297658161
C       2.7594057869     -0.0951528253      0.3804395843      0.0990418445      0.0201075584      0.1518850705      0.0934702277
C      -1.5829804620     -0.3780973877     -1.8323280131     -0.0846418772     -0.0384974430      0.1463464909      0.0906247647
H       0.9612448598     -1.4460931956     -1.3195565763      0.0668938317     -0.0987342048     -0.1028580369      0.1122313210
H       0.9891145307      1.8655341853      1.2840817743      0.1155147137      0.1719784542      0.1431233588      0.0411707083
H      -1.4855319337      1.7012602602      0.0452864563     -0.1943674899      0.1548772200      0.0034918932      0.0397387837
H       3.0484843030     -1.0798420961      0.0201954936      0.0912239283     -0.1675593503     -0.0177790802      0.0715480633
H       3.3190909833      0.6683746228     -0.1628470436      0.1004257947      0.1120824735     -0.1608380774      0.1104662477
H       2.9432956859     -0.0097031376      1.4505390078     -0.0314215843     -0.0472804692      0.2904934120      0.0661871042
H      -2.5003164372     -0.6870897232     -1.3310583030     -0.1916987751     -0.0942721529      0.1645547081      0.0749761625
H      -1.7692013080      0.4909272364     -2.4629402337      0.0321235183      0.1371076291     -0.2018600901      0.0858766082
H      -1.1943484106     -1.1887269194     -2.4450882332      0.0533816886     -0.1171478883     -0.1699511390      0.0890212229
N       3.0296963183      0.8543296159     -4.4297768807      0.0126642131     -0.0532418195     -0.0545996406     -0.8551067750
S       2.5635996313     -0.1492931295     -5.6076788650      0.2426479848      0.4565467056     -0.2972137547      1.9277174723
S       2.2192995312      0.7255852856     -3.1058980218      0.4376205891      0.4013761634     -0.0073254830      1.9818235855
F       1.1751637237      0.5180174288     -6.0923256461     -0.7436238331      0.3873643124     -0.2120582001     -0.4588560198
F       2.7868142190     -0.6792750803     -2.3911322091      0.3544761236     -0.5782026779     -0.0491737289     -0.4994291725
O       3.4556043949      0.0272886349     -6.6992918063      1.0498201572      0.3447816364     -1.2355655280     -0.7138162562
O       2.2037320923     -1.4641541032     -5.1893770799     -0.5302301962     -1.4692784029      0.7045451039     -0.7281105958
O       0.8031211332      0.4626872884     -3.1858824578     -1.0864231778     -0.2914921549     -0.3773184421     -0.7758633360
O       2.6498331642      1.7189693451     -2.1648558101      0.4940619591      0.9818779567      0.9241407009     -0.7690596458
