25
Properties=species:S:1:pos:R:3:forces:R:3:charge:R:1 energy=-140.93643835631664 homo_lumo=0.47029768062542354 dipole="-6.929972175640212 2.39206010357219 -1.5519592353543015" free_energy=-140.93643835631664
N       1.0742547329      0.0336789453     -0.0093718626     -0.9671204092     -0.6759279721     -0.0537772724     -0.5405098300
N      -1.1468757670      0.0282953327     -0.0034554948      0.6790771219     -0.7034867137     -0.0086072159     -0.5604435741
C      -0.0345345330     -0.7308167330     -0.0157812901      0.1866156650     -1.3118358390     -0.0170020928      0.5971700680
C       0.6516746415      1.3129589896      0.0085362119     -0.8792380149      1.4347212570      0.0154829497      0.2567448058
C      -0.7287789948      1.3096838459      0.0112631419      0.7596020125      1.6148479061      0.0244127808      0.2408799336
C       2.4560935339     -0.4244819590     -0.0231931627      0.8347660838     -0.4365353284      0.0189018520      0.0401807782
C      -2.5281139387     -0.4351718620     -0.0086894815     -0.6227882246     -0.2691385408      0.0025221461      0.0609658423
H      -0.0316685556     -1.8141999429     -0.0294078454      0.0279057102     -0.0273241441      0.0111684062      0.1144376440
H       1.2974067975      2.1815822119      0.0162066232      0.2291667549     -0.0885256922      0.0080991947      0.0715715262
H      -1.3772413877      2.1760021036      0.0215163709     -0.2297093240     -0.0829209345      0.0078522743      0.0638374805
H       2.4921366334     -1.5335570577     -0.0630341642      0.0253760404      0.4735858006      0.1105863212      0.1200205616
H       2.9777082152     -0.0170739312     -0.9143612942     -0.2654643244     -0.1270201390      0.3088976355      0.1006905423
H       2.9743866885     -0.0780648974      0.8955793126     -0.2071469026     -0.2163732005     -0.3149397755      0.1205948469
H      -3.0492293349     -0.0658017075      0.8991399930      0.2551035813     -0.1155886378     -0.2860953633      0.0983706455
H      -3.0470126973     -0.0509564619     -0.9116113763      0.2521372153     -0.1168358488      0.2875069282      0.0967447049
H      -2.5662549881     -1.5454755676     -0.0178255360      0.1556058115      0.4919703644      0.0086665152      0.0953716193
N       7.3332735576     -1.8781393100      1.3181471464     -0.5960041354      0.2256831130     -0.2491375851     -0.8541198373
S       8.8236794220     -2.3888721288      1.7571939580      0.9248254739      1.7322628925      4.7394118223      1.8456182439
S       6.0153602483     -2.8235236547      1.5311515610      1.1678030199     -2.7863675442     -4.0163562929      1.8505569744
F       9.3404425192     -3.5650152275      0.6829891982     -0.3174976808      0.6114729367      0.2442581417     -0.4425458765
F       5.5525297268     -2.7691931394      3.1395610790     -0.0175636727      0.2253120993     -0.5477503578     -0.4472583364
O       9.7803971590     -1.2310445041      1.7317673409     -1.4979798463     -1.8508405270     -1.5917019611     -0.7118310890
O       8.7759031654     -2.9765738780      3.1395396832      0.0322968681     -0.3608937808     -2.3835196795     -0.7196084764
O       6.3326467144     -4.2446756363      1.1593920879     -0.6048357876      1.6597494883      1.6880274735     -0.7157218804
O       4.8939338562     -2.3169614255      0.6725485048      0.6750669642      0.7000089851      1.9930931548     -0.7817173172
