36
Properties=species:S:1:pos:R:3:forces:R:3:charge:R:1 energy=-196.231061785394 homo_lumo=4.708481870246023 dipole="-3.060176594970596 1.2067844427787797 -0.9305234308671961" free_energy=-196.231061785394
N       1.3056328233      0.7022676120     -0.3817207474      0.0069896922      0.0039067627      0.0023234502     -0.5541887674
C      -0.1969325636      0.8436121585     -0.4905633156      0.0068059674      0.0012226625      0.0034320436      0.0166528400
C       1.4687811826     -0.7422660626      0.0729651133     -0.0004537486     -0.0020021719     -0.0003526421     -0.0348196409
C      -0.7516156211      0.1037960940      0.7229309146      0.0046493864     -0.0002766106      0.0033616072     -0.1556942736
C       0.3180270183     -0.9722092117      1.0551573941     -0.0037156405     -0.0012163312      0.0002870828     -0.1611280533
C       1.8566435165      1.6333339664      0.6577183247      0.0080119178     -0.0023419804     -0.0002866957      0.0369455653
C       1.9751672942      0.9773679722     -1.6904260016      0.0019773705     -0.0032550409      0.0012854510      0.0545023826
H      -0.4806679626      0.3472432859     -1.4308793494      0.0025061674     -0.0032602606      0.0052794146      0.1334903843
H      -0.4540941449      1.9101515141     -0.5530281878     -0.0057231728     -0.0031334932      0.0064804914      0.1105639404
H       2.4708962162     -0.8924182936      0.4957034130     -0.0048663063     -0.0113455654      0.0032166907      0.2450160023
H       1.3829812558     -1.3573217363     -0.8334924898     -0.0074574536     -0.0033695488      0.0005439374      0.1328682535
H      -1.7322804444     -0.3328592752      0.4866137273      0.0033488510     -0.0022099541     -0.0017744972      0.1060444379
H      -0.9007695457      0.7910403407      1.5687782910      0.0083511790     -0.0035289140      0.0057788209      0.0930914254
H       0.6653626234     -0.8794056488      2.0932795159     -0.0082970053      0.0045922356     -0.0014012305      0.1155191864
H      -0.0714247649     -1.9927631424      0.9374218800     -0.0049367319     -0.0007746496     -0.0044870409      0.1096049768
H       1.6055323475      2.6624273790      0.3685314559      0.0044469775     -0.0016149717     -0.0008640525      0.0654264876
H       1.4185502715      1.3905847330      1.6313502058      0.0081108169     -0.0000013115      0.0013319306      0.1085593361
H       2.9449124056      1.4974433262      0.6892024033      0.0096757072     -0.0000694112     -0.0026046816      0.1767674391
H       1.6283539799      0.2375457012     -2.4218392582     -0.0025890228      0.0029548820     -0.0055122438      0.0716593693
H       1.7005327052      1.9928210887     -2.0066661802      0.0076381195     -0.0009040412      0.0066433767      0.0731210348
H       3.0599869345      0.8889359034     -1.5569832323      0.0011405795     -0.0103091855     -0.0038292668      0.1784080241
N       4.6898373067     -1.5376952213      0.9298836743      0.0069576893      0.0114754954      0.0116656330     -0.8699669854
S       5.3777400533     -1.2994100416      2.3792687803     -0.0090733115     -0.0111407833     -0.0208639453      1.6272892897
S       5.0893481996     -0.7088946228     -0.3891581134     -0.0102686653      0.0006704258      0.0073684936      1.5763730853
C       4.3014540384      0.0349206553      3.1907188386      0.0097439829      0.0001356250      0.0137030609      1.1571675659
C       6.8997270904     -1.1098276268     -0.8491317668      0.0045072873      0.0051491838     -0.0054620896      1.1826466094
O       5.0864902897     -2.4640531731      3.1975992281     -0.0115934293      0.0079293026     -0.0056347704     -0.7145454681
O       6.7056071048     -0.7036276829      2.3395991758     -0.0143446384     -0.0106839694      0.0103413446     -0.7207548245
O       5.0533412469      0.7556676734     -0.2462609401      0.0033958754      0.0012142049     -0.0095178036     -0.7630796636
O       4.3064800665     -1.2902280802     -1.4830802548      0.0034839435      0.0062939222     -0.0051918086     -0.7584362704
F       4.6196058594      0.1412365034      4.4986159891     -0.0178036242      0.0053143939      0.0008547952     -0.4309693519
F       2.9691705650     -0.2867492057      3.1091175927     -0.0079645733      0.0008999454     -0.0010041121     -0.4731067719
F       4.4583246150      1.2538579570      2.6156653313     -0.0063407165      0.0017407342      0.0099650841     -0.4497300514
F       7.0064504880     -1.0330087263     -2.1992458244      0.0076494624      0.0008718096      0.0000353127     -0.4355292141
F       7.2232906170     -2.3596932789     -0.4579020316      0.0050360460      0.0173499104     -0.0099707635     -0.4291820647
F       7.7565760069     -0.2306538415     -0.3046347951      0.0010010212     -0.0002833014     -0.0151403772     -0.4205862349
