49
Properties=species:S:1:pos:R:3:forces:R:3:charge:R:1 energy=-275.74205388692855 homo_lumo=3.976023876195611 dipole="-1.296989746420863 -0.468876370057409 -2.791357630472453" free_energy=-275.74205388692855
N      -0.7895403661     -1.8440216207      1.1482452084     -0.3688973019     -0.0880232579      0.2131168886     -0.5126090150
N       1.2635839281     -2.0158833857      0.5337532463      0.4291431376     -0.2007873431     -0.0468437810     -0.5101532853
C      -1.9722140506     -1.6057205061      1.9703270085     -0.3122872321      0.4047709507     -0.1095936615     -0.0273178819
C       2.7223098449     -1.9754637169      0.5750619302      0.3156636520      0.3867698657     -0.2246260213     -0.0288567355
C      -2.5328158572     -0.2050556368      1.7064820916      0.5977792706     -0.0505733389      0.3368658847     -0.1838673153
C       3.2287102620     -0.6087582645      0.1044012007     -0.4445658364     -0.0360483042      0.4383408227     -0.1811997048
C       0.4679353204     -1.8468680126      1.5855261252      0.0208737844     -0.1176564896      0.3225585795      0.5485210901
C      -0.7951215206     -2.0063239118     -0.2120328235     -0.1484879040      0.0080130095     -0.2863194053      0.2048814434
C       0.5027965875     -2.1129785694     -0.5998153398     -0.0573095370     -0.0005291856     -0.2638561260      0.2126499050
C      -1.5587815154      0.8992554100      2.1276264333     -0.6032608311      0.0396398525     -0.2764952405     -0.2868443211
C       2.6142503246      0.5458848826      0.9017637267      0.5180683111     -0.0495015900     -0.3494862666     -0.3033292732
C      -2.1248537221      2.2829751559      1.8203109704      0.2627539223     -0.3733696038      0.0747770649     -0.0492621775
C       3.2900222648      1.8726161512      0.5658612545     -0.3304171999     -0.3365894223      0.1252112807     -0.0472741315
H      -2.7152436418     -2.3683620508      1.7212407813     -0.0810564113     -0.2669187781     -0.0149931715      0.0934253216
H      -1.6783711883     -1.7170240659      3.0154147571      0.0357262836     -0.0712727848      0.0856111919      0.1778151072
H       3.0270341607     -2.1662384537      1.6059053447     -0.0470818460     -0.0827781050      0.1902191717      0.2020113821
H       3.1026563025     -2.7710380929     -0.0706525022      0.0112002647     -0.2716299259     -0.0855367869      0.0861471171
H      -3.4637973851     -0.1125286131      2.2731937800     -0.3072723822      0.0114790501      0.1081086014      0.0934233308
H      -2.7747320032     -0.1090050955      0.6429652479     -0.1598320130      0.0432353790     -0.2960616857      0.0902765299
H       3.0111262996     -0.4857228934     -0.9616588862      0.0236097854      0.0649960300     -0.3399768050      0.0778514596
H       4.3149155208     -0.6084525100      0.2313929586      0.2991007260     -0.0127029041     -0.0234081693      0.1041475565
H       0.7928016311     -1.7393485420      2.6085234936      0.1726977869      0.1189797712      0.2059935289      0.2334513159
H      -1.7069306560     -2.0388987961     -0.7821866641     -0.2132820156     -0.0071309252     -0.1262589456      0.0356627847
H       0.9388304528     -2.2546872269     -1.5731606949      0.1109869725     -0.0357327382     -0.2241266951      0.0351921741
H      -1.3580971121      0.8162614451      3.1984832714      0.1479895315     -0.0379408896      0.1425294348      0.1563784250
H      -0.6083629582      0.7687056305      1.6008937667      0.2452702749     -0.0031581860     -0.0169404595      0.1699235788
H       1.5446478034      0.6152054760      0.6773333237     -0.2714571013      0.0243672177      0.0189374373      0.1315421835
H       2.7166592610      0.3466652324      1.9711324184     -0.1224252093     -0.0289948627      0.1460985834      0.1975008843
H      -3.0632676589      2.4400069514      2.3534134762     -0.2991319983      0.1060153193      0.1460124377      0.0262954202
H      -2.3084243659      2.3958451711      0.7505756894     -0.0894471065      0.0981540065     -0.3248883625      0.0153353328
H      -1.4146016097      3.0470467681      2.1346431520      0.1493445084      0.3134668807      0.0746864845      0.0477908234
H       3.1897220032      2.0994803590     -0.4967901806      0.0048362105      0.1260179370     -0.3261074790      0.0152363093
H       4.3506577097      1.8340648056      0.8161085253      0.3256583701      0.0294996497      0.0735836551      0.0293451055
H       2.8271617533      2.6749967726      1.1396253146     -0.0759578529      0.3167915868      0.1427011367      0.0434133421
N       2.3901079598     -0.6596005451      5.7602746861     -0.0626733201     -0.1521619806     -0.2013338524     -0.8340008536
S       3.2380814045     -1.6682946589      4.8506575228      0.1091974254     -0.0797240165      0.3025610755      1.6254521203
S       1.0833215106      0.0068384524      5.1392308073      0.0789381822      0.1262642976      0.0816184172      1.6479860461
C       4.5557039961     -0.5935119425      4.0505788237     -0.6809734868     -0.3171756104      0.4723267619      1.2041182562
C      -0.3071433498     -1.2018002600      5.4928546022      0.9217599548      0.5897689598     -0.0719345050      1.1976007254
O       3.9716744024     -2.5491749676      5.7128261852      0.7193946815     -0.6793074505      0.6908031712     -0.7167601617
O       2.5359526895     -2.2568949326      3.7178211788     -0.4284471104     -0.2640524876     -0.7401778607     -0.8031223709
O       1.0330930034      0.1320849781      3.6883575939     -0.0192407868     -0.0770123169     -0.6569580322     -0.7960094953
O       0.7446391690      1.1602730107      5.9212324264     -0.4044447400      0.9276384380      0.8016335166     -0.7263974110
F       4.8630528025     -1.0877791327      2.8501515077      0.4098562208     -0.5450543213     -1.1622942572     -0.4637188162
F       5.6482468857     -0.5679256907      4.7883060185      1.1127443072      0.0224774409      0.7788984248     -0.4279811448
F       4.1195697689      0.6458170840      3.8854491341     -0.4179510067      1.3626769576     -0.1901888494     -0.4485717934
F      -1.4753817908     -0.6184929238      5.2267629679     -1.2073182476      0.6914330636     -0.1910536318     -0.4612650180
F      -0.3078917957     -1.6098199024      6.7449911666      0.0162952357     -0.3871958572      1.2883348782     -0.4257222033
F      -0.2100640898     -2.2681510609      4.6939391530      0.1143296776     -1.2394329878     -0.7120683786     -0.4691119617
