28
Properties=species:S:1:pos:R:3:forces:R:3:charge:R:1 energy=-154.88860579524592 homo_lumo=0.38350428353395 dipole="-4.194328139517446 0.9275165944422032 3.0404181119262086" free_energy=-154.88860579524592
N       0.5721103103     -0.0027652836     -0.0034289583      0.5514215514      0.0482114228      0.1379048312     -0.5720471014
C      -0.3106869425      1.0780528005     -0.5221798743     -1.0647952140      1.8155463218     -1.0737171628      0.0186927975
C      -0.3278858320     -1.0647451650      0.5239526538     -1.0795453054     -1.7566241942      1.1322545520      0.0198177040
C      -1.7322581604      0.7609701940     -0.0939901994     -0.4367684468      0.5589585062      0.4493187963     -0.1548569086
C      -1.7409017233     -0.7358469358      0.0798642571     -0.4407931167     -0.5490529034     -0.4655884850     -0.1559939332
C       1.4457454195      0.5160928314      1.0758944195      0.8407852784      0.5547982503      1.1373500206      0.0180225737
C       1.4225771189     -0.5414160155     -1.0911157592      1.0897100635     -0.6729624940     -1.3474162017     -0.0083841136
H      -0.2959325467      1.1313453498     -1.6361249532      0.4763726760     -0.3463481391      0.4752742340      0.1585489726
H      -0.0234558321      2.0906549116     -0.1556308117      0.3022251616     -0.6057547176     -0.1044003413      0.1395929724
H      -0.3233389002     -1.0993864103      1.6387840189      0.4243116090      0.3113864446     -0.4564032478      0.1390470566
H      -0.0501903935     -2.0865266156      0.1757567783      0.3379809151      0.6273046299      0.0654256431      0.1514342593
H      -2.4750366718      1.0878314760     -0.8537599812      0.2589028446      0.0885267575      0.3841570479      0.1081495789
H      -1.9502391751      1.2531486819      0.8797616149     -0.0767327613     -0.0532718638     -0.3241515305      0.1017650242
H      -2.4947635064     -1.0558025045      0.8317319739      0.2627431564     -0.0875835101     -0.3957332066      0.1050328499
H      -1.9523336224     -1.2267417664     -0.8959326172     -0.0582390999      0.0571124425      0.3267309935      0.1136668048
H       2.1377652484      1.2968227494      0.6876269125     -0.3369673125     -0.4252823170     -0.0927105889      0.1320218938
H       0.8410786767      0.9727880616      1.8917785579      0.0257776628     -0.2633125410     -0.4600915023      0.0987179798
H       2.0590737289     -0.3015379782      1.5168360826     -0.3236683413      0.2060386407     -0.3840671405      0.1306064666
H       0.8005077361     -0.9569240258     -1.9155086706      0.1147481598      0.2580932830      0.4394012766      0.1127163233
H       2.0734930492      0.2550209180     -1.5172731592     -0.2401650863     -0.3561511469      0.2091674001      0.1472906988
H       2.0750388049     -1.3600668320     -0.7147063685     -0.2024807484      0.4481637831     -0.0823357462      0.1442603352
C       5.0902350925     -1.0237833546     -3.2465686524     -0.0916194907      0.0647286007     -1.8496610205      0.8103849098
O       3.9108546608     -1.2896697488     -3.4170157591     -4.5385656170     -0.8975817666      1.8134909329     -0.8085490932
O       5.8099221857     -0.8302126798     -4.2132800820      3.6261962516      0.8651680824     -0.9882398006     -0.7579523866
C       5.6595031931     -0.9337539996     -1.8612814354      0.3575133580     -0.1061542212     -0.7592711461      1.2243071471
F       6.6757033400     -1.8606211070     -1.7182114969     -0.3286770171      0.5320667766      0.7157029401     -0.4592828229
F       4.6834548111     -1.1883174389     -0.9143291875      0.5798279213      0.1702654911      0.7673612159     -0.4909762217
F       6.1677956476      0.3351878231     -1.6526893606     -0.0294990519     -0.4862896184      0.7302472368     -0.4660337672
