28
Properties=species:S:1:pos:R:3:forces:R:3:charge:R:1 energy=-156.86981013357885 homo_lumo=3.503626081017577 dipole="-1.0722722822952777 -2.3569577997330415 1.6925545772729194" free_energy=-156.86981013357885
N       0.5803136803      0.2516600994     -0.1176468347      0.0037656213     -0.0025399835     -0.0013251115     -0.5375161370
C      -0.5017891734      1.3309094499     -0.3535522432      0.0098466304      0.0034478792     -0.0022918052      0.0031077370
C      -0.1581000467     -0.9176821213      0.5036218300      0.0089027926      0.0005205442      0.0058490000      0.0292531062
C      -1.8373082712      0.6621190617     -0.0188134172     -0.0003251306      0.0030722856      0.0005992817     -0.1518383218
C      -1.5481499740     -0.8409889280     -0.0983829891     -0.0024026401     -0.0005917383      0.0048957284     -0.1597241940
C       1.6671240955      0.7631321245      0.7773514562      0.0085994386      0.0067938353     -0.0013973368      0.0572562852
C       1.1870269259     -0.1558788880     -1.4334569928      0.0062760914     -0.0021337146     -0.0057434054      0.0225762076
H      -0.4054184676      1.6564875374     -1.3942100472      0.0015222770     -0.0029385343     -0.0000482619      0.2190064306
H      -0.2573957764      2.1943202430      0.2758168498      0.0042051165      0.0031142137     -0.0050039841      0.1325479593
H      -0.1968776958     -0.7371979132      1.5892097933      0.0048828900      0.0008715381      0.0053121939      0.1285396190
H       0.4041443132     -1.8401883490      0.3046426456      0.0000683383      0.0034634462      0.0011334560      0.1107898266
H      -2.6297445359      0.9856595378     -0.7082214220      0.0030938176      0.0027797420     -0.0027483933      0.0924674020
H      -2.1543870061      0.9204970877      1.0049091560      0.0035494387      0.0071626450      0.0017906721      0.0916445179
H      -2.2701251608     -1.4545073692      0.4590072132     -0.0016492097      0.0033238666      0.0132704400      0.0938097072
H      -1.5425043420     -1.1915846912     -1.1430232102     -0.0023189741     -0.0000840704      0.0044215432      0.1066765174
H       2.1278014505      1.6248585205      0.2676350747      0.0004791711      0.0041346730     -0.0109492472      0.1543002219
H       1.2152836284      1.0590914768      1.7330048833      0.0034675386      0.0086427705     -0.0029328609      0.0580373013
H       2.3923608645     -0.0459432508      0.9379122106      0.0034778317      0.0008756296     -0.0004939299      0.0741286943
H       0.3920178063     -0.5334721612     -2.0863179962     -0.0058314961     -0.0118997132      0.0043543236      0.0762234351
H       1.6388320430      0.7631086247     -1.8523949038     -0.0044737772     -0.0048672266     -0.0043532421      0.1997752075
H       1.9332171535     -0.9369501324     -1.2387914196      0.0071759650     -0.0100833680      0.0109823941      0.0518367337
C       1.8081866977      3.5279209052     -2.4213157933     -0.0173685602     -0.0164152067     -0.0078820666      0.9050364261
O       1.8566654081      2.6525390462     -1.5000873139     -0.0155089871     -0.0138444069      0.0057124202     -0.8602643631
O       2.2336378568      4.6834986518     -2.4826188849      0.0013697880      0.0255565635      0.0038023486     -0.7190744031
C       1.0293649554      3.0074841958     -3.6891253590     -0.0009218455     -0.0000398563      0.0061884209      1.2295937472
F       1.0590017710      3.8475620032     -4.7480793097     -0.0109611506     -0.0017923515     -0.0133015365     -0.4476703080
F      -0.3162228012      2.7947986576     -3.3932819983     -0.0066231753     -0.0052353765     -0.0060634478     -0.4854093622
F       1.4988535881      1.7864222620     -4.1346380671     -0.0022978004     -0.0012940856     -0.0037775936     -0.4751099937
