28
Properties=species:S:1:pos:R:3:forces:R:3:charge:R:1 energy=-157.15953534901462 homo_lumo=3.913066405133787 dipole="-1.9614763375432345 1.0163071447797036 -1.8062745340442223" free_energy=-157.15953534901462
N       1.0878490657      0.4555675168     -0.0488993867      0.0011260074      0.0000856920      0.0005243604     -0.5466660963
C      -0.0840065967      0.8854140706     -0.8961995900      0.0045804541      0.0001440073      0.0040014875      0.0277376779
C       0.7672812714     -0.9960477214      0.2704428553      0.0007058522      0.0036704034      0.0018584330     -0.0203987245
C      -1.3042931990      0.2326801222     -0.2448827737      0.0060058079      0.0004218055      0.0011052239     -0.1551665045
C      -0.7425370312     -1.0065603934      0.5081243622      0.0050382587      0.0035222408     -0.0027461333     -0.1583401409
C       1.1529692016      1.2505586676      1.2247266942      0.0083660974     -0.0010125547     -0.0005405289      0.0548739626
C       2.3964766471      0.5806844901     -0.7618253881     -0.0020897539      0.0010437271      0.0030022967      0.0480263325
H       0.1022921212      0.4804347135     -1.9021712674     -0.0030958672      0.0006739109     -0.0001489755      0.1258510447
H      -0.1114826141      1.9830172875     -0.9475939305     -0.0015602156     -0.0059645130     -0.0043645763      0.1058040872
H       1.3858353480     -1.2947303858      1.1446954081     -0.0017935887     -0.0039648014     -0.0025600494      0.2297867185
H       1.0447421740     -1.5665671957     -0.6284060099     -0.0012832537     -0.0008760173      0.0018132860      0.1007226148
H      -2.0430070882     -0.0388478024     -1.0125697533      0.0005913525     -0.0016947908      0.0015604045      0.1000725785
H      -1.8000659060      0.9270302491      0.4490747423      0.0002371283     -0.0009070772     -0.0005214615      0.0905665248
H      -0.9648564270     -0.9487567486      1.5838143586      0.0015576286      0.0027669249      0.0005329937      0.0990366241
H      -1.1770386571     -1.9464744344      0.1395338228     -0.0003399645      0.0034262773      0.0003584292      0.1022990950
H       1.3400338106      2.2996931819      0.9609664380     -0.0005424449     -0.0030240165      0.0009297563      0.0551639636
H       0.2010226747      1.1527008543      1.7579094007     -0.0041258283     -0.0034281953     -0.0002761089      0.0874491978
H       1.9731335817      0.8304318986      1.8247131693     -0.0033704045     -0.0000504915     -0.0021690263      0.1864680537
H       2.3547572099     -0.0370049411     -1.6681325569     -0.0005402599      0.0057409967      0.0004036774      0.0458788469
H       2.5459523428      1.6362264666     -1.0267636340     -0.0018662462     -0.0032730159      0.0028426413      0.0606273781
H       3.1776455012      0.2326231472     -0.0555161853     -0.0010917434      0.0015294749     -0.0034076353      0.1847225974
C       3.6026144378     -1.0451952182      2.4907199889      0.0112123365     -0.0114719661      0.0122129221      0.8845028885
O       2.4130382305     -1.3426239976      2.7694900437     -0.0212161838     -0.0141535654     -0.0033985318     -0.8145549317
O       4.0594819988     -0.2738107104      1.6099394221      0.0082248910      0.0128997692     -0.0100269671     -0.8183180160
C       4.6620870995     -1.7414276162      3.4113676055     -0.0054880375      0.0047163627     -0.0042558365      1.3013359938
F       5.9479375550     -1.5596889253      2.9995979697     -0.0001832243      0.0083136607     -0.0054601611     -0.4567769856
F       4.4547026710     -3.0937714098      3.4792783110      0.0033652666     -0.0037028462      0.0045573922     -0.4600383436
F       4.5821143753     -1.2577947536      4.6937250334     -0.0024240650      0.0045685979      0.0041726879     -0.4606664370
