51
Properties=species:S:1:pos:R:3:forces:R:3:charge:R:1 energy=-275.9143250515204 homo_lumo=1.8430331791655572 dipole="-8.790464088647283 -3.5009216558010166 0.5367861204136574" free_energy=-275.9143250515204
N      -0.5560499901      0.0965855287     -0.0983058561      0.0933531515     -0.1485195564     -0.3032195115     -0.5241423725
C      -1.5546024550      0.5481261631     -1.1219580481     -1.4339063247      0.5475296233     -1.0075605210     -0.0329874042
C      -0.9003351908     -1.3000464247      0.3274231624     -0.6744290025     -1.5612023720      0.7721023067     -0.0373546504
C       0.7810724468      0.0737401237     -0.7869451804      1.8177399567     -0.1039318220     -0.3301421064     -0.0498665820
C      -0.5419874196      0.9993166830      1.1057867757      0.1340776742      1.2858484870      1.2208964681     -0.0995912953
C      -3.0171432612      0.4548286055     -0.6559898525      0.0465914957     -0.0390141896      0.0459126483     -0.1809114713
C      -2.3551383453     -1.4704847633      0.8100608160     -0.0525447459      0.1477847875     -0.0615297390     -0.1701139694
C      -3.3502745137     -0.9714056169     -0.2323411239     -0.2976860878     -0.0437741922      0.1281761133     -0.1689414367
C       1.9912841339     -0.3034067775      0.1027860690     -0.4005828676      0.1395991057     -0.1058427010     -0.2284882333
C      -0.1231808746      2.4574300653      0.8432548306      0.0217662644     -0.1923196824     -0.2291136739     -0.1333034391
C       3.2811654386     -0.3449675082     -0.7262268462      0.0033867976      0.0464159140     -0.1374505946     -0.2143657144
C       4.4721530720     -0.7668658878      0.1289113563      0.1389003706     -0.0391647815      0.0445545698     -0.1016908420
H      -1.4699157837     -0.0789065147     -2.0407174451      0.3736264807     -0.0158799551      0.5465247042      0.1559064010
H      -1.3517813203      1.5856834704     -1.4600900999      0.3577350457     -0.3206998294      0.3866994269      0.1636447139
H      -0.2472029101     -1.6356907260      1.1611842722      0.1006845822      0.4702151720     -0.4227307533      0.1650119955
H      -0.7410789939     -2.0146651180     -0.5131001264      0.1227855811      0.6224945698      0.0518405392      0.1504001697
H       0.9917816112      1.0585761158     -1.2605236514     -0.4105247712     -0.1805399675      0.3340083461      0.1663964464
H       0.7558189086     -0.6491497890     -1.6355031694     -0.4391657443      0.1625221143      0.4126742760      0.1549301883
H      -1.5369195686      1.0429934545      1.5889544880      0.0649070595     -0.3974994330     -0.5022397456      0.1802039158
H       0.1244706245      0.5876763655      1.8943186162     -0.0703427307     -0.2632854402     -0.6062826906      0.1667222630
H      -3.6831472499      0.7399630997     -1.4989507777      0.3481218818      0.1063706063      0.1564462280      0.1276009809
H      -3.2237615347      1.1661203043      0.1699138073      0.0584347734     -0.1075010146     -0.1686065771      0.1136917838
H      -2.5166710676     -0.9459005881      1.7746616191      0.0797897884     -0.1186998208     -0.1707362482      0.1112392968
H      -2.5478148888     -2.5491297785      0.9970443540      0.3074151928      0.2671834029      0.0417050310      0.1298611990
H      -4.3776222544     -1.0030054304      0.1900475127      0.2367612977     -0.0970274353     -0.2100740115      0.1087319773
H      -3.3215732445     -1.6393918124     -1.1214181589     -0.0554036089      0.1438161652      0.1804889559      0.1008470368
H       1.8430508570     -1.3031376406      0.5583605664     -0.0095677639      0.2172457307      0.0093997824      0.1196013418
H       2.1290936213      0.4440771434      0.9108751605     -0.0546069910     -0.2207870324     -0.0938448963      0.1325134058
H      -0.1274860829      3.0079063783      1.8078154514     -0.0263465966     -0.2767567940     -0.2403755274      0.1017803407
H       0.9032235958      2.5304703076      0.4332121522     -0.2957294753      0.0618995230      0.0673524418      0.0947027964
H      -0.8396501944      2.9740949787      0.1746453863      0.2692728384     -0.0866793671      0.1266004803      0.0739943148
H       3.4832462605      0.6607728759     -1.1555043151     -0.0739887070     -0.2538983932      0.0053416097      0.1208332012
H       3.1703137981     -1.0693632092     -1.5624657147     -0.0530509065      0.2528274670      0.0731844350      0.0905703723
H       4.3185123497     -1.7931427411      0.5246587235      0.1001252424      0.2666452401     -0.0539225940      0.0408717629
H       4.6053082149     -0.0642674765      0.9789761861      0.1009736683     -0.2638066396     -0.2612888735      0.0708755315
H       5.3938495302     -0.7594822261     -0.4903134716     -0.2284811460      0.0115210339      0.3419420799      0.0907956422
N       8.9457288153      2.9311208461     -0.6167598915     -0.1239626477     -0.4332362140      0.1380574683     -0.8685835390
S       8.0389781576      3.4772194801      0.6346021253      6.2030014601      2.7499360476      2.8291118857      1.5599139594
S       9.4098036125      3.8897955719     -1.8627690027     -6.6099979951     -0.1447259182     -2.7541681508      1.5553190108
C       6.3167632490      3.2324871196      0.2559467724     -1.2229403102      0.0472861890     -0.7782976795      1.1462653761
C      11.0818420152      4.4339033622     -1.5833116948      1.7718087834      0.5052024123      0.7196628304      1.1537061496
O       8.3788261320      2.6917236170      1.8699248583     -1.5411181706     -0.1597459383     -2.0603783843     -0.7334651375
O       8.2987572230      4.9377114315      0.8801684967     -1.6663784810     -1.5939597300     -0.6578264870     -0.7245606881
O       8.5042485644      5.0839969749     -1.9846954034      2.0932658447     -0.7106104575      0.5239516221     -0.7345107070
O       9.3679383208      3.0960447257     -3.1381580000      1.4393457192      0.4417522706      1.9594585804     -0.7338015017
F       5.5441429210      3.6137977964      1.3364756643      0.1833254596     -0.3940321292     -0.8866242576     -0.4419518657
F       6.0961605994      1.8976192056     -0.0167183823     -0.4374954694      0.7132495649      0.1022013024     -0.4551818582
F       5.9664413329      3.9864790275     -0.8475885857     -0.1750896546     -0.8211358140      0.9903151063     -0.4254265302
F      11.4801184716      5.2592271560     -2.6177162921     -0.1345206465     -0.6758070190      0.9507369959     -0.4309429704
F      11.9195934760      3.3362533257     -1.5247371424     -0.2762268061      0.9902116751     -0.0077534731     -0.4326555735
F      11.1527457001      5.1274917619     -0.3900864633      0.2968912410     -0.5333161635     -1.1093370372     -0.4240937919
