32
Properties=species:S:1:pos:R:3:forces:R:3:charge:R:1 energy=-168.49739525133646 homo_lumo=2.6705283912234683 dipole="-3.1077396174746608 -3.2977074315619093 -3.213479916417887" free_energy=-168.49739525133646
N       0.0006707041     -0.0044969762      0.0010473403     -0.0670814495     -0.1032850054     -0.0076516813     -0.6232641926
C      -0.9140742463     -1.1154319007      0.3438525395     -0.9628900543     -1.1645427767      0.2909571961      0.0417737792
C       0.6555031289      0.4919471122      1.2309363790      0.8350834424      0.6229433123      1.4075304883      0.0044081343
C      -0.7685847004      1.0930871259     -0.6259100834     -0.8120518333      1.1771457479     -0.7101185987      0.0366963607
C       1.0313314069     -0.4868384946     -0.9445843483      1.0779296536     -0.5073084603     -1.0309570889      0.0378387096
H      -0.3599368906     -1.9552548493      0.8199609273     -0.0352480131      0.5000585932     -0.2073707672      0.1172830126
H      -1.7015330772     -0.7781602681      1.0546726852      0.4426567346      0.0807101718     -0.2899149014      0.1185649148
H      -1.4196961871     -1.5104018925     -0.5657064982      0.3107565927      0.3130100618      0.2461068965      0.1066721774
H       1.3555467534      1.3224338852      0.9965381371     -0.2730555558     -0.1603111868      0.0409410067      0.1824135114
H      -0.0962681847      0.8700995871      1.9596038312      0.2114069518     -0.1538176507     -0.4439973110      0.1243780791
H       1.2395856512     -0.3153662482      1.7268288521     -0.3086061308      0.2145815762     -0.3617483764      0.1148669501
H      -0.1034240613      1.9454002267     -0.8911582865     -0.0896756353     -0.4611273611      0.2637277984      0.1350033994
H      -1.2696937061      0.7468711452     -1.5576638019      0.2973763124     -0.0817951569      0.4192089466      0.1051368801
H      -1.5544350615      1.4742064906      0.0641938625      0.4357671289     -0.2965671144     -0.1115236857      0.1205423814
H       1.7337922999      0.3317390043     -1.2199438084     -0.4094846797     -0.1899481749      0.3021682380      0.1307889296
H       1.6276338534     -1.3131272464     -0.4966172441     -0.3738888837      0.3961059223      0.0241052194      0.1182491562
H       0.5660543472     -0.8681409219     -1.8810848104     -0.0273881819      0.2071951808      0.4685741721      0.1064738220
N       4.0777713682      4.1761740312      3.7746571455      0.1068384030      0.1416706860     -0.1283009001     -0.8537773293
S       3.8425970031      2.7594591856      4.5647914051     -4.8289891237      3.1827128561      4.0928062882      1.5622380710
S       3.1271759671      4.6733240626      2.5353339536      3.7962507322     -4.2719562383     -3.8981448584      1.5756831908
C       4.8329648293      1.4904857577      3.8029337619      1.3014836394     -0.9171822300     -0.7574183711      1.1502319356
C       1.9254188729      5.8346836014      3.1480368650     -1.1226924827      1.2684561316      1.1704822121      1.1550266625
O       4.2754320043      2.9177874633      5.9947839248      0.8011299031     -0.5465797820     -2.5014440209     -0.7158249349
O       2.3938134797      2.3586727779      4.5192059208      1.8686098400     -0.6805862165     -0.8185969369     -0.7525042412
O       2.4175810075      3.5085473684      1.9049004140     -0.6298229476      1.3848284524      0.8461108030     -0.7908646495
O       3.9800842710      5.3576465273      1.5052146806     -1.3835461998      0.2882036298      2.1214052436     -0.7220452971
F       4.6638403476      0.3006560160      4.4851839174      0.2483326435      0.7971809950     -0.7334137053     -0.4334835079
F       6.1648177520      1.8569430476      3.8456503579     -0.9863955818     -0.6383457445     -0.2335804487     -0.4253966276
F       4.4463126181      1.3223280367      2.4870097247      0.5023469862     -0.2346060552      0.8251522273     -0.4420219980
F       1.1060832194      6.2406260711      2.1118636650      0.4908746628     -0.1831222402      0.9237741907     -0.4348033180
F       2.5738520876      6.9342279654      3.6772155348     -0.8462038155     -0.7687421393     -0.3797706282     -0.4246410458
F       1.1591097392      5.2377256680      4.1308768206      0.4301769417      0.7850202162     -0.8290986467     -0.4256429162
