58
Properties=species:S:1:pos:R:3:forces:R:3:charge:R:1 energy=-313.1018716230726 homo_lumo=5.181485207768443 dipole="-3.6704753159643144 0.4925663587515746 -0.6223953764481661" free_energy=-313.1018716230726
N       2.2062444947      0.2396437971     -0.0660477082     -0.0023660677     -0.0035631698      0.0006675617     -0.5161213639
C       0.7991252691      0.2293089704      0.5042545299     -0.0002809451     -0.0001218943     -0.0031195881     -0.0040371390
C       2.8592808050     -1.1196994955      0.1715508908      0.0001740845      0.0011054392     -0.0004721017     -0.0791242539
C       2.0695872485      0.4788768775     -1.5630758860      0.0015859350      0.0018641147      0.0011183961      0.0002569642
C       0.7373923255     -0.1937631053      1.9618842353      0.0011780689     -0.0039133301     -0.0011965739     -0.1680512598
C       2.8085765357     -1.5540586003      1.6234689682      0.0024164624     -0.0055422721      0.0046696772     -0.2005638272
C       1.3824022682     -1.5638799479      2.1626973425     -0.0006461147     -0.0001399791      0.0037190064     -0.1604577807
C       3.0173312840      1.3325600757      0.5608604778     -0.0040451534      0.0009299687     -0.0089230081     -0.0005587754
C       3.3594570587      0.6794098455     -2.3545420416      0.0003879635      0.0020179083      0.0008508339     -0.2297331511
C       3.8003285029      2.1355582180     -2.5432732155      0.0030140457     -0.0043009763     -0.0041992878     -0.2375706109
C       4.8419348130      2.2598376589     -3.6525921305      0.0050887072      0.0030961225      0.0035453993     -0.0832010710
H       0.2309288307     -0.4794303405     -0.1202910546      0.0022147703      0.0063071474     -0.0019055393      0.1314086170
H       0.3911816091      1.2395218895      0.3478218831     -0.0028202741     -0.0009765241     -0.0037372488      0.1213450341
H       3.8938000441     -1.0363904430     -0.1744302346     -0.0056424397     -0.0059440209     -0.0054050143      0.2658148338
H       2.3101570597     -1.8249733758     -0.4733414499      0.0004781063      0.0029246621      0.0024857422      0.1035970473
H       1.4157526550      1.3614833028     -1.6625135698      0.0022571842     -0.0068573303     -0.0028261001      0.1224199972
H       1.5140090159     -0.3969678642     -1.9303611679      0.0043885553     -0.0030810825     -0.0029292159      0.1176493155
H      -0.3281333388     -0.2077848292      2.2475921233      0.0048366956      0.0034136548      0.0009092284      0.1111432058
H       1.2217386480      0.5598017301      2.6050110884     -0.0016492094     -0.0055399916      0.0026511546      0.1057662618
H       3.4663175761     -0.9164092155      2.2323646099     -0.0030814272     -0.0061139802      0.0000672607      0.1597685615
H       3.2617652542     -2.5572956146      1.6634283821      0.0033831742      0.0038553070      0.0032259255      0.1378830683
H       1.3751613050     -1.8346429468      3.2299669855      0.0027074793     -0.0019576757      0.0010186391      0.0927122155
H       0.7860028207     -2.3285775614      1.6306049505     -0.0030695730     -0.0007793359      0.0029105425      0.0820444256
H       3.0087046755      1.2182446969      1.6473417121      0.0004105450      0.0012000814     -0.0118255084      0.1354470378
H       4.0516070169      1.2459418733      0.2139477969     -0.0022739058      0.0042848462      0.0058584572      0.1955646815
H       2.5766912046      2.2951973991      0.2720562202      0.0012919798      0.0000887843     -0.0017800657      0.0703699017
H       3.1646773176      0.2500928608     -3.3539539147     -0.0020818808     -0.0003980000      0.0010054766      0.1123648888
H       4.1848349913      0.0804516166     -1.9392119023      0.0030163432      0.0004481863     -0.0062371174      0.1842498510
H       4.2198189262      2.5400587705     -1.6084528887      0.0033692951      0.0009133047     -0.0057309242      0.1235373713
H       2.9158787962      2.7511542288     -2.7935022818      0.0030298634      0.0009745328     -0.0024394503      0.0705464831
H       4.4284713148      1.9233191476     -4.6168787557     -0.0000730723      0.0004096215     -0.0041709300      0.0265643186
H       5.7261031081      1.6478277525     -3.4259963595      0.0007968760     -0.0007245956     -0.0020727795      0.0924902672
H       5.1756099393      3.3013024231     -3.7692752406     -0.0067431257      0.0004074345      0.0039915554      0.0405976376
P       7.1194148718     -0.6260756591      0.9589665433     -0.0033963042     -0.0036333595      0.0053948429      1.7124889435
F       6.0654512794     -1.6380508677      1.7759111315     -0.0086443093      0.0009064982      0.0064988186     -0.5306201685
F       8.3657046630     -1.0859715407      1.9373324723      0.0035341250      0.0012689583      0.0028337962     -0.5078947238
F       5.8503597273     -0.0819444534     -0.0650720251     -0.0116516239     -0.0017286237      0.0005131845     -0.5583524170
C       7.3796797654     -2.2103463587     -0.2411808277      0.0102151753     -0.0076482115     -0.0005282385      0.5279272992
C       6.5121823966      0.7861934851      2.2368696680     -0.0184917535      0.0124025932     -0.0025870551      0.4996682715
C       8.4385733922      0.5597326280      0.0278032251      0.0213694555     -0.0041162027      0.0122496482      0.5947782276
C       6.1401807141     -2.9057377890     -0.9055179897      0.0014525861      0.0017950253      0.0055903802      1.3625806649
C       7.2037675642      0.9037476698      3.6267837558      0.0012547049      0.0121076683      0.0043902906      1.3796548678
C       8.0309525484      1.3108945155     -1.2728047596     -0.0026316640      0.0090225150     -0.0082268667      1.3780992690
F       7.9738071933     -3.2083297100      0.4968499590      0.0050597271      0.0028520920      0.0031611525     -0.4342491773
F       8.1941003015     -1.9716432652     -1.3268686264     -0.0032974771     -0.0068279636     -0.0034494757     -0.4471032073
F       5.1733905402      0.5527312411      2.5661932177     -0.0013623705      0.0067989382      0.0082699681     -0.4764806040
F       6.5074430261      2.0446467767      1.6779484063      0.0063822018      0.0024935378      0.0145330264     -0.4519904878
F       9.5626110723     -0.1658089518     -0.2813886690     -0.0043414690      0.0052443050     -0.0149176473     -0.4390275391
F       8.8689033482      1.5457119991      0.8906666832     -0.0040514514     -0.0024839138     -0.0060955014     -0.4468655939
F       6.5623283999     -4.0102726402     -1.5762051128     -0.0002618472      0.0037587723      0.0056836465     -0.4438271228
F       5.5301559302     -2.0959119680     -1.8188735146      0.0059655472      0.0057164978      0.0015482319     -0.4689891831
F       5.1934402093     -3.3146386655     -0.0236228713     -0.0041434359     -0.0009247872      0.0065276704     -0.4637324114
F       6.6037739204      1.9064982866      4.3408017975     -0.0026796289     -0.0072834766     -0.0129886435     -0.4571331189
F       7.0524547579     -0.2445587822      4.3274409800     -0.0078185235     -0.0016811991     -0.0018341020     -0.4427440862
F       8.5146869883      1.1965355461      3.5412822543     -0.0051889272      0.0011747775     -0.0142115822     -0.4375738877
F       9.1057006361      1.9683155464     -1.7867178981     -0.0057760809     -0.0033474638      0.0020510470     -0.4463678164
F       7.0658638340      2.2370870099     -1.0311706720      0.0098846264     -0.0027330557      0.0082846247     -0.4630959224
F       7.5716561863      0.4686715743     -2.2303854693      0.0073657710     -0.0074208795      0.0075843804     -0.4632728289
