51
Properties=species:S:1:pos:R:3:forces:R:3:charge:R:1 energy=-276.97847873525484 homo_lumo=3.4778479939754234 dipole="-1.79293296695539 0.7420503618514358 5.3088649248466275" free_energy=-276.97847873525484
N      -1.5394264859      0.1205547576     -0.0568433017      0.1339814994     -0.0730544446     -0.1992159010     -0.5236993050
C      -2.5601136065      0.5244665989     -1.0788970439     -1.4981899221      0.4105694682     -1.1380710816     -0.0548786737
C      -1.7796217422     -1.3085136612      0.3288287154     -0.5312170501     -1.6582779688      0.6830260147     -0.0393434134
C      -0.1996432973      0.2166432478     -0.7318468357      1.8329498845     -0.0349586028     -0.4214681169     -0.0926066627
C      -1.6042128036      0.9897682729      1.1697238549      0.0190733790      1.1566085777      1.1866012213     -0.0898432420
C      -4.0166421466      0.2959323729     -0.6408106272      0.0839077261     -0.0110693698      0.0858174062     -0.1779776316
C      -3.2204625606     -1.5988840426      0.7938519678     -0.0561547445      0.1464601255     -0.0525068779     -0.1666353561
C      -4.2362209215     -1.1631064538     -0.2562367886     -0.3379283541     -0.0875552418      0.0981037739     -0.1697213157
C       1.0290614455     -0.1037918738      0.1546094324     -0.4468679302      0.1229027748     -0.0751049139     -0.2197610179
C      -1.2548861959      2.4745609489      0.9573101708      0.0652789532     -0.1512254464     -0.1978199681     -0.1258854299
C       2.3249903742      0.0409185840     -0.6542055465     -0.1434596487     -0.1030566234      0.0321779619     -0.1803234232
C       3.5527356951     -0.3001264135      0.1994498840     -0.0767609336      0.1586108903     -0.3908762909     -0.1668565832
C       4.8466529383     -0.1191351739     -0.6027358584      0.0509083545     -0.1011156267      0.1931737494     -0.2102516204
C       6.0699168071     -0.4764460654      0.2362828713      0.2283989214      0.0330435165     -0.0978955914     -0.0832290332
H      -2.4137334983     -0.0589976995     -2.0173549337      0.4627727248     -0.0360493514      0.4480583724      0.2099393548
H      -2.4401885036      1.5867445157     -1.3769163084      0.3932135975     -0.3142984500      0.3587417749      0.1555103013
H      -1.1064543517     -1.6160269095      1.1578970235      0.0548034521      0.4953482283     -0.3994821441      0.1521258172
H      -1.5626958662     -1.9859218412     -0.5293637369      0.0757293963      0.6563210393      0.0360779763      0.1705575597
H      -0.0607480935      1.2284749887     -1.1741013976     -0.4033339779     -0.2657090446      0.2758524746      0.1659933625
H      -0.1645685330     -0.4809542090     -1.5991552904     -0.5000693799      0.1489982482      0.2879021162      0.2330004707
H      -2.6123788541      0.9674233067      1.6268320055      0.1059366297     -0.3561187290     -0.5043285164      0.1744247291
H      -0.9355970437      0.5927424304      1.9639978402     -0.0567116603     -0.2364177707     -0.5939470070      0.1531133647
H      -4.6920040239      0.5457358718     -1.4876449054      0.3630166687      0.1212641820      0.1561236160      0.1266584174
H      -4.2937289644      0.9659253655      0.1986773351      0.0309003644     -0.0895389851     -0.1285024608      0.0973184644
H      -3.4333631018     -1.0994639878      1.7620620825      0.0776568881     -0.1028583300     -0.1547105927      0.0984882599
H      -3.3320633792     -2.6913556184      0.9655652017      0.2929168246      0.2873005372      0.0341916662      0.1237688345
H      -5.2646194746     -1.2913507759      0.1449559995      0.2459276546     -0.0636663969     -0.1969825538      0.0980943511
H      -4.1346425136     -1.8059305257     -1.1586101956     -0.0545554161      0.1613755948      0.1892508440      0.1150051122
H       1.0844396477      0.5912887824      1.0168706833     -0.0429997622     -0.1942326049     -0.0448771939      0.1031012489
H       0.9704836706     -1.1443692653      0.5347860589     -0.0205227958      0.2364453857      0.0119889306      0.1109519564
H      -0.2156439291      2.6113200201      0.5981298215     -0.3315717057      0.0143174162      0.0226827297      0.0818516941
H      -1.9652279485      2.9692713086      0.2662334646      0.2673723164     -0.0895685260      0.1256425395      0.0750155650
H      -1.3319336744      3.0011418015      1.9320098445     -0.0276578864     -0.2671795304     -0.2302187057      0.0852365315
H       2.4118394862      1.0876164175     -1.0211807910     -0.0016276848     -0.2849049365     -0.0458094654      0.0992997523
H       2.2904770500     -0.6397832401     -1.5338090444      0.0028540704      0.3003633447      0.0967098976      0.1435959768
H       3.4773262295     -1.3549218788      0.5451391952      0.0292257415      0.2452992936      0.0252841054      0.0861268884
H       3.5779635516      0.3641405850      1.0915912640      0.0147014867     -0.2155330340     -0.0882187775      0.0768358733
H       4.8254285707     -0.7717880957     -1.5027848530     -0.0949905103      0.2793270781      0.1334350931      0.1092490880
H       4.9361326547      0.9379889804     -0.9361071759     -0.1127318856     -0.2702093252     -0.0502799588      0.0926449840
H       6.0222783132     -1.5399450716      0.5536117088      0.0949802422      0.3053791951     -0.0072722938      0.0384306638
H       6.9897650682     -0.3266154489     -0.3672631802     -0.1465394932     -0.0965333959      0.2960458524      0.0508121908
H       6.1248733226      0.1734329607      1.1355724930      0.0672846513     -0.2440322277     -0.1825101265      0.0331822986
N      -0.2411238979     -0.8717349288     -6.3660545753     -0.4446298231     -0.1774494835      0.7412268019     -0.8440502417
S       0.0788524324     -0.7799072726     -4.7629567316      1.4886358707     -4.8871240203     -0.5590795681      1.8541744967
S       0.9496963447     -0.7758186221     -7.4845845154      0.1623268419      4.7155889872     -1.9391864278      1.8436319095
F       0.2230556943      0.8273334887     -4.3159444969     -0.2584918697     -0.2152333839      0.0626346671     -0.4589894007
F       1.9302116168     -2.1287701614     -7.3750102277     -0.6262375467      0.4251334837      0.0326321203     -0.4404382871
O      -1.0486262085     -1.4067360388     -3.9945591385      0.3789312006      2.1830668675     -0.6376999941     -0.7632525504
O       1.3642316512     -1.4919776160     -4.4465400434     -1.1121952712      2.0550925783      0.0693503814     -0.7268845754
O       1.7827929034      0.4503585601     -7.2381401634     -0.2656008251     -2.3656374308      0.3127327252     -0.7208781502
O       0.3456412437     -0.7075487378     -8.8579621148      0.5673607365     -1.6662085318      2.3405997158     -0.7026336043
