59
Properties=species:S:1:pos:R:3:forces:R:3:charge:R:1 energy=-323.432230412926 homo_lumo=4.419438745158825 dipole="-2.6386253753914852 -1.2829505747847678 0.5880055169266873" free_energy=-323.432230412926
N       0.9286472407      1.3483430328      0.6493931540     -0.0044334752      0.0005908563     -0.0020692752     -0.4885224329
C       0.5904336347      2.6396950168     -0.1132679395     -0.0086692853     -0.0028222166     -0.0002903997     -0.0032084391
C       1.7643132989      1.8185898668      1.8399669576      0.0095222045     -0.0129350380     -0.0072861299     -0.0438127793
C      -0.3320330545      0.6916323303      1.1741416281      0.0003699689     -0.0061566873     -0.0008233244     -0.0235623186
C       1.7348265763      0.4263087181     -0.2433054975     -0.0008486012     -0.0017104750      0.0029194909     -0.0580837585
C       0.9116276467      3.8088035327      0.8276577419     -0.0152218057      0.0074013307      0.0010731434     -0.1581878573
C       1.2012090984      3.1791199746      2.1977364687      0.0071876316      0.0195907968      0.0098040692     -0.1457612985
C      -1.2407339254      0.0725170800      0.1236244563      0.0050660016     -0.0091443297     -0.0095734343     -0.2127485936
C       2.2226588493     -0.8363444818      0.4406585357     -0.0060881250     -0.0035936841     -0.0033647318     -0.2048752456
C      -2.5695966408     -0.3673391715      0.7473274783     -0.0046568686      0.0090602168      0.0088625287     -0.1609732577
C       3.2863305680     -1.5113436229     -0.4290212981      0.0083411983      0.0096625087     -0.0092922339     -0.1707894383
C      -3.5054276842     -1.0300222942     -0.2639643466      0.0054186730      0.0014036914     -0.0068858203     -0.1670392147
C       3.8296303048     -2.7913794778      0.1987809560     -0.0005982309     -0.0000587456      0.0074506270     -0.1638925958
C      -4.8416298459     -1.4619842572      0.3399116832      0.0056163033     -0.0005802260     -0.0068128436     -0.2061851486
C       4.9625791622     -3.4143649533     -0.6140620765     -0.0030988426     -0.0072825274      0.0055232894     -0.2046979626
C      -5.7701176446     -2.1130222040     -0.6841503980     -0.0012780032      0.0025617522      0.0176395858     -0.0681845400
C       5.5037620674     -4.6960134148      0.0146154081      0.0023309098      0.0006566433     -0.0121708065     -0.0651485296
H       1.2354995760      2.6662509073     -1.0014284527     -0.0010933350      0.0051470442     -0.0010180453      0.1656835253
H      -0.4644827291      2.5797403910     -0.4077195366      0.0103758774      0.0087800734      0.0022204425      0.1167870506
H       1.7015365567      1.0647345195      2.6348163026     -0.0037593924      0.0102850270      0.0040734969      0.0920323207
H       2.8038628267      1.8993252860      1.4869040600     -0.0167831305     -0.0037351233      0.0166677530      0.2361493355
H      -0.0073708769     -0.0766035786      1.8920662376      0.0019754504      0.0020020076     -0.0062209031      0.1387698751
H      -0.8662669740      1.4737872368      1.7349454940      0.0000768346      0.0021680164      0.0000402826      0.1548027898
H       1.1064749027      0.2022532566     -1.1186677924     -0.0071744232      0.0027505864      0.0043681207      0.1162500049
H       2.5906058797      1.0317451924     -0.5784213526      0.0027257160      0.0004370795     -0.0065062926      0.2396171971
H       1.8232453917      4.3087581902      0.4684677899      0.0111693753      0.0020320495     -0.0030443212      0.1732670599
H       0.0905374043      4.5391593927      0.8631533206      0.0064027485      0.0007193295      0.0064625137      0.0602412288
H       0.2951136470      3.0942287773      2.8203258486     -0.0023256286      0.0010373553     -0.0101267095      0.0671797579
H       1.9526889699      3.7589731310      2.7539117646     -0.0099414053     -0.0024944510     -0.0043762063      0.1169013911
H      -1.4461932313      0.7877792226     -0.6902935359     -0.0003427946      0.0037897447     -0.0108808264      0.1094501751
H      -0.7498753131     -0.8027946436     -0.3335963092      0.0025258139      0.0047187912     -0.0046915256      0.1208654027
H       2.6913444599     -0.5827492885      1.4055040122      0.0024813777      0.0038547052      0.0070525681      0.1256149486
H       1.3930403909     -1.5381083868      0.6418194268      0.0002284392      0.0010783866      0.0026993571      0.0819284551
H      -2.3749174730     -1.0685706707      1.5799410715      0.0034741277      0.0013111508     -0.0038208043      0.0907439218
H      -3.0754157051      0.5108828886      1.1905401710      0.0052145602     -0.0031142753     -0.0016842711      0.0882968804
H       4.1098518106     -0.7903999683     -0.5752861636     -0.0015460119     -0.0057485659     -0.0056286803      0.1457932319
H       2.8691886631     -1.7350616601     -1.4285969040     -0.0022409929     -0.0041294808     -0.0003853297      0.0745440201
H      -3.6942792052     -0.3298930406     -1.0993009348      0.0043827451     -0.0028063730     -0.0035396939      0.0903566660
H      -3.0032018552     -1.9117917112     -0.7042883748      0.0021957690      0.0004843822     -0.0047017408      0.0902526958
H       4.1995211526     -2.5645120853      1.2166998030      0.0002759258     -0.0035952449     -0.0007103452      0.0885857148
H       3.0129778307     -3.5289687677      0.3184566885     -0.0059573935      0.0010717125     -0.0003841987      0.0717748131
H      -5.3406710076     -0.5814730710      0.7843301674      0.0034508241      0.0042032099      0.0041251424      0.0866738009
H      -4.6544286298     -2.1659541850      1.1710072873      0.0043441398      0.0039461941      0.0055619985      0.0868199846
H       4.6030193852     -3.6229439248     -1.6382070379     -0.0000629372     -0.0037001122     -0.0028679723      0.0823379359
H       5.7759995655     -2.6738184683     -0.7144333837      0.0025627677     -0.0072170216     -0.0074603610      0.0976976187
H      -5.9968781224     -1.4190547459     -1.5092006958      0.0052426017      0.0041426531     -0.0020236796      0.0371625525
H      -6.7250561199     -2.4141849842     -0.2265826486      0.0163068338      0.0076959322     -0.0006846733      0.0429555727
H      -5.3083090918     -3.0130646370     -1.1210359340      0.0064159074      0.0013652409      0.0011514600      0.0369388577
H       4.7120774947     -5.4579785691      0.1010948067     -0.0014765927     -0.0028809564      0.0009206278      0.0281983951
H       6.3217699561     -5.1250891870     -0.5843546655     -0.0102347731      0.0022540314      0.0033394273      0.0384818343
H       5.8940066591     -4.5014578822      1.0266524561     -0.0026869329     -0.0028699548      0.0008207232      0.0347052351
S       4.4829281470      3.0390789593     -0.1741438740     -0.0080401390     -0.0017194139      0.0016406963      1.7214179042
O       4.7817702311      1.6747622670      0.3179962915     -0.0089801489      0.0009245757      0.0057507395     -0.8059282182
O       4.2337863276      4.0386242116      0.8798872524     -0.0080939859     -0.0014276201     -0.0024703822     -0.7877002714
O       3.5187481333      3.0671164825     -1.2990184892      0.0007965241     -0.0023039751      0.0027291572     -0.8081045160
C       6.0967437919      3.5977330177     -0.9521196355     -0.0127156689     -0.0113299720      0.0130239313      1.1258734872
F       6.4700554196      2.7589506148     -1.9557512660      0.0029477697     -0.0167054285      0.0004332927     -0.4443172589
F       7.0937410723      3.6181779585     -0.0301406209      0.0025433945     -0.0045123997      0.0110172817     -0.4415180932
F       5.9790834819      4.8474716818     -1.4724248472      0.0063805094     -0.0025527775     -0.0055757850     -0.4419098728
