59
Properties=species:S:1:pos:R:3:forces:R:3:charge:R:1 energy=-320.1123031328446 homo_lumo=1.4252051273335484 dipole="-4.279841816036836 -1.0816509398166487 3.3952815536981724" free_energy=-320.1123031328446
N      -0.0180548903      1.9933211990      0.0113277466     -0.0743485694     -0.1731672450      0.0601109181     -0.5195685669
C      -0.6931021886      2.8971015128     -0.9706961985     -1.3673991675      0.9985550489     -1.7102774353     -0.0150805595
C       0.6350621063      2.9102706424      0.9960977929      1.3927633575      1.0275255124      1.6906005014     -0.0130860305
C      -1.0334245692      1.1465817175      0.7189096427     -1.0691083920     -1.1171511563      0.3509719077     -0.0399800001
C       1.0179685801      1.1763106567     -0.7003096190      1.3108292300     -1.1655184269     -0.4684368602     -0.0815049152
C      -0.2126771960      4.3136206541     -0.7212267738      0.4747327085      0.4633721774     -0.6638460050     -0.1482947982
C       0.1330696934      4.3186633870      0.7406440418     -0.4141299647      0.4413867401      0.6183636391     -0.1395460502
C      -1.7692962589      0.1283919893     -0.1857861367      0.2954142942      0.2939113663      0.1655897261     -0.2153173044
C       1.7759113888      0.1680121305      0.1961570434     -0.3407401452      0.3041978784     -0.1311636211     -0.2124142283
C      -2.8733443674     -0.5921317498      0.5988811876      0.1673096125      0.1204152262     -0.1694433547     -0.1671670907
C       2.8904484204     -0.5267430616     -0.5967186384     -0.0233264443      0.1749956804      0.0966343534     -0.1852546058
C      -3.6215230440     -1.5981051767     -0.2840746208     -0.0445356221      0.0795083039      0.4270504967     -0.1709675788
C       3.6548053477     -1.5286431166      0.2768484581     -0.0087408014      0.0927896928     -0.4017754481     -0.1653758482
C      -4.6888068167     -2.3460721199      0.5239007496      0.0062348118     -0.0690095856     -0.2306427970     -0.2085197113
C       4.7277864475     -2.2586465030     -0.5395765453      0.0589149391     -0.0325969702      0.2083489852     -0.2116703832
C      -5.4423891017     -3.3475509393     -0.3461240518     -0.1922169800     -0.1567655324      0.1132987772     -0.0861476168
C       5.4957086156     -3.2567993658      0.3218439572      0.1699128688     -0.1520777450     -0.1050048153     -0.0827677389
H      -0.5020194913      2.6171466071     -2.0321174566      0.0834180949     -0.3029753722      0.6063455177      0.1621246315
H      -1.8000584374      2.9052708024     -0.8438504146      0.4656230706     -0.4903191619      0.2844057826      0.1379763266
H       0.4411970267      2.6288657502      2.0564558409     -0.0188791812     -0.3254417791     -0.6064713497      0.1324321439
H       1.7426511983      2.9367456386      0.8779309983     -0.4728852188     -0.4887710132     -0.3122602522      0.1716566547
H      -0.5606487862      0.5904128104      1.5583032073      0.2043451861      0.3085048294     -0.4196436633      0.1560984562
H      -1.7952262938      1.8052007577      1.1978467287      0.4512962493      0.0993374729     -0.3316363220      0.1452654971
H       0.5590106208      0.6153303090     -1.5441496237     -0.1611290867      0.3628785517      0.3884541133      0.1649785589
H       1.7656343013      1.8572461667     -1.1699493833     -0.4125019804      0.0935045417      0.2484236602      0.2110812733
H       0.6982606583      4.5168843577     -1.3271443696     -0.2907764399      0.0365769806      0.0903422618      0.1413453379
H      -0.9966252423      5.0657394439     -0.9588491888      0.3657412641     -0.3087048585     -0.1382495339      0.0978999158
H      -0.7810566990      4.5102294741      1.3454820277      0.2955575362      0.0723189117     -0.0766651269      0.0916430094
H       0.9047494293      5.0840355849      0.9759256849     -0.3364441879     -0.3148109880      0.1198468166      0.1110019130
H      -2.2224450954      0.6395791101     -1.0609091114      0.1609538622     -0.1123012706      0.1320750811      0.1189531097
H      -1.0571130728     -0.6366924389     -0.5585265019     -0.1134162679      0.2491798573     -0.0073543213      0.1359789908
H       2.2218772489      0.6829043696      1.0728045276     -0.1167769824     -0.1034463629     -0.1239142019      0.1069471277
H       1.0800234958     -0.6131695612      0.5661094640      0.0897200796      0.1888420491      0.0498287607      0.1071695903
H      -2.4165489322     -1.1278546001      1.4603859866     -0.1792638762      0.1586443762     -0.1076155981      0.0959304749
H      -3.5963526887      0.1564886540      0.9915577872      0.1578670495     -0.2008132580      0.0360888558      0.0903435688
H       3.6005658790      0.2369460900     -0.9842897809     -0.2020873538     -0.2189274721     -0.0816705441      0.1505138710
H       2.4409222543     -1.0622545300     -1.4621958190      0.1976821695      0.1924021890      0.1156184940      0.1002467776
H      -4.1076325888     -1.0575805813     -1.1262920206      0.1646536811     -0.1804947769      0.1077282983      0.0934612521
H      -2.8983804587     -2.3315483275     -0.7045282369     -0.1818904544      0.1926760233     -0.0070354390      0.0961038459
H       4.1372225888     -0.9872428079      1.1206020770     -0.1343783043     -0.1683712608     -0.1057146712      0.0861313115
H       2.9427012125     -2.2738328524      0.6956783538      0.1667147529      0.1490264801      0.0379435387      0.0730519563
H      -5.4159814224     -1.6194971681      0.9478936716      0.2454793865     -0.1267603994      0.0296340262      0.0897688860
H      -4.2071458361     -2.8925571371      1.3640684010     -0.0961454089      0.2414675499     -0.0927225178      0.0907908699
H       4.2494979004     -2.8056022436     -1.3813731694      0.1090013413      0.2604596120      0.0983401837      0.0911037167
H       5.4446478695     -1.5207533558     -0.9615167907     -0.2866873750     -0.1434346492     -0.0408514874      0.1185323949
H      -5.9611028880     -2.8235354863     -1.1769441698      0.1326699556     -0.2429281883      0.1683944589      0.0432608468
H      -6.2012284681     -3.8762412032      0.2686391053      0.1622758682      0.0568052991     -0.3101922202      0.0505120608
H      -4.7404681107     -4.0990706240     -0.7663809301     -0.2712641479      0.1834848425      0.0355749899      0.0443371111
H       4.8039380820     -4.0193132572      0.7392468284      0.2642642280      0.1642533393     -0.0184074051      0.0296382422
H       6.2589617028     -3.7725981097     -0.2983279130     -0.1522178867      0.0619983140      0.3072095307      0.0504043927
H       6.0104215712     -2.7321583826      1.1547632145     -0.1127855578     -0.2349380814     -0.1661206013      0.0384658324
S       4.2822755006      2.8143208535     -4.0573921354      9.7561403281      3.9742444454      2.2037973867      1.5466999954
O       4.8454198471      3.8906471906     -4.9971411827     -3.0814198786     -1.6700215448     -0.2512837301     -0.7448071391
O       4.3053109320      3.5027865842     -2.6848988166     -2.9584943625     -1.3663699491     -0.8183521914     -0.7808173287
O       5.4326650342      1.8017716505     -3.9593312626     -3.2893540274     -0.8061465725     -0.7062451844     -0.7536122449
C       2.6797708098      2.1198206458     -4.5504390267     -0.0208986482     -0.0354153810     -0.6751150864      1.1067359347
F       2.7719077728      1.6095175637     -5.8306877959     -0.5787867351      0.2545228078      1.0627142933     -0.4266892829
F       1.7172869871      3.1103525089     -4.5182805258      0.0626441328     -0.8839648709     -0.0687801019     -0.4480139551
F       2.3275299459      1.1078048937     -3.6800679114     -0.4091306101      0.2938577726     -0.5068434689     -0.4619829005
