20
Properties=species:S:1:pos:R:3:forces:R:3:charge:R:1 energy=-112.62765043889362 homo_lumo=3.5040424064072972 dipole="-0.011052898323246805 0.6937473481266494 -1.2480614626377347" free_energy=-112.62765043889362
N      -0.4624353656      0.1931594441     -0.4292141606     -0.6383315920      0.0349977311     -0.5297965667     -0.4977290190
N       1.6878085644      0.0610771334     -0.2924103768      0.9424731721      0.0587348964     -0.3114002528     -0.5310107289
C      -1.8696394673     -0.1832927731     -0.3614649239      0.0204483886      0.1254730518      0.5323967346     -0.0417716599
C       0.5601232073     -0.6599569509     -0.3101043981     -0.0744149236     -0.4493925126      0.3605640417      0.5629973414
C       0.0155770566      1.4805608686     -0.3381581664     -0.0262247225      0.2946619438      0.0677609353      0.1938093769
C       1.3640401597      1.3959484621     -0.2469549489      0.0081042391      0.2200177236      0.0371502818      0.2249253631
C      -2.3830227087     -0.0249344284      1.0670562338     -0.0950570640     -0.1049939348     -0.3766109458     -0.0681132040
C       2.9756059418     -0.5097289077      0.0594767406     -0.1258021213      0.0361597296     -0.0976602209      0.1307736116
H      -2.4272174373      0.4529625396     -1.0557927567     -0.0532615085      0.0608985686     -0.2416758741      0.0935984471
H      -1.9500124835     -1.2233829683     -0.6877104426      0.0071208779     -0.1791096766     -0.1220116493      0.1025787984
H       0.5039124613     -1.7210349411     -0.4667973556     -0.0175228566     -0.2365628385     -0.0828026481      0.0993363858
H      -0.6376076620      2.3350696858     -0.3603735759     -0.1368180080      0.1827061481      0.0030321432      0.0212564808
H       2.1154341152      2.1620648789     -0.1711139637      0.1634080138      0.1609755784      0.0314871638      0.0182050124
H      -1.7741893407     -0.6225418885      1.7453405486      0.2624671478     -0.1590376852      0.2145056983      0.1180635090
H      -3.4178526799     -0.3615123731      1.1142983858     -0.3880353272     -0.0493630822      0.0273554272      0.0238140910
H      -2.3328502106      1.0188817136      1.3748673599     -0.0104606617      0.3240895535      0.1196499274      0.0314050631
H       3.2294208241     -1.3035023764     -0.6426788496      0.1118753547     -0.1584520114     -0.1975741990      0.0404335814
H       3.7335034841      0.2705474552      0.0319875616      0.1683447878      0.1895514513     -0.0896607495      0.0354915085
H       2.8840623802     -0.9239704842      1.0677320402     -0.1019728608     -0.1106871643      0.2991865234      0.0833148216
Cl      0.5800814081     -1.3757461760      2.0726611889     -0.0163403357     -0.2406674705      0.3561042296     -0.6413787803
