26
Properties=species:S:1:pos:R:3:forces:R:3:charge:R:1 energy=-135.54629225702016 homo_lumo=2.8422040966903763 dipole="3.130782483584662 -2.7227903066904298 3.5603235130963142" free_energy=-135.54629225702016
N       0.0113047625     -0.0086747856     -0.0006353158      0.1114685053     -0.0642006711      0.0300114083     -0.6175326575
C      -0.9077006472     -1.1148519624      0.3477492059     -0.9493406929     -1.2070894406      0.3825951837      0.0373594488
C       0.6766575260      0.4848042570      1.2254456639      0.7214670076      0.4701502542      1.2870252159      0.0403992058
C      -0.7567505010      1.0925515519     -0.6213779983     -0.9486405343      1.3128890157     -0.6914507965      0.0086049652
C       1.0319422669     -0.4964785285     -0.9541855380      1.1059305429     -0.5736873180     -0.9743182451      0.0371337734
H      -0.3555744516     -1.9587230595      0.8190378824     -0.0110398577      0.4692290304     -0.2113579874      0.1056879087
H      -1.6886178841     -0.7741968595      1.0642494076      0.4112213014      0.0948863294     -0.3431585229      0.1237786150
H      -1.4226430708     -1.5062265880     -0.5582884569      0.3150993677      0.3691199907      0.2588012426      0.1286125685
H       1.3740333403      1.3204884117      0.9921017944     -0.3757228424     -0.3688216399     -0.1328489928      0.1184123899
H      -0.0700055479      0.8581599646      1.9619323076      0.1380016665     -0.1945261228     -0.4851488067      0.1204406541
H       1.2636713035     -0.3248042042      1.7142835263     -0.2984289114      0.1832988356     -0.3629526293      0.1065798792
H      -0.0892160126      1.9383640358     -0.9006071010     -0.1327617669     -0.4712626936      0.1676376744      0.1206174076
H      -1.2749019580      0.7472320685     -1.5440634006      0.2462054397      0.0078091584      0.4321898429      0.1507250379
H      -1.5272169290      1.4826616862      0.0803137297      0.2786662997     -0.2622363669     -0.2653900117      0.1365015664
H       1.7369878745      0.3179094453     -1.2349768081     -0.4432663231     -0.1877186973      0.2446983149      0.1209660759
H       1.6268563315     -1.3265879925     -0.5114262115     -0.3641013807      0.3515322178      0.0190277995      0.1059497753
H       0.5573954055     -0.8749712272     -1.8873002533     -0.0150808883      0.2523058454      0.4806237145      0.1280560368
N      -2.6706643089      3.1796111447     -3.5751845033      0.2716959710     -0.1472758505      0.6554022932     -0.8693005617
S      -2.9208672333      3.4102829818     -5.1758852124      1.4636556696     -3.9706367029     -2.5970376489      1.8508212244
S      -3.8435859086      2.5651105124     -2.6134503423     -2.7976756189      4.8214151810      0.4769693911      1.8387952058
F      -3.9314672870      4.7272450978     -5.3920607152      0.6071939525     -0.5099188148      0.3262830968     -0.4367293889
F      -3.9353416453      0.9100027667     -2.8473015399      0.3376795939      0.1611275904      0.2230415532     -0.4587961686
O      -1.6088826921      3.6720871067     -5.8582815692     -1.9516208229      1.0488055818      1.7195679171     -0.7147753192
O      -3.5704526848      2.1945490755     -5.7746012407     -0.2011687009      2.2071956242      0.9105392824     -0.7202416881
O      -5.1698856768      3.1816133815     -2.9584484891      1.6036216675     -2.0196542890      0.0530702786     -0.7090022648
O      -3.5147103066      2.8471443053     -1.1758824641      0.8769413552     -1.7727360476     -1.6038205677     -0.7530636902
