26
Properties=species:S:1:pos:R:3:forces:R:3:charge:R:1 energy=-137.51129281801673 homo_lumo=4.8946507238970485 dipole="-3.230344505844464 0.1903258497454743 -0.30745381105556036" free_energy=-137.51129281801673
N       0.5546147789      0.1680533080     -0.1124146808     -0.0048216519      0.0020455209      0.0022980105     -0.6160259033
C       0.4297232513     -0.7682846180      1.0559475803      0.0053395153      0.0001552907      0.0061410124      0.0542330244
C       1.4011631671      1.3495561495      0.2775107849      0.0019673995      0.0035517288      0.0011305548      0.0373667466
C      -0.8041526169      0.6493590169     -0.5142276426     -0.0005728967     -0.0029378160      0.0031135420      0.0787667583
C       1.1866067545     -0.5603968887     -1.2680762436      0.0003696499     -0.0046151770      0.0014160072      0.0462429392
H       1.4284247680     -1.1289854218      1.3313935354      0.0094742332      0.0127876031      0.0029951747      0.1752863249
H      -0.0164875666     -0.2193809908      1.8945144793     -0.0037415870      0.0001386866      0.0003785901      0.0803599308
H      -0.2143794111     -1.6058838244      0.7597360522      0.0101498305     -0.0040883890      0.0005915426      0.0740179219
H       1.4961485712      2.0100566399     -0.5929545575     -0.0047797595     -0.0046784737     -0.0031623383      0.0859835501
H       0.9029872450      1.8669763531      1.1073047407     -0.0017627543     -0.0000159606     -0.0028075140      0.0738153943
H       2.3999067089      1.0101542364      0.5833963595     -0.0015393504     -0.0026087253     -0.0016355455      0.2036476450
H      -0.6973295973      1.3375267069     -1.3620769404      0.0019103626     -0.0034287798     -0.0030619670      0.0957264329
H      -1.4147615363     -0.2141979490     -0.8056355637     -0.0031693181     -0.0011601291      0.0064747029      0.0895906364
H      -1.2640995236      1.1686738949      0.3357964910      0.0011332757      0.0018378539      0.0062788174      0.0913788823
H       1.3220574121      0.1484087606     -2.0934695270     -0.0044107453     -0.0023810795      0.0041321825      0.0873635184
H       2.1592716646     -0.9543495721     -0.9461276361     -0.0024771298      0.0004425252      0.0089319876      0.1883374897
H       0.5149712218     -1.3770174511     -1.5627691882     -0.0051613334     -0.0024186740      0.0085516180      0.0732113594
N       4.6181903750      0.5599494694      0.7918322463     -0.0095244277     -0.0190346090      0.0006292300     -0.8869064404
S       4.2623699080     -0.9122249089      1.3144122582      0.0105243575     -0.0067675698     -0.0027770211      1.9242240465
S       5.2786978108      0.7707209993     -0.6695137238     -0.0023589153      0.0156833765     -0.0045469457      1.8966199422
F       5.7051061293     -1.5768957218      1.6957311809     -0.0153115260      0.0074191315     -0.0075793218     -0.4479996074
F       3.8914743035      0.7347263200     -1.6483495648      0.0025102809     -0.0080316408     -0.0009028339     -0.5000170007
O       3.5589896453     -0.7608190101      2.5786740631     -0.0035223745     -0.0118796705     -0.0175092320     -0.7432874019
O       3.6934926498     -1.8217726981      0.3199684877      0.0034480655      0.0043088380     -0.0040613359     -0.7606398155
O       6.0759440124     -0.3254576548     -1.1758763418      0.0228343442      0.0157149516     -0.0041557323     -0.6969018991
O       5.7008099942      2.1497764034     -0.7708164359     -0.0065075447      0.0099611873     -0.0008631851     -0.7043944748
