26
Properties=species:S:1:pos:R:3:forces:R:3:charge:R:1 energy=-137.26665479596653 homo_lumo=5.244763271559369 dipole="-2.9999887166184043 0.10036756389119172 -0.32044529810712313" free_energy=-137.26665479596653
N       0.6254778319      0.1430674456     -0.1267661111     -0.2204216599      0.0376124823     -0.0396316417     -0.6268325540
C       0.5204812778     -0.8505312702      0.9769757059     -0.0225940162     -0.1325937806      0.1304476028      0.0734420498
C       1.4679187139      1.2898099683      0.3125840340      0.0742578559      0.0895131034      0.1302712826      0.0560706892
C      -0.7303405515      0.6425430780     -0.4739157451     -0.0710326355      0.0051592207     -0.0081139565      0.0984559870
C       1.2304675910     -0.5041386169     -1.3252493350      0.0344212120     -0.1459918628     -0.1680198984      0.0686264226
H       1.5132822403     -1.2304670794      1.2061780235      0.2177683601     -0.0771089781      0.0533536007      0.1767819011
H       0.0993245887     -0.3613964486      1.8531563419     -0.1081407951      0.1625547122      0.2278454676      0.0718795199
H      -0.1249603563     -1.6660055073      0.6561575442     -0.1966278608     -0.2118183548     -0.1347224487      0.0620452053
H       1.5794188110      1.9831371840     -0.5181583419      0.0430603956      0.1511781750     -0.2191421034      0.0770105882
H       0.9831881943      1.7813603874      1.1541305734     -0.1796031000      0.0720151671      0.2564237001      0.0657341849
H       2.4475216318      0.9213734435      0.6116872873      0.1157967395      0.0805307041      0.0725589597      0.2012153817
H      -0.6421501912      1.3676178150     -1.2808281318      0.0332540312      0.1951241402     -0.2182024234      0.0877251724
H      -1.3470431580     -0.1953671226     -0.7937156226     -0.1525523253     -0.2344782275     -0.0870260955      0.0821561736
H      -1.1707749066      1.1142253546      0.4026356318     -0.1080988346      0.1250351747      0.2481124838      0.0840735762
H       1.3436073619      0.2426841230     -2.1078372099     -0.0069591027      0.1970850602     -0.1863441418      0.0778981511
H       2.2064359963     -0.9009450497     -1.0550471653      0.1774495977     -0.1033863258      0.0824416399      0.1834646803
H       0.5754963841     -1.3070497788     -1.6583003326     -0.2572992995     -0.2193043670     -0.0411627740      0.0646768125
N       4.6507875242      0.6191534859      0.8649518464     -0.0635669373     -0.0851642031      0.1529555980     -0.8778632813
S       4.1714782368     -0.8193636953      1.3318373282      0.3257060722      0.2664034118      0.4413539289      1.9530263470
S       5.1363045214      0.7649790043     -0.6446133134     -0.2442307607      0.5957558621      0.0883967223      1.9203770993
F       5.5190217241     -1.5775821602      1.7551151560      0.7001344391     -0.3318907003      0.1076990897     -0.4496639945
F       3.6661289149      0.8315501292     -1.4354720431     -0.2448447661      0.0475926393     -0.4028308017     -0.5042725660
O       3.4401243408     -0.6533167103      2.5523145170     -0.6752359195      0.1884424214      1.2965070755     -0.7521594421
O       3.5770502706     -1.6692942269      0.3325042692     -0.3933264403     -0.7857160653     -1.0939762887     -0.7739272858
O       5.7845425220     -0.3470519570     -1.2478222919      0.6811204599     -1.5392686473     -0.5673638411     -0.7053945641
O       5.6469506055      2.0792797531     -0.8185924018      0.5415652905      1.6527192380     -0.1218307367     -0.7145462542
