43
Properties=species:S:1:pos:R:3:forces:R:3:charge:R:1 energy=-236.77949304923516 homo_lumo=0.02691904190572971 dipole="-0.8338564230190894 -6.251840692184011 3.2954884749588134" free_energy=-236.77949304923516
N      -1.3785290140      0.1755559775     -0.0664039721      0.0849644559      0.0747036935     -0.0043918251     -0.5241632617
C      -1.6544908270     -1.0142135794     -0.9296412294      0.0627759704     -1.8057796019     -1.5025100396     -0.0025947912
C      -2.4757050795      0.1780017354      0.9496786781     -1.6160111541      0.5358086439      1.6491624207     -0.0039214480
C      -0.0586679951      0.0178560094      0.6278579238      1.6850164532     -0.0025362029      0.3411145831     -0.0407216504
C      -3.0211483634     -1.5628335681     -0.5654553265     -0.6035067173     -0.0349513718     -0.5860583400     -0.1339164153
C      -3.2039325766     -1.1481888395      0.8666041611     -0.0132077918     -0.5028596956      0.6501669432     -0.1319949887
C      -1.4404190004      1.4220096031     -0.8965084541      0.1069043317      1.8556731637     -0.7201382571     -0.0978664064
C       1.1723706010      0.0221725776     -0.3124443359     -0.4260465426      0.0915289619      0.1168300094     -0.2190466707
C      -1.1727498898      2.7221640744     -0.1168769984      0.0800178120     -0.3299602900      0.1281585815     -0.1334679096
C       2.4428874186     -0.3545401327      0.4615941468     -0.1482385772      0.0455022806     -0.1686029480     -0.1706716406
C       3.6788918773     -0.3327982058     -0.4458301857      0.0409025093     -0.0022939316      0.1418352633     -0.2144588220
C       4.9370468818     -0.7103705914      0.3314099414      0.1974374833     -0.0173182990     -0.0826023945     -0.0889494761
H      -1.6213296212     -0.7843724515     -2.0191823584      0.2515706748      0.3091096038      0.5444688953      0.1419900952
H      -0.9231255832     -1.8376315561     -0.7601474241      0.0755863957      0.6894501750      0.2139884300      0.1387676180
H      -2.1130619478      0.3442453639      1.9899428319      0.2516477765      0.1345693693     -0.6048930393      0.1330807498
H      -3.2327533475      0.9711621122      0.7500373017      0.6891440064     -0.0528438652     -0.2883024204      0.1522037441
H       0.0824209457      0.8218612500      1.3840160179     -0.3900899909     -0.1206801418     -0.3974175945      0.1631683148
H      -0.0581957754     -0.9353408964      1.2068248282     -0.3977141149      0.2207401005     -0.3439325312      0.1381472107
H      -3.8010149655     -1.0856316893     -1.1996256578      0.1674530643     -0.2566492131      0.1239304134      0.1018186315
H      -3.0696255927     -2.6681098829     -0.6775351717     -0.0073468316      0.3851429108     -0.2017687090      0.0908696417
H      -2.7195054450     -1.8886681967      1.5411275533     -0.2455806000      0.1490456323     -0.1037726106      0.0899072206
H      -4.2803289025     -1.0484677821      1.1276227398      0.4272789366     -0.0317860978      0.1398437224      0.0969331682
H      -2.4451562820      1.5109451380     -1.3710160822      0.2195145639     -0.4974735633      0.3429135708      0.1499936000
H      -0.7197745150      1.3707702255     -1.7419437666     -0.1351620926     -0.3587411698      0.4224582897      0.1747226738
H       1.3148495017      1.0349727422     -0.7448772991     -0.0868242644     -0.2714200349      0.0112299035      0.1454205173
H       1.0335010848     -0.6960933413     -1.1477924129      0.0004481652      0.1971915976      0.1355495112      0.1172059849
H      -1.8211985953      2.8065397679      0.7786607826      0.1868457122      0.0243551224     -0.2201624724      0.0580992731
H      -0.1100583822      2.7929847122      0.1917647934     -0.3235573019      0.0610070334     -0.0562570554      0.0761196465
H      -1.3881796941      3.5895646102     -0.7741633469      0.0993914077     -0.2221320634      0.0511239634      0.1443905763
H       2.3232868753     -1.3741209127      0.8904971748      0.0528107129      0.2443205418      0.0208972801      0.0897241728
H       2.5889444772      0.3660413724      1.2966806675     -0.0040875436     -0.2473998357     -0.1051940510      0.1010608863
H       3.5441481854     -1.0532412917     -1.2820554078     -0.0548350349      0.2678263465      0.1014696446      0.0944526873
H       3.8132186389      0.6846762769     -0.8737832898     -0.1317452939     -0.2691087523     -0.0145575618      0.1071083944
H       5.8159399100     -0.6790575130     -0.3465937506     -0.1621226106     -0.0480197104      0.3165381548      0.0598835994
H       5.1057459823      0.0047220558      1.1650038085      0.0303234317     -0.2752434693     -0.2018659838      0.0481404238
H       4.8425428493     -1.7380461170      0.7433539692      0.1150053040      0.3062681303     -0.0467275740      0.0412104154
C      -0.2256015165      7.3894590153     -3.7927742404      0.6941148931      0.6475848947     -1.3768898722      0.8187953063
O       0.2362919362      6.6586051465     -4.6546662446      0.8083805013     -3.9034285458     -1.3824967812     -0.7605694974
O      -0.1761143766      8.6001216134     -3.9381996355     -0.9089430246      3.6380255690      1.6065887648     -0.7503391922
C      -0.8527611674      6.8096536790     -2.5605730667      0.1688826448      0.5780346767     -0.4115410306      1.2180255106
F      -0.1782449146      7.2615340746     -1.4416342427     -0.6182175582     -0.6095981898      0.2331733481     -0.4666854906
F      -0.7971835450      5.4276736790     -2.5931721865     -0.4454098696     -0.0156348425      0.8815428462     -0.4870616519
F      -2.1750094353      7.2056160060     -2.4853229469      0.2222297075     -0.5800295598      0.6470985521     -0.4648107497
