38
Properties=species:S:1:pos:R:3:forces:R:3:charge:R:1 energy=-208.13576338864655 homo_lumo=5.68728318238526 dipole="-2.5916685988736723 -0.3356715758471026 -1.2799393182350425" free_energy=-208.13576338864655
N      -0.1303208963      0.3021276858     -0.2532550791     -0.1097997979      0.2178599230     -0.1799282257     -0.4945500667
C      -1.4238118322     -0.1994843041     -0.8133772430     -0.3908618195     -0.2688110541      0.0959036973      0.0193287618
C      -0.5188565356      0.8312940475      1.0952694378     -0.2151269872     -0.0463394420      0.5322871901     -0.0089128519
C      -2.1738077687     -0.8051506403      0.3719778587      0.0383348108      0.0106607988     -0.1058721161     -0.1425374160
C      -1.5656310520     -0.1446854964      1.6204914954      0.0572836242      0.0415107274     -0.1041969579     -0.1309977758
C       0.4121373883      1.3976583919     -1.1244829163      0.6950862775      0.2677867193      0.1056732884     -0.0004221836
C       0.8434465512     -0.8322247962     -0.0715948962      0.3686044038     -0.2385881458     -0.4773110881     -0.0890995374
C       1.7304752435      1.9831276839     -0.6278483945     -0.4995901768      0.1125908937     -0.5164041902     -0.2877201988
C       1.4414259653     -1.3792010915     -1.3646775319     -0.0859127198     -0.0667705632      0.4439733226     -0.2502518194
C       2.1342854502      3.1692550184     -1.4993979608     -0.1503235478     -0.3406955599      0.2072584294     -0.0401635459
C       2.3688365667     -2.5437648945     -1.0177582066     -0.2177461470      0.2383027662     -0.1026018418     -0.0486644006
H      -1.9655591136      0.6569031915     -1.2215683322     -0.0289546873      0.2448158713     -0.0891730440      0.1129909461
H      -1.2279854748     -0.9123193589     -1.6140147141      0.0949826104     -0.0732647046     -0.2239863718      0.1317069385
H       0.3672539331      0.8992289103      1.7281378507      0.2350657742      0.0833350156      0.0060309094      0.2057235555
H      -0.9475187276      1.8257210188      0.9507525528     -0.0871155680      0.2218857604     -0.1739133804      0.1030187059
H      -3.2415670091     -0.5967538662      0.2856105950     -0.2653749045     -0.0377840018     -0.0738784369      0.0913302372
H      -2.0419493420     -1.8884912912      0.4021505348     -0.0494889985     -0.2577180603     -0.0050140099      0.0822909579
H      -1.1073160553     -0.8935498034      2.2688863402      0.0977203975     -0.1249692343      0.2005615548      0.0909704679
H      -2.3208214580      0.3890183374      2.1997414446     -0.1222834094      0.1012933657      0.2153125653      0.0920802676
H       0.5217456245      0.9850121952     -2.1307808857     -0.0166268169     -0.1256970296     -0.2365511071      0.1271363801
H      -0.3571012811      2.1756941340     -1.1585342543     -0.2660382344      0.1041961028      0.0220396851      0.1105009216
H       1.6465043938     -0.4692863397      0.5727346593      0.0460870867      0.0684377075      0.1061375542      0.2894346455
H       0.3076319219     -1.6238020169      0.4563072593     -0.1938744127     -0.1641234035      0.1425200559      0.1343863868
H       1.6343626659      2.3135060737      0.4073192429      0.0366509058     -0.0236833233      0.2184041875      0.1501406198
H       2.5211216874      1.2330069712     -0.6636939226      0.1223033662     -0.1510047806      0.1157382870      0.1825938281
H       2.0307612125     -0.6078732929     -1.8651785876      0.1194464250      0.2153919094     -0.1130118591      0.1193450925
H       0.6598708034     -1.7168664679     -2.0533695231     -0.1917809551     -0.0838079521     -0.2331630902      0.0765462998
H       2.2577758531      2.8625526533     -2.5395161962      0.0726651679     -0.0148748370     -0.3471123410      0.0120829077
H       1.3850215739      3.9616173362     -1.4550217842     -0.2014834099      0.2962527877     -0.0335791762      0.0054961625
H       3.0818837320      3.5628192559     -1.1341823860      0.2818733483      0.1419829978      0.0654989263      0.0692847794
H       3.1565886420     -2.1960377918     -0.3496616388      0.2182731083      0.0528363986      0.1720543827      0.1005495667
H       1.8150599016     -3.3455714856     -0.5274857027     -0.1375413181     -0.2941446657      0.1280638633      0.0120510330
H       2.8213843478     -2.9350617563     -1.9282333513      0.1537011917     -0.1905123607     -0.2396502872      0.0259736571
B       3.6038176631      0.7205290691      1.6894493978     -0.3272897098      0.0156397265     -0.2034945348      1.3954411935
F       2.2319493300      0.7160739100      2.1404042822     -0.4276519086     -0.0053514651      0.5247071114     -0.5905723858
F       3.8835482153      1.9908630110      1.1985967321      0.4054604974      0.8041174343     -0.1490683269     -0.5545992873
F       3.6492663491     -0.2110435488      0.6124668056      0.3014214792     -0.4409420719     -0.4579472321     -0.5811556152
F       4.4345514645      0.3410687406      2.7042548515      0.6399050541     -0.2898142506      0.7636926070     -0.5207572281
