35
Properties=species:S:1:pos:R:3:forces:R:3:charge:R:1 energy=-191.05489306984433 homo_lumo=4.265808259696499 dipole="-2.1511213828841202 -1.4735172831369505 1.2425662548483425" free_energy=-191.05489306984433
N       0.7506981088      0.0906384113     -0.5622156885      0.1805126204     -0.1638879217      0.0236482313     -0.5340511516
C       0.3379024863      0.1597424382     -2.0022285882     -0.4564441784      0.1393946941     -0.4263316444     -0.0109356329
C      -0.4140468601     -0.5561609274      0.1134517773     -0.4631917327      0.0278966109      0.0522658382      0.0244962673
C      -1.1615203291      0.4424114052     -1.9798850167      0.0973688255     -0.0310505847      0.0671566993     -0.1379409158
C      -1.6437077425      0.0247977777     -0.5803268301      0.0684299595     -0.0213243687      0.1050817665     -0.1332233131
C       2.0015653857     -0.7291884571     -0.4469699491      0.4269359119     -0.0122312474      0.5440124935     -0.0481130429
C       0.9573235076      1.4706227455     -0.0385391340     -0.0214525813      0.1814427276      0.1878303642      0.0456760642
C       2.6139969386     -0.7466438584      0.9492667053      0.0483109125     -0.1464511493     -0.4467281067     -0.2337436335
C       3.9038439420     -1.5659392992      0.9111082695     -0.3524541138      0.2072994347      0.0671407698     -0.0463423562
H       0.5539110916     -0.8088534404     -2.4570303886      0.1001591238     -0.2538671657      0.0277752259      0.1121011363
H       0.9245604532      0.9342978138     -2.5000299764      0.2955695136      0.1614545592     -0.0389679255      0.2119704431
H      -0.3805451823     -0.3531842974      1.1838825560      0.0752094601     -0.0082262746      0.2450236151      0.1133427805
H      -0.3415218507     -1.6334386197     -0.0536492567      0.1148622401     -0.2136051301     -0.0745525818      0.1184461934
H      -1.6625939248     -0.1313107351     -2.7613191344     -0.1053674850     -0.0503488410     -0.2241287735      0.0947325756
H      -1.3619213810      1.5006590801     -2.1567211008     -0.0670118610      0.2358539690     -0.1069037262      0.0861475649
H      -2.0250309919      0.8869188818     -0.0290443502     -0.1414267717      0.1640070206      0.1513326988      0.0863617084
H      -2.4369690538     -0.7226692743     -0.6315686550     -0.2304755727     -0.1372133137      0.0906640544      0.0912550589
H       2.7179812998     -0.3021379354     -1.1503706264      0.1090747496      0.1698028882     -0.0002000833      0.2588548751
H       1.7498222023     -1.7430129656     -0.7695520680     -0.1872966279     -0.2308275961     -0.0767022890      0.0903059993
H       1.8866806331      1.8616148027     -0.4469785068      0.2041516895      0.0701737597     -0.1530474554      0.1927740030
H       0.1252221339      2.0958641443     -0.3519706970     -0.2489300122      0.1522819076     -0.1185997176      0.0959103402
H       1.0047858835      1.4418088942      1.0474144226     -0.0273409357     -0.0864017241      0.3008972360      0.0568506038
H       2.8607364417      0.2706789198      1.2607374131      0.0573031972      0.2552819489      0.0443436540      0.1260703199
H       1.9134340341     -1.1750539570      1.6728584670     -0.1873042901     -0.1104193115      0.2415514410      0.0820734982
H       4.3477523141     -1.5988362922      1.9054228204      0.1921319045     -0.0607096471      0.2752059548      0.0378846343
H       3.7053301766     -2.5865801920      0.5819535949     -0.0013602796     -0.3349107806     -0.0696605265      0.0223405419
H       4.6152712738     -1.1047919681      0.2264749749      0.2260026659      0.1429770190     -0.1981072592      0.0709569670
S       3.7228383374      2.1133286443     -2.3583188109      0.0544365597     -0.2458756685     -0.3643390974      1.7580977181
O       4.6701367433      3.1372711677     -2.6933032796      1.1323516284      1.0252813668     -0.5235961060     -0.7556832155
O       2.3196920369      2.4435227741     -2.5926139523     -1.2873268782      0.2863419885     -0.3690932952     -0.8236886310
O       3.9385443824      1.4420049905     -1.0790586403      0.2706469169     -0.7154967057      1.1417770877     -0.8262048131
C       4.0060255001      0.7387730021     -3.5769527967     -0.2958604732      0.7288074116      0.7906215560      1.1408657655
F       5.1682710995      0.1289042621     -3.3889307190      1.3013694062     -0.6046573700      0.2013754551     -0.4446088702
F       3.9377093615      1.1461751649     -4.8343070897     -0.0453129045      0.5100578890     -1.3331215222     -0.4410699227
F       3.0361679578     -0.1864467577     -3.3973853910     -0.8362705874     -1.0308503949     -0.0336240320     -0.4819095605
