30
Properties=species:S:1:pos:R:3:forces:R:3:charge:R:1 energy=-171.3328323264381 homo_lumo=3.1724440734094226 dipole="-0.6886681844193182 2.414547360926396 -0.0696318321260681" free_energy=-171.3328323264381
N       1.6262842837      0.4261185339     -0.4987695466      0.4370158066      0.1591225166     -0.2247342870     -0.5050873219
N      -0.3730270095     -0.3099595927     -0.8138270601     -0.3419152081     -0.1385170786     -0.3432391601     -0.5138616111
C       0.8906244298     -0.4240736021     -1.2114986936      0.0518109725     -0.0344193327     -0.2945932684      0.6221292655
C       3.0854878394      0.4887214258     -0.5465435824      0.1863307271     -0.1222819486      0.4171888939     -0.0555694629
C      -1.4872429683     -1.1259357700     -1.2939811134     -0.2110384658     -0.2790241114      0.3546403799     -0.0671241893
C       0.8188090476      1.0749681816      0.3976011867     -0.0890802711      0.1718026519      0.1995973210      0.2181585472
C      -0.4421195419      0.6122350838      0.1984218438     -0.1062959052      0.1841137420      0.2601170162      0.2143748140
C       3.6805864226      0.0439885659      0.7844852860     -0.1109554920      0.0741116705     -0.3026588376     -0.0761843343
C      -1.9736903260     -2.0590471473     -0.1917307071      0.1297688940      0.2557662424     -0.2485051032     -0.0854971893
H       1.2472909429     -1.0463883633     -2.0121303568      0.0149662260     -0.0335622665     -0.0764417251      0.1454734124
H       3.4059989153     -0.1826831663     -1.3467612909      0.0124362856     -0.1072454889     -0.1504909113      0.1333000572
H       3.3838865376      1.5126068313     -0.7928319323     -0.0113124173      0.2246179666     -0.1229850039      0.1053666427
H      -2.2845160350     -0.4504724177     -1.6200261973     -0.0915158945      0.1908410273     -0.1462515457      0.0981032983
H      -1.1260731063     -1.6987038965     -2.1508819116      0.0510810837     -0.0282312730     -0.1156610950      0.1439114201
H       1.1983806471      1.8061117637      1.0893759584      0.0883499184      0.1464514935      0.1587244572      0.0353921172
H      -1.3690546956      0.8641022198      0.6827948603     -0.2034325331      0.0372266530      0.1114776405      0.0342272917
H       3.3759613675      0.7117157005      1.5895262745     -0.0119952418      0.2445511717      0.2704113186      0.0288799128
H       4.7665754652      0.0570683189      0.7045499279      0.3493538240      0.0445400731      0.0346777278      0.0437317346
H       3.3528720475     -0.9689919886      1.0138447016     -0.0974647673     -0.2923851319      0.0007858970      0.1192234192
H      -1.1701994278     -2.7276543890      0.1151673461      0.2751755304     -0.2454191921      0.0268028968      0.1471646382
H      -2.7988597492     -2.6557588656     -0.5772263602     -0.2860690301     -0.1948087351     -0.0684553840      0.0397918898
H      -2.3186580675     -1.4907379169      0.6713641436     -0.2000870686      0.1731503005      0.2589696710      0.0232880361
S       1.7597847517     -3.7275472833     -0.5536414117     -0.0520005954     -0.0839339906     -0.0600277934      1.7926194200
O       0.4067621829     -4.1533889652     -0.2702044179     -1.3896579292     -0.4581822335      0.1425444269     -0.7970594107
O       2.8085222700     -4.6548876331     -0.2344932586      1.2720179379     -0.9817214509      0.1756981145     -0.7589643993
O       2.0283511651     -2.3365689039     -0.1778273502      0.2751456610      1.1010054661      0.3729721217     -0.8334893626
C       1.7810712222     -3.5914181916     -2.4149519126     -0.0451954956     -0.1072492085      1.1339752075      1.1305389323
F       0.6123218219     -3.0643619221     -2.8376945726     -1.1818933488      0.4465185193     -0.6214398540     -0.4811903764
F       1.9606445989     -4.7379779144     -3.0433364374      0.1707249038     -1.1880294049     -0.5840081164     -0.4359364448
F       2.7344058349     -2.7372230196     -2.8107275617      1.1157318929      0.8411913529     -0.5590910054     -0.4657107468
