30
Properties=species:S:1:pos:R:3:forces:R:3:charge:R:1 energy=-168.7016765387652 homo_lumo=0.037948574918125214 dipole="-3.0637738470155154 3.9193245372158714 0.4382962652966754" free_energy=-168.7016765387652
N       1.1002764714      0.4126159182     -0.3732764099     -0.8538638675     -0.3718503935     -0.6702180635     -0.5145893552
N      -1.1225837196      0.3601761933     -0.3827190806      0.6471463772     -0.3756491991     -0.6795351277     -0.5223961840
C       0.0048278420     -0.2089275555     -0.8519747081      0.2144428072     -1.3019898617     -0.9102737822      0.5743890827
C       2.4931564619      0.0555667496     -0.6307450530      1.0345230686     -0.4594712783     -0.1258097368     -0.0764207465
C      -2.4953879090     -0.0597174062     -0.6528094253     -0.7240390609     -0.3723811267     -0.0351017074     -0.0672954582
C       0.6515032235      1.4117668251      0.4132505327     -0.8348808108      1.1128308245      0.9348824722      0.2458044191
C      -0.7279050653      1.3793052783      0.4074968615      0.7161551370      1.3063614498      1.0633108777      0.2286771151
C       3.1370784607     -0.5130881738      0.6293061300     -0.0541096238     -0.0302481801      0.3332274914     -0.1150945009
C      -3.1128158103     -0.6880285458      0.5917944589     -0.0074849473     -0.0969481698      0.2469724390     -0.1201712639
H       0.0279041249     -1.0699858490     -1.5089026363      0.0936467644     -0.0933295228      0.0016052964      0.1147177733
H       2.5468919131     -0.7057973621     -1.4390000137     -0.2816602419      0.1359297715      0.2657781561      0.1611671032
H       3.0523372275      0.9545901929     -0.9680276987     -0.4337078588     -0.1011633060      0.0262833274      0.1166621198
H      -3.0973808132      0.8184828860     -0.9711448856      0.4061395968     -0.1438835534     -0.0051013744      0.1295250572
H      -2.5103856227     -0.8056637920     -1.4773747824      0.3088843106      0.4017543025      0.1799475975      0.1358694125
H       1.2787119417      2.1062594747      0.9570184785      0.2162245224     -0.0708356509     -0.0700068216      0.0579653152
H      -1.3918013899      2.0437731004      0.9451104423     -0.1963975087     -0.0672926992     -0.0699147359      0.0527346871
H       3.1838290746      0.2636032752      1.4215567808      0.0400587765     -0.2071705862     -0.1528056309      0.0472907376
H       4.1682382263     -0.8556258994      0.4011130569     -0.4025740211      0.0034692313      0.0387072553      0.1069713461
H       2.5466366215     -1.3770313165      1.0022586124      0.3322007197      0.1623322977     -0.2104718322      0.1053627244
H      -2.5202777145     -1.5748208634      0.9026791007     -0.2159291646      0.2717920320     -0.0344426630      0.0929714100
H      -4.1522639128     -1.0101450399      0.3719297706      0.3277356177      0.1114745677      0.0932781313      0.0791409315
H      -3.1343651459      0.0457359347      1.4251051591     -0.0466211605     -0.2937518718     -0.1834343210      0.0712504766
S       3.6510294152     -4.6095303219     -1.4677162336     -0.2977935444      0.1876605001     10.4923626249      1.5785673228
O       3.0644509978     -5.8216058752     -0.7297892598      0.3797496630      0.4911328803     -3.3442902674     -0.7418032965
O       4.9814777140     -4.3670869966     -0.7402180603     -0.5148686100     -0.1912581984     -3.2882348365     -0.7480258735
O       2.7708743643     -3.4487379927     -0.9840848553      0.1334199189      0.0019899267     -2.9419766926     -0.8071618685
C       3.7735222274     -4.7867318815     -3.2678245246      0.1595071593     -0.2839586249     -0.7886551376      1.1132539196
F       2.5071489151     -4.9143005850     -3.8049449050      0.9794003618      0.0982903261     -0.0226887687     -0.4360670386
F       4.5173649545     -5.9109301859     -3.5701254819     -0.6695737412      1.0257068802     -0.0947958319     -0.4260950152
F       4.3890877924     -3.6702645101     -3.7998955159     -0.4557306396     -0.8495427676     -0.0485983379     -0.4372003528
