37
Properties=species:S:1:pos:R:3:forces:R:3:charge:R:1 energy=-209.63114669787169 homo_lumo=4.1470821509571785 dipole="1.1268721191994189 -0.07860185168191018 -2.0730983909223597" free_energy=-209.63114669787169
N       0.2642181933      0.1066312429      1.4373200660      0.2845547928     -0.2353189704      0.3591009489     -0.5020260014
N      -1.4693462027      0.2729269201      0.1717067953     -0.1551720007     -0.0859092197     -0.4395355729     -0.4878759030
C       1.4021786320     -0.4494765960      2.1619158375      0.6298303804      0.2756865633     -0.2970608705     -0.0378311457
C      -2.6017183784     -0.0643089696     -0.6866502481     -0.5175458010     -0.0427668363      0.3823930717      0.0004236733
C      -0.5710448184     -0.5817276559      0.6610302274     -0.0316009768     -0.1165014871     -0.1632549795      0.5838485852
C       2.6980170933     -0.1937924835      1.3910552393     -0.3380072993     -0.3856624390     -0.2470583628     -0.1908296603
C      -3.8403414151     -0.4275004121      0.1424269889      0.3074391490     -0.4014340644     -0.1498168695     -0.2348334784
C      -0.1160492120      1.4188796605      1.4580690828      0.0632078128      0.2616713210     -0.1414249064      0.2295605504
C      -1.2149627593      1.5234847712      0.6657498614      0.1199220682      0.2804609578     -0.0943768110      0.2305109021
C       2.7232696488     -0.9141048370      0.0445695135      0.0311969837      0.2792443854      0.3806490555     -0.0754321842
C      -3.7624663533     -1.8383629485      0.7172737395      0.0510330899      0.4370117645     -0.1707874988     -0.0883463435
H       1.2212827016     -1.5183841877      2.2967616531     -0.1106595189     -0.1464509561      0.1084757105      0.1362125877
H       1.4342275792      0.0311036216      3.1423395162     -0.1534419195     -0.0326340959      0.1937430092      0.1488293715
H      -2.3023910812     -0.8955380326     -1.3316577789      0.0892638696     -0.1206737408     -0.1651360742      0.0981008181
H      -2.8050361000      0.8119752498     -1.3073896557      0.0819372853      0.1779309979     -0.1696163831      0.1041331330
H      -0.5356396567     -1.6421012164      0.4833914903     -0.0320764463     -0.1946470130      0.0007955729      0.1000732749
H       2.8217135029      0.8825279103      1.2384358978      0.0915791311      0.2930318882      0.0326616252      0.0970208388
H       3.5270409263     -0.5457406021      2.0107266545      0.2133514003     -0.0167812124      0.2217622210      0.0985138660
H      -3.9549503495      0.3008536179      0.9487708621     -0.0597800780      0.2337894252      0.1399827022      0.1795178632
H      -4.7092951962     -0.3466985682     -0.5168995889     -0.2461232947      0.0917961081     -0.2084628167      0.0783069866
H       0.3945034058      2.1534992923      2.0549207609      0.0985455309      0.1337755336      0.1321241112      0.0481301027
H      -1.8425906347      2.3670316435      0.4382121268     -0.1815292192      0.1650421311      0.0022404190      0.0474409752
H       1.9175083497     -0.5565713213     -0.5983847043     -0.1948038933      0.0900988893     -0.2590202313      0.0584060113
H       2.6065648430     -1.9894853999      0.1838655476     -0.0180216007     -0.3538358686      0.0015129417      0.0347177176
H       3.6729457625     -0.7289878214     -0.4561958760      0.2479174772      0.0039266729     -0.2555580581      0.0508749661
H      -2.9095558368     -1.9349357334      1.3869691462      0.1484712063     -0.0982912840      0.2556024841      0.1253650195
H      -3.6709008009     -2.5759761133     -0.0813771372     -0.0325218519     -0.2854668231     -0.2771884228      0.0044390450
H      -4.6676918085     -2.0477491374      1.2860826908     -0.2223607436     -0.1542869969      0.2335368237      0.0437533869
N      -2.4234471024     -0.1248829447      3.0342391576      0.0662587338      0.0119761487      0.0778298191     -0.9267157669
S      -2.8403185567      1.2872053365      3.6378152360      0.0650411174     -0.0938312532     -0.4950544479      1.9811283138
S      -1.4517735168     -1.0527940548      3.8735005608     -0.1830244250     -0.3044973185     -0.3712632033      2.0034638788
F      -1.4221013606      2.0913723453      3.7597164128      0.5197162957      0.3978824756      0.2520820972     -0.4747684153
F      -2.3686741449     -1.7142568014      5.0156098671     -0.5128295692     -0.2279724615      0.5114342275     -0.4524835254
O      -3.5245293789      1.9786789984      2.5870388913     -0.7193896079      0.7807216848     -1.1749026861     -0.7691570402
O      -3.3726371455      1.3049371433      4.9556208021     -0.4456374606     -0.1568467799      1.6364664886     -0.7067219302
O      -0.3908209082     -0.4039327949      4.5820161788      0.8511933892      0.7758202246      0.8818305756     -0.7466768791
O      -1.1012871932     -2.1483313795      3.0102836863      0.1940659929     -1.2360583514     -0.7247057101     -0.7890735938
