31
Properties=species:S:1:pos:R:3:forces:R:3:charge:R:1 energy=-176.7754396846756 homo_lumo=3.9155294341683544 dipole="-0.3886439717543076 -1.9612429965720641 1.4751501324011436" free_energy=-176.7754396846756
N       1.6161026189      0.6250320523      0.3376212658      0.0031390480     -0.0005539689     -0.0044168154     -0.4964967966
N      -0.4992786864      1.1110172418      0.3698558857     -0.0032403564      0.0056469463      0.0051336446     -0.5080581844
C       0.4441612141      0.4103668393     -0.2733482126     -0.0006061906      0.0023296634     -0.0041017702      0.5789042012
C       2.9191034313      0.1577969988     -0.1533544892     -0.0051517333      0.0042904735     -0.0072716086     -0.0724818936
C      -1.8992589470      1.2945954452     -0.0544093422     -0.0023817292      0.0037697060     -0.0035245824     -0.0500795424
C       1.4204390331      1.4944047724      1.3867959691      0.0033499274     -0.0041299129     -0.0063477765      0.2274157732
C       0.0923450662      1.7985071926      1.4090607241     -0.0083987400      0.0002868296     -0.0050649162      0.2308514287
C       3.5235015672     -0.9068369411      0.7468234170     -0.0014518819     -0.0008841539     -0.0002473736     -0.0714629395
C      -2.3711352019      0.2137058612     -1.0038118826      0.0011716903     -0.0011181203     -0.0074339881     -0.1374156870
H       0.3112375051     -0.1730217745     -1.1739633373     -0.0039457282      0.0126862953     -0.0144762878      0.1254526994
H       2.7532411182     -0.2003052032     -1.1782132621     -0.0019649320     -0.0013792456     -0.0012795909      0.1481549609
H       3.5511149409      1.0552603862     -0.2345395383     -0.0063240247     -0.0004616650     -0.0013555225      0.1465901596
H      -2.4992506570      1.3070874250      0.8677499265     -0.0017499547      0.0017561346     -0.0095757009      0.1110306754
H      -1.9433498101      2.2856966302     -0.5325936232      0.0032553705     -0.0030817490     -0.0075891625      0.1738114729
H       2.2387561288      1.8677013636      1.9886399816      0.0045956442     -0.0026246946     -0.0043917717      0.0551775207
H      -0.4702870115      2.4802599968      2.0338915140      0.0067192207      0.0091378788     -0.0061295309      0.0516794844
H       3.6982893845     -0.5272096731      1.7641810485     -0.0107602896      0.0045741011      0.0004829756      0.0537683954
H       4.4918166235     -1.2243451348      0.3333716364     -0.0097651734      0.0008594178      0.0017809463      0.0641638581
H       2.8693183747     -1.7888477731      0.8113097352     -0.0114861395      0.0025431426     -0.0009794419      0.0547265980
H      -1.8318023825      0.2664195734     -1.9603093361     -0.0007533908      0.0020240236     -0.0060465290      0.0888730527
H      -3.4357980925      0.3812362316     -1.2212438126      0.0021660688     -0.0019999631     -0.0011718286      0.0833824408
H      -2.2667624275     -0.7884786827     -0.5604894809      0.0060556203     -0.0040052867     -0.0080752163      0.0514172265
N       1.6677373017      3.0063285337     -1.4439076472      0.0116866586     -0.0017300860      0.0069198056     -0.9048395470
S       1.2518293938      4.4493361043     -0.8637686271      0.0100258702     -0.0033489047      0.0172440618      1.9237331277
S       1.0097544611      2.4043507716     -2.7736699489      0.0024961051     -0.0021819520      0.0100396252      1.9519593863
F      -0.3284174411      4.1982377185     -0.3326398836      0.0024889051     -0.0121865344     -0.0007770665     -0.4877939609
F       1.4874181672      3.3966973552     -3.9818031824      0.0173958721     -0.0138997138      0.0044234227     -0.4487898545
O       1.9885625099      4.6327113551      0.3727426050     -0.0037793543     -0.0055912220      0.0137220228     -0.7339327028
O       1.1137992651      5.5121048262     -1.8348683114      0.0053514539      0.0047674167      0.0087816683     -0.6976587912
O      -0.4461373485      2.4365021007     -2.8232952008      0.0026246675      0.0144193821      0.0113217730     -0.7457461876
O       1.6846752298      1.1388087495     -3.0381482775     -0.0107625040     -0.0099142385      0.0204065349     -0.7663363742
