47
Properties=species:S:1:pos:R:3:forces:R:3:charge:R:1 energy=-266.5218958587994 homo_lumo=0.0370122345963424 dipole="-3.147556688260802 0.7508965134178052 2.6861427442863306" free_energy=-266.5218958587994
N       1.3457218073      2.2762397809      0.0738846420     -0.0641749220     -0.0590966765     -0.4827587296     -0.5004840237
N      -0.8588657561      2.4328458765     -0.1761977744     -0.1671411287      0.0972409063     -0.1314061839     -0.5133887444
C       2.7290180786      1.8836140944     -0.1856066193      0.8435634628     -0.1418825808     -0.0889089187     -0.0404487741
C      -2.1943736855      2.2466472582     -0.7420704695     -0.4333146205     -0.1594485736     -0.6822314760     -0.0164444578
C       3.0181462836      0.4810214212      0.3692847678     -0.3021436871     -0.0710860529     -0.1819842280     -0.1928733800
C      -2.4399993801      0.7724725577     -1.0981106796      0.0392370188     -0.0182158075      0.3004403449     -0.2001907805
C       2.1175788278     -0.5894363690     -0.2667463559      0.3032463434      0.0361418179      0.2310731348     -0.2361320206
C      -2.3841483689     -0.1344239071      0.1404474729      0.0224786796     -0.0500898070     -0.4548762995     -0.2036753274
C       0.3153825813      2.1865273360     -0.7893360984      0.2694454944     -0.6683161964     -2.1867345438      0.5034730796
C       0.8079176523      2.5986449363      1.2673149820     -1.0068381867      0.3665283054      1.4595293469      0.2161372715
C      -0.5593241107      2.7034690856      1.1106345137      0.6966526250      0.1644592577      1.7963884741      0.2137185157
C       2.4855293422     -1.9916745134      0.2288788889     -0.1598480413     -0.0083516165     -0.1263869103     -0.2171714502
C      -2.5801341795     -1.6051040966     -0.2419081075      0.0475316552     -0.0002209586      0.2239011230     -0.2175435568
C       1.5464643950     -3.0437031450     -0.3551428810      0.0270427373     -0.2218131570      0.0563620004     -0.1180383066
C      -2.5118432584     -2.5065403017      0.9878213224     -0.0349993709     -0.2465219744     -0.0415853858     -0.1027874719
H       3.4152356565      2.6182519654      0.2881825587     -0.3925376232     -0.0260766045     -0.1224084280      0.1093431237
H       2.9267505541      1.8994932277     -1.2787448468     -0.0851798989     -0.0552614940      0.1175504749      0.1721252702
H      -2.2921098363      2.8680341153     -1.6581205748      0.1283055329     -0.0106011744      0.2909525664      0.1213921600
H      -2.9680265741      2.5868510888     -0.0187261393      0.5474930750      0.0157601983     -0.0688985413      0.1139528854
H       2.8725139134      0.4842104636      1.4716810362      0.0935647613     -0.0333596372     -0.1733578918      0.0802349502
H       4.0831028754      0.2358121406      0.1643443189     -0.2653989379      0.1987089427     -0.0405505738      0.1450195512
H      -3.4419457398      0.6842764674     -1.5717078167      0.2715956937      0.0948602335      0.0221192678      0.1066659143
H      -1.6828626217      0.4410539633     -1.8421830743     -0.2252215724      0.0574041677      0.1242756250      0.1218648331
H       2.2176860712     -0.5494561876     -1.3736917343      0.0252564288      0.0733025322      0.1953139244      0.1327438787
H       1.0576846826     -0.3864310771     -0.0019074041      0.1186086443     -0.0461302965     -0.0927317968      0.1334694427
H      -3.1781134302      0.1729311146      0.8562320208      0.2117750200     -0.0413211611     -0.0544466908      0.0812833190
H      -1.3979889664     -0.0260150638      0.6412749596     -0.2229936065      0.0151356831     -0.0175063030      0.1445994768
H       0.4104859374      1.8672233298     -1.8202725277      0.0823870367      0.0749926788      0.0039024713      0.1002859235
H       1.3606290477      2.6909992417      2.1933607284      0.2257473293      0.0597170583     -0.0935826752      0.0465179714
H      -1.2845864780      2.8915605959      1.8916958821     -0.1907455657      0.0855011934     -0.1510644772      0.0417309608
H       2.4174395546     -2.0272348815      1.3380572814      0.1454532155      0.0511732065     -0.1853220172      0.0723794037
H       3.5292515524     -2.2336455855     -0.0670221697     -0.1943728258      0.1508416556      0.1421529847      0.1197772326
H      -3.5687234419     -1.7376108584     -0.7327716901      0.2674881504      0.0519004988     -0.0356517829      0.0867338004
H      -1.7867078812     -1.9138210285     -0.9572383833     -0.2454933978      0.1333803581      0.0447514442      0.1171660232
H       1.5940982699     -3.0327141503     -1.4650090479     -0.0816782599     -0.0558449609      0.2946132532      0.0456720836
H       0.5021382791     -2.8483218685     -0.0321066107      0.2154528547     -0.1152856102     -0.1584575532      0.0797520023
H       1.8453495159     -4.0506513450      0.0046256011     -0.2125842087      0.1819689694     -0.1914938308      0.0353905346
H      -3.3259607231     -2.2503048757      1.6989318510      0.2737364268     -0.1298210015     -0.1031441156      0.0440219024
H      -1.5314880666     -2.3923368697      1.4980843928     -0.3001293967     -0.0823681398     -0.0611178377      0.0508826838
H      -2.6294690560     -3.5665054835      0.6786400608      0.0483242469      0.2443933449      0.2546123392      0.0538369034
C       5.1628756783     -1.3139124208     -2.7546767976      0.2828895922     -1.0676758716      0.5878035703     -0.2437658665
C       4.9503697994     -0.1436357080     -3.6619616171      0.4423361411     -0.9542678727      0.0987569607      0.9063659190
O       4.2931369583      0.8108048736     -3.2815420939     -2.8120745262      3.0350851848      2.6973096299     -0.7981547632
O       5.4322153096     -0.1383407500     -4.7831833627      1.8952778424     -1.0325326264     -3.1641118371     -0.7183787020
H       5.7013754778     -0.9856894063     -1.8406696345     -0.2095127812     -0.1550438630     -0.1417558995      0.0263806403
H       4.1820825806     -1.7451852606     -2.4665205219      0.2481518371      0.0781743593      0.0731889200      0.0605314472
H       5.7612920656     -2.1003449453     -3.2626018810     -0.1666592876      0.1839631627      0.2174770708      0.0360285216
