38
Properties=species:S:1:pos:R:3:forces:R:3:charge:R:1 energy=-211.15152678772156 homo_lumo=4.7324934574186655 dipole="-2.2017594769970494 0.6839343974870447 1.7944945435793058" free_energy=-211.15152678772156
N       2.5547228730      0.5843118308      1.1480668622     -0.0056926140      0.0070510290      0.0023776243     -0.5035001313
N       3.0230174578      2.6502583169      0.6815062948      0.0022560456      0.0110509236     -0.0062540374     -0.5427358803
C       0.6744140769     -1.0407630991      1.1304241265     -0.0079475029      0.0047535305     -0.0025082453     -0.1741701013
C      -0.1616812758     -0.3358215437      0.0647660800     -0.0111121620      0.0006194491      0.0037298147     -0.2006937009
C       2.1781554577     -0.8250684041      0.9808536356      0.0042450878      0.0016028239     -0.0187305747     -0.0178071830
C      -1.6630557610     -0.5746023407      0.2255530894      0.0016422607      0.0087759849     -0.0120089096     -0.1586009590
C      -2.4924574859      0.1315421532     -0.8470189612      0.0063116192     -0.0043298181      0.0083659179     -0.2059459900
C       2.6802589840      1.4684624682      0.1524431632      0.0040351058      0.0137953156     -0.0071081698      0.6137876200
C       2.8437992769      1.2101222694      2.3416077664     -0.0144994880      0.0010569261      0.0076711625      0.2061977679
C      -3.9943237972     -0.0890634876     -0.6814306430      0.0082394009      0.0082927056     -0.0131111984     -0.0667903912
C       3.1462128568      2.5079640832      2.0475150765     -0.0079847966      0.0033299632     -0.0106626837      0.2254068924
C       3.4169477866      3.8223437137     -0.0995337882      0.0070474574     -0.0122510736      0.0042088058      0.0961407894
H       0.3524200467     -0.7173446884      2.1372173882      0.0031473516      0.0036490167      0.0056075639      0.0938191841
H       0.4988242656     -2.1295913110      1.0789319954      0.0035838048     -0.0080923286      0.0022390164      0.1037549185
H       0.1592660416     -0.6788593503     -0.9362212296      0.0126321638      0.0053524550     -0.0101920789      0.1000577967
H       0.0257174072      0.7527111463      0.1015303617      0.0069150219      0.0132338574      0.0072372618      0.1206347013
H       2.5523319243     -1.1259015870     -0.0083600135     -0.0068225385      0.0029941700     -0.0030927276      0.1701801730
H       2.7476992723     -1.3912689345      1.7317295370      0.0043441590     -0.0081608860      0.0087886724      0.1133524257
H      -1.8709266856     -1.6601575165      0.1926775281      0.0081639098     -0.0134787125     -0.0040658875      0.0893490716
H      -1.9852568904     -0.2271403842      1.2251942441      0.0012031102      0.0033863050      0.0113846748      0.0845692360
H      -2.2704869719      1.2142141319     -0.8191969476     -0.0049092483      0.0051977438      0.0012177991      0.0830664290
H      -2.1710533851     -0.2245958622     -1.8426491999     -0.0035327259      0.0011574248     -0.0045726576      0.0909482154
H       2.6258820507      1.2474330783     -0.9070637310      0.0168469414     -0.0072438617     -0.0146420024      0.1353802800
H       2.8282454579      0.6814315514      3.2855984409     -0.0181503123     -0.0090597540      0.0102923319      0.0430225232
H       3.4566207109      3.3278720144      2.6828103306     -0.0130023787     -0.0054474026     -0.0035453848      0.0437007194
H      -4.3431597768      0.2878323565      0.2935087744     -0.0010734845     -0.0046078514      0.0077048232      0.0335404683
H      -4.5671448210      0.4287835584     -1.4666042181      0.0172930479     -0.0086317811      0.0136318383      0.0414379177
H      -4.2435320757     -1.1608873664     -0.7353254549      0.0010852049     -0.0069168084      0.0034045264      0.0366895112
H       4.3614622878      3.5949089061     -0.6110975931      0.0032971446     -0.0055084574      0.0076080290      0.1260532787
H       2.6371609060      4.0467796776     -0.8368437298      0.0147167091     -0.0116858264     -0.0002964472      0.0625483688
H       3.5297425893      4.6710652570      0.5840954278     -0.0005275902     -0.0182048925     -0.0045743451      0.0574122528
P       5.5298797298      0.5649385552     -1.6438124243     -0.0056117214      0.0040423313     -0.0000687745      2.1907136893
F       6.5451777540     -0.5996756236     -1.1078920923     -0.0098338263      0.0099503515     -0.0052387079     -0.4947385746
F       5.6376920625      0.0265522732     -3.1828433819     -0.0141728559      0.0090406279      0.0047216137     -0.4925785190
F       4.2133664688     -0.4579949907     -1.3835026172     -0.0005618839      0.0056669526      0.0025092448     -0.5377962521
F       4.4274691930      1.7480239104     -2.1397450602      0.0026892980     -0.0009685311      0.0072345570     -0.5380417713
F       5.3489698017      1.1262875101     -0.0727035225      0.0054105290     -0.0007025206     -0.0014596018     -0.5291723964
F       6.7591760280      1.6229540368     -1.8729575880     -0.0096702441      0.0012906188      0.0021971563     -0.4991923800
