37
Properties=species:S:1:pos:R:3:forces:R:3:charge:R:1 energy=-198.60711746215674 homo_lumo=4.290142841272045 dipole="-2.3037854188860125 -0.5573064642750712 2.0873851125370484" free_energy=-198.60711746215674
N       0.5744087590     -0.1806187200     -0.1901113706     -0.1615371420      0.0044785606      0.1462536004     -0.5043862321
C      -0.5591714375      0.0366926813      0.7726679641     -0.4855971446     -0.3140764449      0.0396075359     -0.0676888822
C       0.0969762295     -0.1614070530     -1.6217105614     -0.2857917904      0.2993389559     -0.3156227270     -0.1173574094
C       1.1914949977     -1.5320886848      0.0830110989      0.4859782939     -0.3241152029     -0.1550960926     -0.0753364656
C       1.5799098506      0.9273109737     -0.0043415171      0.3697653937      0.0661422706      0.3974831823     -0.1404917932
C      -1.7407988230     -0.9091513962      0.6115040139      0.4034441313      0.2437231538     -0.0236983654     -0.0765373764
C      -0.6701289027      1.0836024458     -2.0365505178      0.2122135504     -0.3132258333      0.3469856273     -0.0890500628
C       2.4812730572     -1.8292134120     -0.6666695803     -0.4625524242      0.0972756600      0.3138043136     -0.0924615260
C       2.2272156086      0.9937488906      1.3690842901     -0.3702107160     -0.1328817377     -0.3273760263     -0.0789721506
H      -0.1474305877     -0.0738759711      1.7780673112      0.1515870207      0.0347297003      0.1480085309      0.1523648510
H      -0.8916074588      1.0699146891      0.6496914471      0.0296457450      0.2296472920     -0.0353292213      0.1397203230
H       0.9876982823     -0.2542164702     -2.2478284594      0.3123212795     -0.0171356622     -0.1549973553      0.2661425438
H      -0.5220360366     -1.0499188283     -1.7646434838     -0.0992220533     -0.2546471205      0.0622147822      0.1085115642
H       1.3623129087     -1.5916999555      1.1609737237     -0.0628941602      0.0363882588      0.2451432997      0.1237332254
H       0.4374714043     -2.2760840984     -0.1845586993     -0.2212206560     -0.0648308172     -0.0104532280      0.1429919807
H       2.3540754350      0.7844273951     -0.7602014640      0.1967795119     -0.0219807646     -0.2031419968      0.2855687130
H       1.0613311698      1.8650411841     -0.2080659751     -0.1670751779      0.1040221398     -0.0953568239      0.1412948006
H      -2.4708325219     -0.6536955176      1.3796808826     -0.2424996041      0.0258772855      0.2170835426      0.0677163526
H      -2.2199218354     -0.8028453085     -0.3594438275     -0.1916773837      0.0210457327     -0.2827389568      0.0578611698
H      -1.4501910286     -1.9485911280      0.7519640651      0.0158760529     -0.3215316691      0.0771438673      0.0521257104
H      -0.9517775860      0.9482585980     -3.0808296514     -0.0602538977     -0.0000653898     -0.3111606703      0.0730574972
H      -1.5788279245      1.2312259819     -1.4546252155     -0.3523089612      0.0527475208      0.1286645501      0.0273003236
H      -0.0531450594      1.9768768698     -1.9717598296      0.1200308589      0.2286364029     -0.0949313976      0.0808459781
H       2.7680607876     -2.8510717013     -0.4173795653      0.0734126222     -0.3536628639      0.0944049862      0.0424321952
H       2.3552493267     -1.7608378017     -1.7446159737      0.0648474382      0.0608427430     -0.3309580554      0.1004103002
H       3.2904137012     -1.1648470272     -0.3729148302      0.2584970853      0.1840445713     -0.0430008716      0.0899350465
H       2.9648875765      1.7953515328      1.3305528825      0.2432113547      0.2013225902     -0.0077191795      0.0826869999
H       1.5118959903      1.2270151153      2.1570414294     -0.1499414324      0.1030367609      0.2894818129      0.0263994808
H       2.7478709746      0.0720682580      1.6212139162      0.2441578363     -0.2483040943      0.0890973290      0.0503942198
S       3.7716160566      0.6489481105     -3.1118655972     -0.0532239693      0.2987129153      0.0420282509      1.7707698986
O       4.1312932883      0.6179020006     -1.6989119901      0.3568348635      0.1908554246      1.3403183287     -0.8206228987
O       2.5871087445     -0.1488266087     -3.4172457473     -1.2210945359     -0.6455050876     -0.3798951757     -0.8306799862
O       4.8610226928      0.5248950641     -4.0376601141      1.1690151673      0.0443302197     -1.1000808728     -0.7602067021
C       3.1334946584      2.3821639475     -3.3202732116      0.2562628623     -1.0652452686      0.2396159672      1.1460161881
F       2.1396353512      2.5816239588     -2.4241611364     -0.9157778318      0.4100540432      0.7617880496     -0.4874539512
F       2.6204880136      2.5899084902     -4.5252374488     -0.5052325196      0.1968865588     -1.3386717649     -0.4450887043
F       4.0607155446      3.2999294797     -3.0903991177      1.0442303324      0.9430691958      0.2311012246     -0.4419452214
