44
Properties=species:S:1:pos:R:3:forces:R:3:charge:R:1 energy=-243.10605301657526 homo_lumo=3.9842969403963915 dipole="-1.0740486615047586 -2.3416356920123054 1.0516094220185521" free_energy=-243.10605301657526
N      -0.7116595410      1.7971034188     -0.4622419987     -0.2392549488      0.0983552256     -0.2576535962     -0.5037993027
N       1.1960448077      1.3306622781      0.4136215225      0.4754026716     -0.1038396482      0.1139244045     -0.5457816702
C      -1.7270860640      2.1492827068     -1.4509577540     -0.3517964578     -0.5363741405     -0.1369471737     -0.0926467547
C       0.5569156436      1.5120725308     -0.7388562396     -0.0207174710     -0.1421159178     -0.1458511736      0.6270705051
C      -0.8870935016      1.8018248451      0.8943433511     -0.1154328485     -0.0635852751      0.2065876735      0.2231696617
C       0.3179626380      1.5061864601      1.4481195859     -0.1497325898     -0.0851373727      0.2394358911      0.2342031444
C      -2.7095763142      1.0003693149     -1.6351127293      0.2567461448      0.3006860340      0.0710766766     -0.0498838134
C       2.6220423214      1.0797641787      0.5468380801     -0.0327544829     -0.2768048020     -0.0276846894      0.0917517289
H      -2.2327283830      3.0517171756     -1.0981923541      0.0495686105      0.2320904666      0.0207083185      0.1257954543
H      -1.2099415559      2.3795511061     -2.3844820566      0.0762520137      0.1487484621     -0.0354959288      0.1819200165
H       0.9970790755      1.4728366122     -1.7198934866      0.0801158246      0.1016107443     -0.1327112237      0.1252148397
H      -1.8348410860      2.0293516367      1.3496422967     -0.2070686128      0.0828015764      0.0961584898      0.0400783701
H       0.6220466234      1.4248766636      2.4766620746      0.0844525283      0.0131003440      0.2352324845      0.0377645932
H      -2.1890908329      0.1067188863     -1.9786430117      0.1167176457     -0.2897620140     -0.1105253969      0.0483920291
H      -3.4524541694      1.2838624362     -2.3789622093     -0.2656674426      0.0407778348     -0.2214221213      0.0574434570
H      -3.2173581036      0.7740168668     -0.6979201116     -0.2164966475     -0.1237206730      0.2484390439      0.0448344731
H       2.7980650459      0.0082246381      0.6523202716      0.0185062704     -0.2712145449      0.0411377589      0.0692716442
H       3.1233422804      1.4570790786     -0.3425851122      0.1154566922      0.1460807393     -0.0968953925      0.0983745008
H       2.9895288443      1.6049669711      1.4262431817      0.0714988782      0.1500977320      0.1063473808      0.0770514436
P       1.6324165208      4.8764661230     -1.6805721135     -0.3602638293     -0.0994705895     -0.3204712056      1.7083943441
F       0.1136462647      4.1904565660     -1.3475127779      0.0519009453      0.2852448178     -0.0309888817     -0.5489183606
F       2.4030829254      3.3673256277     -1.3933518187     -0.0067202360      0.2743324547     -0.2063602909     -0.5470930495
F       0.8748985794      6.3309790163     -1.9713759319      0.1300216100     -0.1687118539      0.0648194584     -0.5140051907
C       1.2594321820      4.1970958244     -3.4928193028     -0.2178370527      0.9588904534      0.7877878012      0.5283226547
C       1.7177314112      5.1865244762      0.2955257273      0.7954685584     -0.2544487493     -0.7009422343      0.5447091606
C       3.3818633584      5.7804315791     -1.9932391989     -0.9308613578     -0.3312554166     -0.4021437453      0.5449135185
C       0.1258072780      4.8383108585     -4.3358882483      0.4528769008     -0.0735385206      0.7061122215      1.3927575425
C       3.0165887931      5.0283876750      1.1463598754     -0.4146057917     -0.1096281296     -0.5345240176      1.3933912217
C       3.9018745779      6.3057137314     -3.3624654502     -0.6320325784     -0.3755736033      0.4543980749      1.4142672672
F       0.8784739041      2.8930318443     -3.3708324658     -0.3925624147     -1.3711670355     -0.2307096727     -0.4805166004
F       2.3736238426      4.1871383958     -4.2382620429      0.8799913541     -0.1650162897     -0.8476492898     -0.4516548792
F       0.9095176788      4.2506982870      0.8660577738     -0.6192746226     -0.7738898332      0.6032830953     -0.4612154019
F       1.1981126731      6.3811805221      0.6028640925     -0.4260982925      1.2176044703      0.3435619834     -0.4353595817
F       4.3686697343      5.0254559961     -1.4732088037      1.0951084559     -0.7125219591      0.2559998683     -0.4535014771
F       3.2693648704      6.8770810117     -1.2125323157     -0.0401518430      1.2358775926      0.4183158266     -0.4471971517
F       0.0320083129      4.2172508912     -5.5150172677      0.0317663327     -0.6830191779     -1.1506442340     -0.4549424524
F       0.3152319861      6.1273860761     -4.5659786686      0.2340515699      1.0563471854     -0.2628422597     -0.4400727903
F      -1.0467927721      4.6853378545     -3.7127508036     -1.0404134658     -0.1069551027      0.5049603301     -0.4602738844
F       2.6680784411      4.9930633990      2.4396593924     -0.3853635138      0.0906868900      1.2917981014     -0.4593397432
F       3.6159107298      3.8581453887      0.8823505190      0.5513475793     -0.8547316777     -0.1290135958     -0.4708650837
F       3.9042012534      5.9940831662      1.0026293966      0.6990792514      0.9033993516      0.0083898215     -0.4405253578
F       4.5849921060      5.3685311322     -4.0111486511      0.7507597215     -0.8646589958     -0.5373657487     -0.4492898443
F       4.7154130160      7.3434661933     -3.1768702936      0.8161379755      0.9575002157      0.2867300544     -0.4486815969
F       2.8947618812      6.7121417283     -4.1334004370     -0.7681210347      0.5429087317     -0.5863628870     -0.4535275841
