44
Properties=species:S:1:pos:R:3:forces:R:3:charge:R:1 energy=-243.30806598415978 homo_lumo=3.561083253348926 dipole="0.35243890034869246 -3.1888775513986354 0.865454782811329" free_energy=-243.30806598415978
N      -1.7789118795      1.6760338235     -0.4727016977      0.0033728141     -0.0029037326      0.0013835125     -0.5098497988
N       0.2797905567      1.2910935469     -1.0443615009     -0.0033378802      0.0021923504      0.0065286782     -0.5541242735
C      -3.2305453375      1.9028748791     -0.5583492846     -0.0038427558      0.0047508215     -0.0039704355     -0.0892871455
C      -0.9684497577      1.4431055866     -1.5096826157      0.0015591116      0.0023556508     -0.0071212487      0.6189628381
C      -1.0301320868      1.7009247164      0.6807556092     -0.0007387836     -0.0010592740      0.0020204830      0.2305879273
C       0.2640729981      1.4608451926      0.3240740720      0.0058919867      0.0022764539      0.0009388760      0.2332665130
C      -4.0110962947      0.7068288732     -0.0415824906     -0.0035275343     -0.0023651869      0.0000606582     -0.0717467136
C       1.4767502613      1.0835347416     -1.8546170691      0.0039230502      0.0013197451      0.0003955830      0.0848735713
H      -3.4364551145      2.8252315518      0.0033543131      0.0019379370     -0.0032792601     -0.0009952672      0.1545595814
H      -3.4544903067      2.1244049665     -1.6095522611      0.0088759992     -0.0005969293      0.0010793494      0.1576848522
H      -1.2615720166      1.4486337454     -2.5519094882     -0.0017414536      0.0026769702     -0.0031888017      0.1211502139
H      -1.4673340104      1.9220219154      1.6460008293     -0.0136691767     -0.0096253479      0.0014521442      0.0574689913
H       1.1690342034      1.4234614708      0.9168101768      0.0064987536      0.0018167943     -0.0005005445      0.0523771868
H      -3.7846049482     -0.1976734666     -0.6252850122      0.0081262968     -0.0009631728     -0.0049775177      0.0544550475
H      -5.0873583360      0.9142934903     -0.1292531779      0.0028831429      0.0049842559      0.0013412703      0.0711905509
H      -3.7893462424      0.5041627142      1.0165167730      0.0000082128      0.0027788592      0.0068336183      0.0537900051
H       1.1769262614      0.7969346875     -2.8672929329     -0.0060758639      0.0016199555     -0.0000959175      0.0758632811
H       2.0466072018      2.0194215390     -1.8984958073     -0.0002587154      0.0055040569      0.0056150929      0.1016958252
H       2.0733621859      0.2799027211     -1.4062052629      0.0009002410      0.0005315425      0.0073373490      0.0796814405
P      -1.5457560043      5.7039342059     -1.9697945865      0.0023672288      0.0083713781     -0.0158757761      1.7409936623
F      -2.9653872581      6.3921071406     -1.4608434969      0.0033303048      0.0003264268     -0.0059625871     -0.5074909943
F      -1.7538170519      4.3508558476     -0.9806401937     -0.0054434143     -0.0055232089      0.0112697689     -0.5364686718
F      -1.2757951462      6.9726809223     -2.9956551345      0.0048241318     -0.0118477567     -0.0002223275     -0.5046654695
C      -2.7154991587      4.7836988201     -3.2753601241      0.0183704495     -0.0052942873      0.0051483313      0.4863460161
C      -0.6950202157      6.6440058825     -0.3760602461     -0.0041177098      0.0091653508      0.0000858022      0.5182579149
C       0.2623983168      4.9855507270     -2.5826770990      0.0066554948      0.0164344428      0.0016510398      0.5208730737
C      -3.3141920164      5.5858304443     -4.4700128683     -0.0117081315      0.0020433020     -0.0113715811      1.3803397153
C       0.4253979269      6.0561323243      0.5570611918      0.0119521130      0.0163991541      0.0076421913      1.3588616963
C       0.6396187122      4.3254516199     -3.9502087468     -0.0044574775      0.0137295489      0.0021253892      1.3997696058
F      -3.8243363960      4.2804809746     -2.6117234656      0.0113824151     -0.0050633695      0.0037089106     -0.4575117932
F      -2.1043254682      3.6663629467     -3.8357377146     -0.0139438988     -0.0086887780     -0.0105711501     -0.4773700832
F      -1.7141011520      6.8505963102      0.5363917284     -0.0061179910     -0.0017622302      0.0048827660     -0.4390111487
F      -0.2345187969      7.8822135568     -0.7555425430     -0.0124994773     -0.0096839908      0.0182982528     -0.4350764034
F       0.7423967065      4.0655288598     -1.6471999352      0.0009233763      0.0007752030      0.0070577519     -0.4735199979
F       1.0994402207      6.0760380539     -2.5302078752     -0.0149327153      0.0104492289     -0.0108735814     -0.4354922392
F      -4.1643093721      4.7701319717     -5.1681556314      0.0078489951     -0.0022906774     -0.0100919590     -0.4562828594
F      -2.3656012013      6.0078152793     -5.3334783321     -0.0019582066     -0.0005752419      0.0117796053     -0.4434209051
F      -4.0218919151      6.6489303208     -4.0405243663      0.0024219605     -0.0097362299     -0.0044515759     -0.4360385306
F       0.5333525917      6.8543963668      1.6575875249      0.0135734151     -0.0167259919     -0.0027826690     -0.4473340679
F       0.1062825825      4.8062754542      0.9993406179     -0.0076400406     -0.0034478000     -0.0031476421     -0.4633389741
F       1.6534308372      6.0049345115     -0.0038134241     -0.0208438749      0.0021567851     -0.0011904902     -0.4467874653
F       0.3031956588      2.9972753715     -4.0010059526     -0.0064447732     -0.0047763154     -0.0011256267     -0.4797374081
F       1.9957595354      4.3618281257     -4.1043069901      0.0013761423     -0.0115070785     -0.0111013371     -0.4515746704
F       0.0841892330      4.9524414308     -4.9976534114      0.0142963015      0.0050575831      0.0009816120     -0.4369198966
