42
Properties=species:S:1:pos:R:3:forces:R:3:charge:R:1 energy=-228.98905669868338 homo_lumo=5.3717948339613395 dipole="-1.8115577090644777 0.7891282019974367 -2.5901230568369686" free_energy=-228.98905669868338
N       0.4220082812     -0.1571122734      0.3803637078     -0.0148087796      0.2739526879     -0.1865343531     -0.4921855862
C      -1.0071379094     -0.0157253928     -0.0421104715     -0.4746557785     -0.1636239757      0.1070976737      0.0130083625
C       0.3855875121      0.2452610572      1.8269904901     -0.1793789489     -0.1387251019      0.4868007973     -0.0492665812
C      -1.8276541520     -0.5126944952      1.1466545112      0.0592707995      0.0598563860     -0.1509471917     -0.1418336093
C      -0.9219055912     -0.3163179505      2.3720034978      0.0595482605      0.0019764801     -0.0717739714     -0.1399816060
C       1.2944582480      0.7665308701     -0.4139528651      0.6702007850     -0.1071743116      0.0477159232     -0.0111528177
C       0.8789270621     -1.5855764094      0.2856580249      0.0568657433     -0.2770624199     -0.6672196223     -0.0861022067
C       2.7750561304      0.6912737332     -0.0422841332     -0.3406060317      0.3121587093     -0.2753180737     -0.2805601177
C       0.9628044589     -2.1565059015     -1.1265880520      0.0095340055     -0.0369221854      0.4428904167     -0.2489216019
C       3.5443267177      1.7825740930     -0.7839987318     -0.2175698725     -0.3382724686      0.1633674812     -0.0465703562
C       1.4481160679     -3.6040553985     -1.0341837131     -0.1370774055      0.3809481295     -0.1061609266     -0.0484542138
H      -1.1906926566      1.0453309972     -0.2269439746      0.0615246283      0.2541137731     -0.0376212687      0.1153839781
H      -1.1832073111     -0.5734200053     -0.9611403767      0.0232363194     -0.0575268132     -0.2608106011      0.1264798224
H       1.2573808125     -0.1543127685      2.3370105586      0.1128993954      0.0754745525     -0.0483595280      0.2588087912
H       0.4026682079      1.3359525950      1.8697246213      0.0550027234      0.2687930242     -0.0964577962      0.1049536149
H      -2.7521508593      0.0613281826      1.2278165726     -0.2702829349      0.0636606130     -0.0465242080      0.0911273334
H      -2.0914351447     -1.5646070049      1.0207321649     -0.1356485088     -0.2337533248     -0.0345473676      0.0813423810
H      -0.7426315213     -1.2632199551      2.8839635023      0.0695015959     -0.1321564528      0.1779645116      0.1208683509
H      -1.3578871482      0.3805211700      3.0890234026     -0.0479834798      0.1234808175      0.2217470360      0.0920179302
H       1.1473404181      0.5269642549     -1.4704496384     -0.0912818344     -0.0506426995     -0.2389922318      0.1291032437
H       0.9186227273      1.7786443150     -0.2382633426     -0.1560386729      0.1871168746      0.0739729954      0.1219355525
H       1.8595404460     -1.6310400264      0.7571048712      0.0395183189      0.0099991337      0.1443263810      0.2531520295
H       0.1905397425     -2.1795197509      0.8883966919     -0.0735481052     -0.0786517043      0.1992825154      0.1888428995
H       2.9026989454      0.8273821172      1.0329282027      0.0346020842     -0.0727246508      0.2622572138      0.2010793525
H       3.1866829381     -0.2841039125     -0.3109384386      0.0904751287     -0.2663452088     -0.0024480905      0.1159562791
H       1.6663945973     -1.5823283294     -1.7348614326      0.1603631542      0.1688486134     -0.1795452211      0.1017553684
H      -0.0132107688     -2.1313980048     -1.6201157963     -0.2270572220      0.0126845324     -0.1878424740      0.0881665641
H       3.4439554592      1.6627220468     -1.8636786890      0.0216972438      0.0271997349     -0.3514304208      0.0249238321
H       3.1754749655      2.7702616027     -0.5053173795     -0.0566032343      0.3309398602      0.0609411061      0.0305611009
H       4.5998687955      1.7201241485     -0.5227889953      0.3181244125      0.0475773274      0.0326359722      0.0561194147
H       2.4237732167     -3.6460513020     -0.5504225731      0.2800110056     -0.0872124379      0.1765754900      0.0619665513
H       0.7461801216     -4.2056185695     -0.4567673016     -0.1610645410     -0.2406700876      0.1863719727      0.0417857920
H       1.5351730164     -4.0295476625     -2.0333009937      0.0380293693     -0.1949693097     -0.2651563541      0.0403214440
N       3.3690088763     -1.6519220647      4.5096788108     -0.0377335208      0.0899378247     -0.0573875039     -0.8441464859
S       2.7849011777     -2.5516443213      3.3531364336      0.1108399345     -0.2467544083      0.2376861861      1.9459257804
S       2.9921239097     -0.1084789209      4.4770150932      0.3613194666     -0.0568918333      0.3763579458      1.9462773775
F       3.5158997782     -1.9976021919      1.9771683637      0.4543352075      0.2345146336     -0.5090233561     -0.4891127640
F       1.3728937697     -0.0801741979      4.7090945363     -0.7286365730     -0.0333074008      0.1941503468     -0.4756067249
O       3.2797959897     -3.8758589265      3.4980795178      0.6861186147     -1.5150469082      0.1469235738     -0.7151900168
O       1.3891449928     -2.3744776058      3.0364728222     -1.0815452348      0.2955441145     -0.1192115742     -0.7880246993
O       3.1350824273      0.5485383748      3.2052422621      0.0727019567      0.4574093544     -1.2594897680     -0.7823964454
O       3.5343534968      0.5149997251      5.6318228629      0.5858005253      0.6522465260      1.4137363644     -0.7123573135
