36
Properties=species:S:1:pos:R:3:forces:R:3:charge:R:1 energy=-204.1315702327349 homo_lumo=2.3398282846304137 dipole="-1.4741089303270432 -0.9238126736891366 2.332554576742305" free_energy=-204.1315702327349
N       1.1377841777      0.5853508098      0.3330131007      0.3046897536     -0.0723382917      0.3877003200     -0.4922896123
N      -0.8202086220      0.6704921082     -0.5582092882     -0.3026224916     -0.1280583149     -0.3382855594     -0.5076611759
C       2.4316997717      0.0825050698      0.7874435701      0.4507396828      0.0080896032     -0.4580422509     -0.0031719880
C      -2.0690361548      0.2699091042     -1.1940027202     -0.4761753932      0.1758361130      0.4384245840     -0.0208514436
C       0.1480262103     -0.1560484540     -0.1635251984     -0.0831010962     -0.1523169110      0.0273293156      0.5737932792
C       3.3992598141     -0.0859777437     -0.3909894951     -0.2874720515     -0.3730852628      0.1758635258     -0.2242416082
C      -3.2217095897      0.3047432946     -0.1888960757      0.3757904909     -0.4339535357      0.0707491104     -0.1960868561
C       0.8055262993      1.9058677684      0.2266152235     -0.1673453979      0.1785328249      0.2250554011      0.2671226089
C      -0.4354143372      1.9613384116     -0.3247544401     -0.0564395710      0.1751323554      0.2452409004      0.2393181465
C       3.0443761250     -1.2762327540     -1.2742645667      0.1389867914      0.2615637474      0.3579002708     -0.0861417565
C      -3.0339165188     -0.7061669043      0.9401921673     -0.0826311287      0.3662088468     -0.2887844293     -0.0744998640
H       2.2634146049     -0.8695272189      1.3002286392     -0.0569299725     -0.1586298192      0.1650462061      0.0946847790
H       2.8258724181      0.8079535106      1.5032204159     -0.0211419177      0.1376019082      0.2200513361      0.1041579797
H      -1.9291208079     -0.7341437290     -1.6016886306      0.0530401035     -0.1471805026     -0.1287586889      0.1099790166
H      -2.2549754741      0.9643929593     -2.0166020377      0.0801498531      0.0085629756     -0.1988013057      0.1400214365
H       0.1265633386     -1.2293578629     -0.2283114669      0.0274623797     -0.2058945786     -0.0310672409      0.0906998115
H       3.3978838440      0.8292001214     -0.9868727739     -0.0031034109      0.2396320928     -0.1420376923      0.1831979462
H       4.3995506777     -0.2226100547      0.0300287143      0.2868326461     -0.0083500613      0.1588435914      0.0712205220
H      -3.3066480543      1.3131282340      0.2267237667     -0.0877115731      0.2915541058      0.0475825219      0.1024983113
H      -4.1444914766      0.0831118921     -0.7317213663     -0.2531201816      0.0283280217     -0.1779261106      0.0987834779
H       1.4814361051      2.6904096001      0.5151310711      0.1757724829      0.1660353122      0.0198705038      0.0449902803
H      -1.0441992613      2.8009863076     -0.6083866851     -0.0957946828      0.1866415399     -0.1044564810      0.0414141828
H       2.0498378274     -1.1536785854     -1.7019387447     -0.1643108723      0.0174884324     -0.2799013204      0.0892133992
H       3.0813288969     -2.2087777618     -0.7075403112      0.0256224471     -0.3408518460      0.2307954491      0.0037813333
H       3.7545136361     -1.3310889112     -2.0978276970      0.0597474956     -0.0548939514     -0.3056912485      0.0726926835
H      -2.1254391144     -0.4883836888      1.5035784963      0.2410785723      0.0352757845      0.2409308729      0.0614603774
H      -2.9615397217     -1.7181349485      0.5399016843      0.0115074064     -0.3518913352     -0.0793372899      0.0331168962
H      -3.8827294730     -0.6613335093      1.6216028034     -0.1995130642     -0.0639602441      0.2790170929      0.0533503882
S       2.0864245014      1.7936349675     -3.3917979253     -0.2528211943     -0.1886120494     -0.1563104410      1.7872458997
O       2.9388617881      0.6299206847     -3.4979104008      0.7648679212     -1.2042216400     -0.2207709838     -0.7973235437
O       2.2398227083      2.7974588149     -4.4084261256     -0.0401914739      1.1704703935     -1.1987406430     -0.7664554670
O       1.9415372044      2.3008474789     -2.0314205996     -0.1397065312      0.5030499437      1.1616599971     -0.8282027079
C       0.3862150748      1.0822204157     -3.7208318868      1.0251646232      0.4052657769      0.3342666778      1.1391028403
F       0.2173563017     -0.0763167907     -3.0469492894     -0.1365425692     -1.2109913083      0.4627775128     -0.4865793591
F       0.1557072976      0.8323479053     -4.9992490130     -0.1855405190     -0.2551835857     -1.3399274752     -0.4386535753
F      -0.5846413645      1.9045318980     -3.2836829155     -0.9292375571      0.9951434601      0.1997339706     -0.4796866387
