49
Properties=species:S:1:pos:R:3:forces:R:3:charge:R:1 energy=-263.0041657242537 homo_lumo=5.0057660275639 dipole="-1.1458019296928457 2.8336494033687183 3.3679682580365258" free_energy=-263.0041657242537
N      -1.5423344414      0.1031140099     -0.0710534182      0.1519089731     -0.0344009941     -0.1755815708     -0.5254168887
C      -2.5572721951      0.4895587239     -1.1051492582     -1.4525038362      0.3850867326     -1.1507493474     -0.0439352747
C      -1.7799676634     -1.3208761418      0.3327493610     -0.5202031555     -1.7679665659      0.6576606993     -0.0604828507
C      -0.1998091858      0.1951765282     -0.7406959222      1.7900332451     -0.0930229321     -0.4513462667     -0.0819827559
C      -1.6180097958      0.9877409044      1.1435903278      0.0071593272      1.1745567844      1.1206667021     -0.0871172516
C      -4.0155789580      0.2695477160     -0.6698580009      0.0585920497     -0.0056462484      0.0563261676     -0.1770780413
C      -3.2249879566     -1.6131649362      0.7852455261     -0.0350342634      0.1637777897     -0.0339817716     -0.1668392047
C      -4.2370875564     -1.1849900270     -0.2722329452     -0.3218840224     -0.1255991522      0.0678630570     -0.1714857724
C       1.0250314404     -0.1243227100      0.1507885931     -0.4233012255      0.0822047017     -0.0815528975     -0.2211539218
C      -1.2691225184      2.4697802312      0.9141139195      0.0639497008     -0.1395729510     -0.1705824650     -0.1243366742
C       2.3250279108      0.0329086670     -0.6502438178     -0.1657039001     -0.1103336596      0.0081012354     -0.1757462394
C       3.5521465679     -0.3016525157      0.2061440032     -0.0698052841      0.1447213928     -0.3884546965     -0.1686899858
C       4.8457261940     -0.1063556420     -0.5934073951      0.0406468943     -0.1042552961      0.1927953707     -0.2089505471
C       6.0717754562     -0.4588358118      0.2429401008      0.2452820778      0.0319412509     -0.1004400565     -0.0830545528
H      -2.4062155167     -0.1128594289     -2.0324464589      0.4053638229     -0.0309255396      0.5540869475      0.1963933723
H      -2.4341075670      1.5463331018     -1.4213945116      0.3790828688     -0.2946421593      0.3809886069      0.1480745553
H      -1.1133139648     -1.6125849682      1.1731883422      0.0369961237      0.4986615811     -0.4062922779      0.1460398837
H      -1.5479038041     -2.0092856004     -0.5110807807      0.0852716301      0.5737966820     -0.0717810722      0.2172289224
H      -0.0580975572      1.2049735868     -1.1860503795     -0.4033474305     -0.2124609938      0.3208126423      0.1437578361
H      -0.1624188373     -0.5048506765     -1.6062839077     -0.4455965064      0.0559517669      0.2940931489      0.2410608031
H      -2.6295120782      0.9685616106      1.5927249242      0.1038574730     -0.3624038697     -0.4951673000      0.1742222268
H      -0.9562547044      0.6018148747      1.9486764760     -0.0444564512     -0.2479369265     -0.5982659049      0.1531017087
H      -4.6865993170      0.5118288929     -1.5226989891      0.3561261635      0.1105146856      0.1565679730      0.1221806991
H      -4.2972077788      0.9497385529      0.1599669685      0.0566900431     -0.0811513147     -0.1251907899      0.0939964225
H      -3.4453498390     -1.1117100913      1.7507391468      0.0538901229     -0.0960551813     -0.1422933949      0.0907362921
H      -3.3335646813     -2.7060069500      0.9582848638      0.3008620551      0.3028158828      0.0151133139      0.1279653278
H      -5.2667004473     -1.3082419927      0.1265136180      0.2378452635     -0.0635758400     -0.1861215859      0.0940408617
H      -4.1335742617     -1.8346115060     -1.1692634827     -0.0256604196      0.1413763700      0.1959742230      0.1289476014
H       1.0715121550      0.5641044321      1.0188352993     -0.0389693748     -0.1762575419     -0.0514265899      0.1004786494
H       0.9701593049     -1.1685436690      0.5217572697     -0.0289616084      0.2470616415     -0.0350555437      0.1285184754
H      -0.2268916564      2.6035194191      0.5626072935     -0.3248675363      0.0066474737      0.0206585944      0.0785948381
H      -1.9738444163      2.9534812342      0.2095774122      0.2595405214     -0.0849778968      0.1295643325      0.0707965493
H      -1.3551192213      3.0100450543      1.8808756333     -0.0279298580     -0.2697150112     -0.2372524277      0.0832490891
H       2.4066766316      1.0812406907     -1.0139170422      0.0052251730     -0.2429292308     -0.0173730945      0.0843046624
H       2.2999200757     -0.6446843582     -1.5325654555     -0.0300480402      0.2318671305      0.1533726293      0.1456567795
H       3.4843316097     -1.3581969013      0.5477282169      0.0203171689      0.2526276842      0.0002508226      0.0964859667
H       3.5698364250      0.3590832486      1.1009084046      0.0185547905     -0.2071720462     -0.0917895724      0.0754359672
H       4.8301705326     -0.7533086946     -1.4976474710     -0.1000770294      0.2529765752      0.1441813794      0.1068240738
H       4.9272813683      0.9533072198     -0.9205309687     -0.1060237715     -0.2500076595     -0.0473849566      0.0848520760
H       6.0319860019     -1.5239015108      0.5559741034      0.0873333151      0.3101208194     -0.0123761573      0.0427504167
H       6.9899745789     -0.3003192623     -0.3613021700     -0.1429319229     -0.1011374788      0.2992256548      0.0473763189
H       6.1235747973      0.1880419040      1.1445062461      0.0655626030     -0.2443291696     -0.1835046874      0.0326675683
P      -0.1846361353     -3.2315636356     -3.9546772707      0.3104086607     -0.9876993569     -1.3633013178      2.1206766699
F      -1.3140757721     -3.1650939574     -5.2472933236      1.0742396755     -0.0752477874      1.2111572009     -0.5034623615
F      -0.0315119657     -1.5231055781     -4.0406991686     -0.3036992352     -1.0617916555      0.4712946201     -0.5238664889
F      -1.5134629174     -3.1387730806     -2.8709363893      0.9054214469      0.2942039660     -0.3558381041     -0.5304536132
F       0.8899998687     -3.2295314519     -2.6140313731     -0.8604140234      0.0708617480     -0.9742493231     -0.5211642211
F      -0.2690651207     -4.9471848305     -3.9233738433     -0.1110917366      1.7144919002      0.2649899725     -0.5004898619
F       1.1108291996     -3.3924759136     -5.0712750626     -1.1376505581      0.4249498998      1.2316078781     -0.5007081058
