32
Properties=species:S:1:pos:R:3:forces:R:3:charge:R:1 energy=-178.1216886187081 homo_lumo=4.892623656178817 dipole="-1.4215990940410703 0.2622767499002367 1.9908536818262537" free_energy=-178.1216886187081
N       0.2167160839     -0.7532041839      0.6904939621     -0.4550319419      0.1069078552     -0.0151075238     -0.4961472082
N       2.1981339787     -0.3571646584      1.4348153781      0.4685774839      0.0054195510      0.2497260519     -0.4958685742
C      -1.0998401514     -0.5646741784      0.0891352274      0.0699988202     -0.1504659427     -0.6020692432     -0.0006940801
C      -1.0239104615     -0.6169866366     -1.4423471416     -0.0396959677      0.4462796351      0.2547713655     -0.2196668611
C       1.0992799792      0.2119740829      0.9486459518     -0.1608548185      0.1721879643      0.1712030836      0.6039050338
C       0.7834199355     -1.9653834844      0.9745721332      0.0576773942     -0.2163794375      0.2259364792      0.2313457586
C       3.4636839731      0.2979222149      1.7697072579      0.0901004210      0.5070878921     -0.0099218361     -0.0494963514
C       2.0324542911     -1.7145393014      1.4443676579     -0.1472000866     -0.2273944000      0.1388046160      0.2529132988
C      -0.4113653247      0.6452558923     -2.0402793021     -0.1542721145     -0.3726170555      0.2350565083     -0.0922845137
C       3.3786077431      1.8104364288      1.6674631952     -0.0796457195     -0.4096889062      0.0602057657     -0.1202069444
H      -1.4917426713      0.3985635831      0.4289335588     -0.1029034439      0.1608448186      0.1208600973      0.0986549607
H      -1.7450096022     -1.3628943532      0.4656943886     -0.1089098759     -0.1204084997      0.2067540385      0.1027628605
H      -0.4369578234     -1.4889749996     -1.7396003135      0.0874390250     -0.2278590379     -0.0860643571      0.1401193583
H      -2.0449927287     -0.7462145470     -1.8135523187     -0.3012677220     -0.0900807013     -0.0640237221      0.0799543996
H       0.9353450848      1.2624261835      0.7927207777     -0.0017640939      0.1694598571     -0.0532173437      0.1089065059
H       0.2629897340     -2.8925452352      0.8125247956     -0.1108683716     -0.2053645056     -0.0738274789      0.0321214692
H       3.7365546463     -0.0136519633      2.7831666400     -0.0361057913     -0.0815505173      0.2253305711      0.1035672135
H       4.2095439538     -0.0872310793      1.0672333560      0.0283855129     -0.0948683894     -0.1429378560      0.1744492372
H       2.8183058679     -2.3795160017      1.7547044429      0.1919732820     -0.1449373244      0.0340763279      0.0389396793
H       0.6162934415      0.7681506310     -1.7045253863      0.3145077458      0.0606675710     -0.0592583344      0.1292184241
H      -0.9876175974      1.5272177406     -1.7554951032     -0.2465058007      0.3034936300      0.0479731593      0.0031846424
H      -0.4046448872      0.5640377823     -3.1263113782      0.1157624040      0.0689740209     -0.3172213980      0.0558844074
H       3.1599353114      2.1072423398      0.6426881334      0.0373221160      0.0955232051     -0.3026956875      0.0911393701
H       4.3433105710      2.2289885314      1.9510784473      0.2473870206      0.1628496507      0.0819418978      0.0705443181
H       2.6135252739      2.2115013816      2.3328912339     -0.1823578363      0.1752552299      0.2856780418      0.0318584113
P       3.2781673444     -0.7652316708     -1.9686382832     -0.1602346634     -0.0422360745      0.1245077679      2.2290024980
F       2.5665532733     -0.0960871922     -3.2775525381     -0.0610489450      0.0920142907     -0.1815604348     -0.5051508337
F       3.7160688213     -2.0837665646     -2.8127639041      0.0680467685     -0.2043110751     -0.1153711346     -0.4946682992
F       4.6903953339     -0.0190847919     -2.2900331438      0.1938928747      0.1155968924     -0.0250265341     -0.4991622637
F       3.9396165566     -1.4216253376     -0.5783874594      0.1576740408     -0.0986426202     -0.0708359723     -0.5310772252
F       2.8013213310      0.5738132550     -1.0522788580      0.1022585701      0.0760143580     -0.2388919938     -0.5431915441
F       1.8297819133     -1.4955218587     -1.5613848792      0.1176637129     -0.0317719347     -0.1047949216     -0.5308571477
