46
Properties=species:S:1:pos:R:3:forces:R:3:charge:R:1 energy=-257.4116766744107 homo_lumo=2.0268796715054727 dipole="0.07420735443889064 -3.011532848974733 3.7390223313509" free_energy=-257.4116766744107
N       0.2310389263      2.2763120590     -0.2245115555     -0.8246450847     -0.4856577599     -0.8423758083     -0.5102789571
N      -1.8554710085      1.5064915471     -0.1959257402      0.8616427607      0.2066226332     -0.8738900191     -0.5098336172
C       1.6142212612      2.4846294463     -0.6508336322      1.0051995032      0.2723418600     -0.3123293897     -0.0453360325
C       2.5635350555      1.5014532551      0.0500819589     -0.3231022792     -0.2194029670     -0.0199086027     -0.1902776714
C      -3.0663620029      0.7911063044     -0.5957942586     -0.8838391722     -0.3650805021     -0.1419702283     -0.0251530269
C       2.1693197962      0.0405704677     -0.2151039043      0.3133804368      0.2410547829      0.2072040279     -0.2229615910
C      -3.1503897411     -0.5790957457      0.0912791700      0.3551948861     -0.0287978382     -0.1533621053     -0.1995484752
C      -0.7475451520      1.6882176437     -0.9398637663      0.2430953007     -0.5691431490     -1.3105933735      0.5742533043
C      -0.2782941948      2.4832767344      1.0069135020     -0.8172675408      0.0509302284      1.5411046223      0.2308472786
C      -1.5732351686      2.0064076238      1.0243497232      0.5912204788      0.5975717248      1.5825041419      0.2265950041
C       3.1820201087     -0.9352142947      0.3914146426     -0.1768043083     -0.1280021465     -0.0784496830     -0.2042965480
C      -2.0088625134     -1.5096494350     -0.3437753427     -0.1081723138     -0.0097777663      0.1456894077     -0.2636469375
C       2.7388648426     -2.3810313326      0.1805262742      0.1411979448     -0.1853497703      0.0680140451     -0.0984015644
C      -2.1193161677     -2.8748554637      0.3272740944      0.1624665814     -0.1799401940     -0.0063304969     -0.0973972352
H       1.9183881355      3.5274320143     -0.4165773468     -0.3786692174     -0.2208007057     -0.1271553242      0.1417889220
H       1.6967970228      2.3493934992     -1.7516535632     -0.4017078170      0.1215744835      0.3395839472      0.1770892149
H       3.5947000618      1.6812838118     -0.3248037714     -0.3067453911      0.0944310239      0.1053024939      0.1208114789
H       2.5573458476      1.6979921729      1.1445066901      0.1181171204     -0.0456546472     -0.2183668131      0.0995899156
H      -3.9560038141      1.3977515979     -0.3216478650      0.4213876675      0.0662826389     -0.1099646061      0.1384045426
H      -3.0820760711      0.6534062627     -1.6995968715      0.2457257805      0.2910017463      0.3839628508      0.1447323459
H       2.1009785651     -0.1329339250     -1.3117553794     -0.0822988953      0.0211951646      0.2246441586      0.1051999276
H       1.1743333110     -0.1552910467      0.2375917985      0.1205614728     -0.0258509725     -0.1730452672      0.1426777355
H      -4.1235779513     -1.0462754013     -0.1751403972      0.1838130459      0.2282129192      0.1010965684      0.1180172716
H      -3.1270365964     -0.4429016383      1.1945763035     -0.0874199717     -0.0780769151     -0.2161525653      0.1087046703
H      -0.6313111183      1.3320937365     -1.9550530346      0.0239538186      0.2123099712     -0.3228957364      0.1430228990
H       0.2655508926      2.9043905993      1.8424368346      0.1627220844      0.1521622394     -0.1232465949      0.0561427627
H      -2.2423517315      1.9869673028      1.8746037860     -0.2205053918      0.0040238887     -0.1082459813      0.0544101334
H       3.2796260034     -0.7458290015      1.4826858345      0.0871394893      0.0750111139     -0.2544059280      0.0855572249
H       4.1761488390     -0.7877309857     -0.0838302728     -0.1949132398      0.0746985569      0.2042911398      0.0948383738
H      -2.0340330108     -1.6461926071     -1.4468343680      0.0694614756      0.1630033262      0.2031543244      0.0956338453
H      -1.0309634884     -1.0636700609     -0.0676776488     -0.1563100585     -0.0028553924     -0.1709272451      0.1646037752
H       2.6445142158     -2.6024282847     -0.9040487819     -0.0239592936     -0.0262356975      0.3245692920      0.0476762927
H       1.7604421468     -2.5607830435      0.6758848293      0.2502695941     -0.0396411404     -0.1855626270      0.0512616099
H       3.4906360643     -3.0694770645      0.6201815541     -0.2995059643      0.0472612566     -0.1657497936      0.0517183945
H      -2.0700732685     -2.7663595390      1.4317907566     -0.0627525928     -0.1383406304     -0.2901437163      0.0426330469
H      -1.2771496164     -3.5192957874     -0.0028068360     -0.3021590046      0.0730555375      0.1779102171      0.0665435192
H      -3.0750401003     -3.3668350326      0.0476043597      0.2850622827      0.0595477878      0.1697074784      0.0515899571
N      -1.1746150886      4.2401837978     -4.0473543933      0.2110430892     -0.5113568320      0.1587981893     -0.8645359976
S       0.1884990210      3.5685801543     -4.6526557242     -2.0661448592     -1.2256565136     -4.6788172226      1.8406323183
S      -1.5193761724      5.8201279579     -4.2939818827      1.0892786235      2.5573440143      3.8928429168      1.8458781599
F       1.5185181310      4.2010822806     -3.8573199589     -0.2960513852     -0.3515895470      0.1126494601     -0.4536099153
F      -1.7952714190      6.0819200988     -5.9243769658      0.0122558642     -0.3317333155      0.7914759674     -0.4349376035
O       0.1478780594      2.0797360141     -4.4572164126      0.4431529886      1.8496053779      1.6323639847     -0.7591217093
O       0.3054327148      3.8826714575     -6.1178793097      0.7931637861      0.2604279943      2.4729060228     -0.7055117724
O      -0.3587352745      6.6691718084     -3.8566765691     -1.1929556999     -1.1137495967     -1.7691768086     -0.7200453294
O      -2.7451902159      6.1969008479     -3.5113014610      1.0154234052     -1.4369762715     -2.1867093200     -0.7159599404
