42
Properties=species:S:1:pos:R:3:forces:R:3:charge:R:1 energy=-229.4217898787739 homo_lumo=5.38947535366372 dipole="-0.9093663446115452 2.7818448438535097 -0.7042019525565537" free_energy=-229.4217898787739
N      -1.2490240823     -0.0498432348     -0.0463144113     -0.0060144939      0.0008818322      0.0008234246     -0.5202915616
C      -1.5500468275     -1.0684198416     -1.1350359431      0.0023002299     -0.0019244588      0.0045221315     -0.0494695853
C      -2.2942671307     -0.3739836225      1.0079067027     -0.0028542071      0.0032397925     -0.0053957449     -0.0111356235
C       0.1449450436     -0.2068446627      0.5296852141      0.0013011973     -0.0001283876     -0.0024240231     -0.0336759577
C      -3.0750829655     -1.1831809331     -1.1631343986     -0.0044244972     -0.0080272817      0.0022864510     -0.1440291875
C      -3.5637256610     -0.6994198173      0.2277168366      0.0056953596      0.0020104637      0.0020834083     -0.1569731854
C      -1.4610529765      1.3346901209     -0.5612697787     -0.0061852748      0.0046001878      0.0037295640      0.0705981160
C       1.2652242781     -0.1613582283     -0.4922227229     -0.0026872018     -0.0044730006      0.0047377193     -0.2204236472
C       2.6161696038     -0.2882568211      0.2194886926     -0.0014472841     -0.0069517298     -0.0183731404     -0.1724652975
C       3.7704371595     -0.4761950392     -0.7631430465      0.0042068060      0.0009012512      0.0194747551     -0.2107938381
C       5.1151252300     -0.6003154592     -0.0513538577     -0.0020201636     -0.0007423876     -0.0113022423     -0.0685913663
H      -1.0816152356     -2.0122411074     -0.8126478273     -0.0051846379      0.0019066709     -0.0002696273      0.2667647533
H      -1.0938267020     -0.7286663579     -2.0736232844     -0.0037086186      0.0022474973      0.0074770704      0.1000450125
H      -2.3697204729      0.4727859869      1.7043540513     -0.0018778040      0.0118592112     -0.0068963482      0.0891163104
H      -1.9265681260     -1.2591538824      1.5411160391     -0.0047546153      0.0092265812      0.0081510722      0.2168758838
H       0.1467188426     -1.1761042296      1.0480226721     -0.0030539384     -0.0056208580     -0.0000545384      0.1963212106
H       0.2498888649      0.5894351787      1.2853413364      0.0028026663     -0.0020030677      0.0013295604      0.1109288714
H      -3.3486270992     -2.2326454090     -1.3399574457     -0.0040101698      0.0052110356      0.0050670005      0.1266357191
H      -3.5160975028     -0.5763915186     -1.9679816759     -0.0003304022     -0.0033633141     -0.0048194623      0.0760352205
H      -4.2218687728      0.1775890751      0.1363783481     -0.0059606671      0.0054520988      0.0037388508      0.0757774448
H      -4.1158109690     -1.4877054097      0.7569856238     -0.0076194070      0.0008746431      0.0021614115      0.1299559025
H      -0.7541140301      1.5265318736     -1.3755328675      0.0031023920      0.0029015147     -0.0022602274      0.0981325786
H      -2.4880768634      1.4239425506     -0.9337755648     -0.0002085899      0.0030573619      0.0002877100      0.1140643996
H      -1.2962955411      2.0458809583      0.2582400690      0.0015371097      0.0014528931      0.0002170486      0.0763641617
H       1.1622406581     -1.0073639478     -1.1910873994      0.0010793408     -0.0025620593      0.0005260402      0.1524269538
H       1.2484937287      0.7756051885     -1.0756121743      0.0013132465      0.0005270607      0.0001106595      0.0827348700
H       2.5861689004     -1.1576217857      0.8993852034     -0.0036823014     -0.0147887766      0.0003315430      0.1462711584
H       2.7941470257      0.6079020538      0.8436400826     -0.0012955143      0.0013428681      0.0124422555      0.0712181457
H       3.7960932626      0.3707446214     -1.4738444666     -0.0030504909      0.0076359296     -0.0009762928      0.0670935407
H       3.5765482663     -1.3893252758     -1.3527088931     -0.0003007613     -0.0000459862     -0.0010906337      0.1219783383
H       5.3461660549      0.3099067072      0.5256143905     -0.0004941155      0.0050226320      0.0060347309      0.0254228268
H       5.9341097623     -0.7639539497     -0.7680514121     -0.0048099481      0.0082806814      0.0023671160      0.0372730993
H       5.1032707543     -1.4511478333      0.6481800084      0.0008930196      0.0001892856     -0.0019613508      0.0497920471
N      -0.3218615112     -3.7271082583      0.1337132351      0.0065711182      0.0062987398     -0.0054340256     -0.9324773421
S      -1.2550993927     -4.0935722968      1.3836771586      0.0033251242     -0.0016415989      0.0012142520      1.9263942249
S       1.2701660988     -4.0142494944      0.1259516817      0.0078885102     -0.0010836622     -0.0048698923      1.9548801301
F      -0.7879788792     -2.9484760101      2.5336073774      0.0154778163      0.0044191930     -0.0038674856     -0.4849199710
F       1.3708797408     -5.6415104947     -0.0019134230     -0.0199817698     -0.0114291731     -0.0096000115     -0.4497994143
O      -2.5987496610     -3.6485017162      1.0387849163      0.0141301912      0.0008333071      0.0025879623     -0.7645849637
O      -1.0261383917     -5.3594062210      2.0412384765      0.0148152616      0.0111063788     -0.0049023900     -0.6928191758
O       1.9566693351     -3.6903430593      1.3634155869      0.0041225398     -0.0263163041     -0.0102784447     -0.7228106823
O       1.7659791539     -3.5018460428     -1.1392567666      0.0053949448     -0.0103770651      0.0030741437     -0.7478401205
