42
Properties=species:S:1:pos:R:3:forces:R:3:charge:R:1 energy=-229.13957363460116 homo_lumo=5.600733138263787 dipole="-0.9937155219652062 2.608080856081511 0.13069666104675237" free_energy=-229.13957363460116
N      -1.1356836251     -0.0523496927     -0.0286189255      0.1835135840      0.2872286237      0.1915461694     -0.5304915111
C      -1.3509023704     -0.8299446447     -1.2910429557     -0.3307305164     -0.2836215545     -0.2847176795     -0.0358589440
C      -2.1043513339     -0.6528844877      0.9479314978     -0.4440170723     -0.1992346796      0.1334986999      0.0093973590
C       0.2670069019     -0.1928988305      0.4938849612      0.5274240245      0.1370480148     -0.3700760937     -0.0411666426
C      -2.8430469040     -1.1355353718     -1.3339998845      0.0935569928      0.1086682321     -0.0403168716     -0.1383210649
C      -3.3155770293     -1.0917878299      0.1261099880      0.0259544174      0.0955908393      0.1082753481     -0.1506216020
C      -1.4761270438      1.3772776915     -0.2435314038     -0.0339742720      0.0445580297     -0.0706240407      0.0852165561
C       1.3483603908      0.1963352473     -0.5093134303     -0.0973721686     -0.0970063580      0.5824255773     -0.2102363474
C       2.7208640158      0.1106235633      0.1727429653     -0.1380513036      0.0564265793     -0.6351155818     -0.1552074895
C       3.8478002772      0.1280803460     -0.8636446431      0.0989559421      0.0171857362      0.6610373755     -0.2004960026
C       5.2169529931      0.0977133880     -0.1874350842     -0.3370200381      0.0289200250     -0.3275210591     -0.0441101074
H      -0.7704357261     -1.7486175592     -1.2164401225      0.0687332135     -0.0239149208      0.0241053182      0.2480189800
H      -1.0011819264     -0.2475131021     -2.1430400332      0.1972175583      0.1157359547     -0.1525695596      0.0970961058
H      -2.3401404232      0.0837476935      1.7166454638      0.0381847390      0.2138227188      0.1950211013      0.0887145869
H      -1.6227201517     -1.5149284733      1.4106343687      0.1581623375     -0.1962917376      0.0228993544      0.1908040132
H       0.3917223349     -1.2456537297      0.7673164860     -0.0446233115     -0.1612609679      0.0461054443      0.2197697760
H       0.3289455897      0.4205638988      1.3969718194     -0.0341998241      0.1713531901      0.2432266539      0.1007955811
H      -2.9976895604     -2.1231644975     -1.7714664790      0.0092915596     -0.1713633760     -0.1439556946      0.1317187837
H      -3.3795114663     -0.4008511919     -1.9388001990     -0.1315985477      0.1646844190     -0.1741617079      0.0667885035
H      -4.1467164582     -0.3942021320      0.2474638613     -0.2377788939      0.1349263172      0.0385774942      0.0699701246
H      -3.6390564047     -2.0779865224      0.4639088376     -0.0539195284     -0.1866593711      0.1349006410      0.1333107528
H      -0.8419235606      1.7867026718     -1.0264943531      0.1569316334      0.0886433905     -0.1869269510      0.0918091326
H      -2.5193807491      1.4516579190     -0.5426751289     -0.2966635084      0.0111372790     -0.0829740379      0.1062048185
H      -1.3172582816      1.9232884861      0.6847575584      0.0407171383      0.1261247627      0.2616460249      0.0725255788
H       1.3244071104     -0.4931964084     -1.3562289628      0.0234721346     -0.1620189903     -0.1779024937      0.1464670838
H       1.1901581979      1.2100831076     -0.8884509452      0.0278251829      0.2940816122     -0.1197993705      0.0808265461
H       2.7811836027     -0.8187549604      0.7460735049      0.0358272931     -0.2164098073      0.1141529484      0.1301425433
H       2.8341230130      0.9466940809      0.8716381216      0.0652262225      0.2456612366      0.1992404223      0.0654260536
H       3.7633342595      1.0262624662     -1.4856802751     -0.0434975236      0.2287781094     -0.2037215149      0.0655333851
H       3.7451166134     -0.7465203791     -1.5131766317     -0.0861770513     -0.2014157472     -0.1665900185      0.1112207533
H       5.3479400951      0.9687585721      0.4565538303      0.0930701269      0.2613142030      0.2148636048      0.0173577329
H       6.0036700606      0.1006185415     -0.9418028542      0.3528371310     -0.0011842791     -0.1517293227      0.0288621014
H       5.3198089653     -0.8027629655      0.4188595299      0.0611144197     -0.2755743261      0.1899748622      0.0412377140
N       0.3923648742     -3.4157371538      0.3817992694     -0.0769014561     -0.0233946483      0.0316182933     -0.9227103272
S       1.5050344518     -3.6539973519     -0.7338689652      0.2085217254      0.4293700065      0.3203841885      1.9664026033
S      -1.0217657300     -4.1078688977      0.1465059312     -0.1238049466     -0.0541073912      0.5232496578      1.9839724826
F       0.9645866867     -2.7140927288     -1.9760885116     -0.2061751897      0.2860852541     -0.6356361403     -0.4879141732
F      -0.7668237034     -5.6728846350      0.3706747512      0.2225066728     -0.7455222046      0.0863425774     -0.4475747991
O       2.6822926541     -2.9693130288     -0.3076370668      1.2409389362      0.8026334820      0.4976630303     -0.7598456180
O       1.6015769041     -4.9537253778     -1.2977423293     -0.1636333224     -1.5948483720     -0.6648657009     -0.7035138056
O      -1.5675052802     -4.0037080726     -1.1746761003     -0.2952841916     -0.0380764265     -1.4096242437     -0.7476225978
O      -1.8587446757     -3.7108485247      1.2414967088     -0.7545603193      0.2819271422      1.1780732953     -0.7738986194
