45
Properties=species:S:1:pos:R:3:forces:R:3:charge:R:1 energy=-243.11947988581835 homo_lumo=2.184388517137399 dipole="-6.949743705079868 -3.471907863233167 1.551162820301111" free_energy=-243.11947988581835
N      -0.0476446722      0.2453306364      0.1626268029      0.1935871344      0.2770277997     -0.0718266749     -0.5487936973
C      -0.9674905840      1.2377553336     -0.4802063709     -1.4446517000      1.1292559399     -0.6281301564     -0.0313260596
C      -0.4922268645     -1.1481702410     -0.1497298177     -0.7587481210     -1.6535452711     -0.1083467837     -0.0315335454
C       1.3159398919      0.4865040051     -0.4179222944      1.9399998773     -0.0972800362     -0.3595204515     -0.0529401423
C      -2.4595461924      1.0140443552     -0.1690922685      0.0359654273     -0.0732701510      0.0352963925     -0.1784620924
C      -1.9696991953     -1.4146525136      0.1874844766     -0.0340631433      0.1569162794     -0.0218223743     -0.1706996230
C      -2.8783243908     -0.4108037724     -0.5117762420     -0.3379214438     -0.0614449947      0.0787349451     -0.1696360653
C      -0.0065405965      0.4725451623      1.6332016217     -0.0188706265      0.1175965776      1.3968399001      0.0155377194
C       2.4497419255     -0.4130947418      0.1342412359     -0.2813090187     -0.0715202914      0.1273076312     -0.2617767073
C       3.7792255571     -0.0921872677     -0.5445053111      0.0704526178      0.2336812611     -0.1581898481     -0.1062554918
H      -0.8607837456      1.2007568902     -1.5896333841      0.3461977323     -0.2803595000      0.4687462565      0.1582207830
H      -0.7003073716      2.2746170090     -0.1725543302      0.3155260202     -0.5412135497      0.0306501435      0.1586731689
H       0.1058871685     -1.8930828921      0.4177230778      0.1500648301      0.6076629393     -0.1734776838      0.1639373681
H      -0.3436775178     -1.3664740506     -1.2324339239      0.1487048049      0.4662852764      0.3449368334      0.1524626083
H       1.6155556654      1.5476397067     -0.2503747260     -0.4359460709     -0.3019550314      0.0766530899      0.1771592129
H       1.2869517810      0.3450305934     -1.5234909313     -0.3880128051      0.0024649805      0.4210065480      0.1550292719
H      -3.0646614422      1.7193047441     -0.7789794810      0.3598320430      0.0029451553      0.1963526997      0.1333580551
H      -2.6876471507      1.2369958875      0.8935796457      0.0676079043     -0.0112338636     -0.1937651131      0.1093012701
H      -2.1331514052     -1.3783029096      1.2854214842      0.0510637061     -0.0626051123     -0.2208409650      0.1107107333
H      -2.2396650225     -2.4384266961     -0.1509657185      0.3189079766      0.1933773913      0.1799276345      0.1287204891
H      -3.9294820427     -0.5759028918     -0.1909138621      0.2478756842      0.0216825143     -0.2341073601      0.1085152958
H      -2.8241406211     -0.5616379032     -1.6125752004     -0.0614644969      0.0146376082      0.2249366722      0.1021779135
H       0.5654041218     -0.3240317001      2.1540629538     -0.0555561962      0.2527730563     -0.5029617284      0.1223220592
H       0.4555433139      1.4559160073      1.8736539471     -0.1061626376     -0.3891865211     -0.3867769130      0.1255481610
H      -1.0141186818      0.4626827106      2.0912457060      0.1605753256      0.0064299482     -0.4899518965      0.1326715902
H       2.5857462014     -0.2539607450      1.2233569076     -0.1701238149     -0.0998216016     -0.1917794627      0.1214571297
H       2.2313723387     -1.4840578091     -0.0506333403     -0.1261402444      0.1921005722      0.1471621122      0.1132955588
H       3.7015477249     -0.2440914574     -1.6422987140      0.1711004512      0.1122663860      0.3081524062      0.0572965150
H       4.0739585713      0.9574643058     -0.3369802171      0.0894652518     -0.3138895638     -0.1989045053      0.1168067584
H       4.5708906034     -0.7632569760     -0.1493406847     -0.2313542732      0.2763700798     -0.1783307475      0.0812122595
N       7.1240550899      3.1156194467     -1.0406291479     -0.3877907295     -0.2917254221      0.3233574980     -0.8812073985
S       6.2806397832      4.4937336113     -0.7633549479      5.9432295747      2.6029942029      3.6123133675      1.5543305742
S       8.2654677818      2.9911296347     -2.2111451446     -4.9260410249     -0.3200293305     -5.1036511858      1.5584464891
C       4.7723915524      4.4622444115     -1.7110714500     -0.8670079559      0.1545975296     -1.3871776528      1.1487419630
C       9.8752934394      3.2312217525     -1.4874873924      1.5861799847      0.5076087745      1.0736302111      1.1545265289
O       5.9318299917      4.5736175091      0.6962355185     -0.9426699825     -1.0904435002     -2.0822826758     -0.7396150208
O       7.0923971965      5.6984685292     -1.1520100474     -2.0130037173     -1.3344325124     -0.4590001581     -0.7193624295
O       8.0399728145      4.0165780591     -3.2876848526      1.3473209328     -0.7038505018      1.7604829214     -0.7282308316
O       8.2083879241      1.6141520161     -2.8103053316      0.8980460111      1.1911470917      1.9589166734     -0.7363569603
F       4.0550310036      5.6201542763     -1.4786554133      0.2792126525     -1.0448166897     -0.3306767353     -0.4333041468
F       4.0123057635      3.3723279928     -1.3338724784     -0.1526912113      0.4759814392     -0.4139617421     -0.4647385051
F       5.0675283828      4.3688980542     -3.0577145553     -0.7507332384      0.0547029645      1.1780819943     -0.4200768543
F      10.8433829575      3.1404132705     -2.4696028685     -0.6914900567      0.0942329838      0.9807942365     -0.4292057389
F      10.1008783803      2.2586391117     -0.5318769597      0.1886231398      0.7708557716     -0.5779633659     -0.4339937892
F       9.9398372532      4.4780621265     -0.8950435797      0.2722134263     -1.1729710783     -0.4508339869     -0.4229443770
