61
Properties=species:S:1:pos:R:3:forces:R:3:charge:R:1 energy=-329.60903758623135 homo_lumo=5.208348389198538 dipole="-3.073480834615253 -1.4285886862038963 1.531103922007549" free_energy=-329.60903758623135
N       1.1316378039     -0.1410467924     -0.1469087815      0.0017597736     -0.0016164028      0.0008938259     -0.4828966449
C       1.6318830574     -0.7613427086     -1.4432427226     -0.0025549705      0.0004694642      0.0017402611     -0.0528912250
C      -0.3637885239     -0.3638478005     -0.2388988711      0.0065487648     -0.0000389595     -0.0038558877      0.0032592231
C       1.6973776926     -0.8498791425      1.0617466332     -0.0012447779     -0.0009482610      0.0015036462     -0.0121545319
C       0.5744269024     -0.4115149893     -2.4924584841      0.0014095549     -0.0067277044     -0.0094999641     -0.1593429174
C      -0.7185239898     -0.0921457287     -1.6981753632      0.0001128606     -0.0029651761      0.0016029996     -0.1567675723
C       1.4581288872      1.3466028210     -0.1500006122     -0.0004335184      0.0071743321     -0.0073148255     -0.1030333420
C       3.2097701170     -0.8169814314      1.1693228261      0.0045747854     -0.0025525791      0.0000688579     -0.2599359439
C       1.1066859366      2.0963875236      1.1218527204      0.0016656786      0.0000208915      0.0022333430     -0.2608440382
C       3.6702938100     -1.6878715328      2.3433406471      0.0073520016     -0.0011348235     -0.0047007063     -0.2061258868
C       1.2681031482      3.5981969341      0.8704290231      0.0054051118      0.0001875625      0.0069392635     -0.0784975235
C       5.1889336631     -1.8424478738      2.3853921311     -0.0036029023      0.0064249302      0.0054539007     -0.0808684386
H       2.6326143011     -0.3776967229     -1.6667187672     -0.0033634613      0.0033683290      0.0052178601      0.2356268870
H       1.6846301831     -1.8448562515     -1.2573324347     -0.0012788416     -0.0006118747     -0.0011040649      0.1132505887
H      -0.5291742857     -1.4199661492      0.0224058496     -0.0003718182      0.0030942773      0.0033557339      0.1249784782
H      -0.8764313192      0.2695967199      0.4952275301      0.0115318837      0.0055604362     -0.0026112431      0.1294544621
H       1.3441504646     -1.8907048987      0.9785854252      0.0048140013     -0.0042133170     -0.0042951239      0.1176035933
H       1.2167535676     -0.4020172112      1.9454796559      0.0011487464     -0.0040746025     -0.0013106337      0.1397503743
H       0.8986769409      0.4461986143     -3.0952229468      0.0066769201     -0.0033738336      0.0029595451      0.1371693283
H       0.4393088439     -1.2598701923     -3.1779247945      0.0011045946      0.0040690726     -0.0038250305      0.0980174639
H      -1.5674076609     -0.7210166134     -2.0020728124     -0.0023761899      0.0038729557     -0.0009328280      0.1015877195
H      -1.0233876618      0.9541041571     -1.8445507331      0.0008045723      0.0009483038      0.0023419971      0.0898159683
H       2.5293724524      1.4304300254     -0.3703386309      0.0030477178     -0.0036216749     -0.0044948007      0.2638203377
H       0.9219725996      1.7675057001     -1.0111744138     -0.0042408445     -0.0010043173     -0.0013198666      0.1857421547
H       3.6670805025     -1.1933962578      0.2407484785      0.0006809990     -0.0046640184     -0.0016787940      0.1650127269
H       3.5782036844      0.2112119857      1.3000266970     -0.0006698571      0.0002871867      0.0022000328      0.1705855719
H       0.0729328166      1.8879199033      1.4478115351     -0.0049609002     -0.0028661109     -0.0038149127      0.0894927469
H       1.7783325054      1.7911788917      1.9409857745      0.0070073392     -0.0028058948      0.0005769553      0.1122717990
H       3.3093022025     -1.2511536384      3.2921951842     -0.0073500103     -0.0010324497      0.0024914031      0.0793085632
H       3.2032990361     -2.6870028757      2.2611204141      0.0001512984     -0.0034496516     -0.0062642172      0.0767002090
H       2.2783504903      3.8265120209      0.5025278655      0.0047012936     -0.0004253862      0.0004632912      0.1008175746
H       0.5471898412      3.9510816473      0.1169397873     -0.0045946811     -0.0012795918     -0.0014251839      0.0354884478
H       1.1012606568      4.1657295791      1.7969609551      0.0017691194     -0.0007884602     -0.0018949974      0.0453402257
H       5.4937804368     -2.4852622684      3.2241685917      0.0042205749      0.0023344653      0.0074915289      0.0390191395
H       5.5615391591     -2.2942558244      1.4533509604      0.0013931909      0.0037814894      0.0037935218      0.0530739659
H       5.6856247442     -0.8683911445      2.5007609974     -0.0035796403      0.0055844499      0.0068592204      0.0689437901
P       5.3069388627      2.0371191945     -2.2340410723     -0.0112404023     -0.0049478706      0.0079545573      1.7213121946
F       4.4337350622      3.3927490114     -1.7944750295      0.0025825952     -0.0056349465     -0.0093670210     -0.5236966563
F       6.1838347449      2.9026085502     -3.3325376801     -0.0024982053     -0.0091190787      0.0065342973     -0.5089378432
F       4.4140400584      1.0590785302     -1.1393659864      0.0013155351      0.0153047261     -0.0019185792     -0.5571219533
C       6.4995372540      2.5922938518     -0.7367079485      0.0033525178     -0.0045872735     -0.0020440987      0.5302988442
C       3.8091150710      1.7221899355     -3.5238922746     -0.0049627757     -0.0138756164      0.0140594893      0.4925693401
C       6.3748873147      0.4358564599     -2.8124709344      0.0112726427      0.0078837921     -0.0112905034      0.5842591400
C       5.9130237423      2.6094114693      0.7182438514      0.0078974422     -0.0006040238     -0.0021455182      1.3729695213
C       3.8344818996      2.4554804914     -4.8940684252     -0.0213816512     -0.0042190977     -0.0167261609      1.3836289500
C       6.2630126198     -0.8992162273     -2.0202354554     -0.0048836399     -0.0180510340      0.0197096453      1.3804047436
F       6.8983379317      3.8834838945     -0.9881006017     -0.0012581468     -0.0078814979      0.0022347107     -0.4335262236
F       7.6491665234      1.8461284951     -0.5888590657     -0.0034943165      0.0129481621     -0.0024573802     -0.4469955496
F       2.6191092181      2.1491705680     -2.9332866865      0.0086806830     -0.0103511534      0.0021458470     -0.4712003506
F       3.5910228768      0.3838700173     -3.7961242067     -0.0160039077      0.0052106210      0.0035583988     -0.4649461886
F       7.7114692279      0.7502891543     -2.8244160790     -0.0192784597     -0.0032561877      0.0005998057     -0.4381298801
F       6.0667187061      0.1063728580     -4.1169559532      0.0088993271      0.0048915351      0.0070036902     -0.4484584521
F       6.7544248746      3.3043362801      1.5304754565     -0.0065593400      0.0046487202     -0.0081762330     -0.4461798314
F       5.8214170618      1.3476382300      1.2211824113     -0.0051531931      0.0121466486     -0.0025404477     -0.4694330739
F       4.6881815774      3.1819412084      0.8265548270      0.0023170602      0.0035710980     -0.0101226880     -0.4668020362
F       2.6753006882      2.1791754717     -5.5737750946      0.0134070564     -0.0042741677      0.0057482738     -0.4606846069
F       3.8963973439      3.7934566573     -4.7219276505      0.0037225473     -0.0084163888     -0.0058725807     -0.4390849984
F       4.8620618708      2.0578441908     -5.6692457919     -0.0010427071     -0.0029088596      0.0103194189     -0.4379659142
F       7.1419463173     -1.8122615233     -2.5143454453     -0.0011700095      0.0133226074      0.0001705719     -0.4463312912
F       5.0167588288     -1.4481818221     -2.1274670587      0.0070755568      0.0130535217      0.0085483632     -0.4717969206
F       6.5342399103     -0.7381030721     -0.7047134373     -0.0088545783      0.0081627070     -0.0137699662     -0.4569242387
