61
Properties=species:S:1:pos:R:3:forces:R:3:charge:R:1 energy=-325.4650591277981 homo_lumo=2.4913719429364822 dipole="-8.528029125438222 -2.730177840636815 -1.0301187584997882" free_energy=-325.4650591277981
N      -0.8440054767     -0.2028002276      0.0286999403      0.0390022405      0.0854857043     -0.0013679254     -0.5203472381
C      -1.1998940394     -1.2454360585     -0.9830546209     -0.0066566155     -1.6559515597     -1.7283231377     -0.0110120067
C      -1.9703036157     -0.2201570872      1.0120925417     -1.6273804675      0.4977995108      1.6754102739     -0.0109871267
C       0.4313537735     -0.5716578218      0.7256997716      1.7431319351     -0.2504724385      0.3927820791     -0.0525742163
C      -2.6303407843     -1.6827845462     -0.7322159342     -0.5943402464      0.0986533502     -0.5945230173     -0.1418882665
C      -2.8176994064     -1.4474997100      0.7396265867     -0.0911591481     -0.5981999877      0.5961995391     -0.1419952816
C      -0.7632577181      1.1359034419     -0.6412769220      0.3120339213      1.6530082908     -0.3335419002     -0.0501074700
C       1.6832583185     -0.5678769124     -0.1847678244     -0.4324943895      0.0726527092      0.1730185556     -0.2224223794
C      -0.3811931132      2.3013566038      0.3024132681      0.0526662474     -0.3297392724      0.1034598746     -0.2618701883
C       2.8937485523     -1.1601571673      0.5468869131     -0.0063403172     -0.0411371417      0.0748937634     -0.2160837753
C      -0.5301830077      3.6469586874     -0.4021392750     -0.0773418626      0.0742431658     -0.1843214226     -0.0943191561
C       4.1261916074     -1.1804158253     -0.3528247085      0.1421031178     -0.0002267572     -0.0228998087     -0.1009124925
H      -1.0909862042     -0.8946878740     -2.0348646673      0.2635699362      0.1717938280      0.6217489856      0.1458967629
H      -0.5655806012     -2.1570711924     -0.8899287400      0.1313934641      0.6952866487      0.2747192436      0.1592565681
H      -1.6299619289     -0.2222640732      2.0728507165      0.2650043696      0.1857322510     -0.6072797380      0.1475280420
H      -2.6404054274      0.6634763673      0.8997047664      0.6833447055     -0.0959748166     -0.2536396208      0.1531948422
H       0.3250269917     -1.5849884588      1.1787435155     -0.3446117762      0.3232358804     -0.3292147748      0.1531229235
H       0.6219487236      0.1135480470      1.5813478384     -0.3778474643     -0.0282131647     -0.4057737934      0.1680335931
H      -3.3296211972     -1.0387496351     -1.3105183496      0.1143714981     -0.3048145600      0.0908905374      0.1057102503
H      -2.7936262334     -2.7493510519     -1.0007138296      0.0339926450      0.4735688344     -0.1357594801      0.1077116722
H      -2.4234740595     -2.3145124850      1.3149364150     -0.2537294018      0.2113249983     -0.0870792078      0.1091660730
H      -3.8869248770     -1.2816147314      0.9955352408      0.4593296597     -0.1133656684      0.1444781936      0.1066591687
H      -0.0307079694      1.1107805778     -1.4782733383     -0.1362313253     -0.3542413913      0.3980185980      0.1698139281
H      -1.7440735888      1.3717972213     -1.1166747813      0.1745423632     -0.4357588843      0.3254453304      0.1513001709
H       1.4984028565     -1.1562181274     -1.1076266639      0.0184227561      0.1371935626      0.1269623262      0.1147329990
H       1.9326986232      0.4723908694     -0.4812528890     -0.0804248644     -0.2271388162     -0.0125227819      0.1422313613
H      -1.0223305876      2.3076869639      1.2080446980      0.1640253177     -0.1294412285     -0.1408947013      0.1200478650
H       0.6752889498      2.2042003277      0.6274761215     -0.2657845866     -0.1204130911      0.0052705817      0.1501716643
H       3.1170028339     -0.5535228246      1.4516303305     -0.0971418152     -0.1977634951     -0.1331937661      0.1173448790
H       2.6687567016     -2.2008977120      0.8669966438     -0.0433831506      0.2448826754      0.0652282644      0.0872324186
H       0.1229222384      3.6863540494     -1.2999120925     -0.2332397569      0.1238457574      0.2420982671      0.0668965273
H      -1.5858085457      3.8080605527     -0.7081676505      0.3247607125      0.0652089543      0.0195445742      0.0475040825
H      -0.2338034759      4.4639947793      0.2890712043     -0.0859445513     -0.2349680409     -0.3011021619      0.0853634568
H       4.9897399248     -1.5955948181      0.2083675951     -0.1802081176      0.2429200372     -0.2991266055      0.0907574556
H       3.9425097979     -1.8182023831     -1.2434828686      0.1126587721      0.1852260618      0.1917910348      0.0333734463
H       4.3780178908     -0.1510995363     -0.6858967034      0.0971009103     -0.3679918020      0.0963938855      0.0803477835
P       8.4102234168      2.6363620278      1.2120052605     -2.4395519563      1.5959440063     -1.9560074268      1.6395389010
F       7.0956903919      3.1115917617      0.2018088717      0.4729695421      0.7571045415     -3.0034122249     -0.5348098540
F       9.8475746272      2.5803818830      0.2630388250     -0.1562904453     -0.8278461720      0.3326335387     -0.5151551350
F       7.0263876196      2.9171484667      2.1950759501      0.6859129275     -0.7973658610      2.2578370646     -0.5257556478
C       8.8884819591      4.4930917510      0.9630811074      0.0139422966      0.2853373159      0.6891681116      0.5373470621
C       7.9712216245      1.0506956162      0.1938940628      0.2306205732     -0.5265359885      0.6308249247      0.5435992523
C       9.0513718096      1.8914313044      2.8630739320      0.7300247027     -0.1206856824     -0.4893417014      0.5377850039
C       7.9636263378      5.5250819795      1.6445580487     -0.4623534882      0.4162394513     -0.0665149419      1.3335566540
C       8.9044752772     -0.1772450996      0.3454564569      0.4658420056     -0.4957107152     -0.3349703342      1.3287745509
C       9.2327999101      2.8457526199      4.0579405798     -0.1383364952      0.5099767711      0.8493932658      1.3629146272
F       8.8768178767      4.7841891058     -0.3962235517     -0.0007808712      0.0651431239      0.6730445659     -0.4372010111
F      10.1805294869      4.7231295237      1.4088848470     -0.3043923076      0.5357485468     -0.1733865893     -0.4486131586
F       7.9600618279      1.3589468053     -1.1631919263      0.1772098448     -0.4845820359      0.7114928184     -0.4377477283
F       6.6960044626      0.6399209425      0.5490231229      0.0755539768     -0.4497682412     -0.2173252140     -0.4631247179
F      10.2794738632      1.3019157733      2.6220779371     -0.0225270774     -0.0218630684      0.5172176456     -0.4452265066
F       8.1738670282      0.9041730841      3.2806331427      0.3158320535      0.3892304162      0.1213712384     -0.4427677445
F       8.3950906765      6.7982919836      1.3168230988     -0.3814384999     -0.3816459171      0.2904958998     -0.4576390451
F       8.0012289262      5.4067161116      3.0163985866     -0.2023852360      0.4213422537     -1.1067506767     -0.4498544133
F       6.6554406267      5.3952620996      1.2153936477      1.1036537518      0.6033703708      0.5770311692     -0.4402773773
F       8.5606766479     -1.1134925541     -0.6142704494      0.2509498976      0.0761952263      0.3955372850     -0.4617558682
F      10.2334508713      0.1498717581      0.1541410017     -1.2645033164     -0.8296582425      0.1855355256     -0.4337872810
F       8.7566478846     -0.7835760887      1.5758311078      0.2779933370      0.1980481813     -1.0989013098     -0.4490743237
F      10.0676021902      3.8971739557      3.7481248215     -0.7407132220     -1.0053492634      0.5934606596     -0.4407976331
F       9.8148520675      2.1443317543      5.0992342350     -0.2831171291      0.4367896300     -0.3957517517     -0.4522800107
F       8.0152243188      3.3223987397      4.5073808670      1.3986904199     -0.4057087516     -0.0304716073     -0.4365269323
