61
Properties=species:S:1:pos:R:3:forces:R:3:charge:R:1 energy=-329.16873402989006 homo_lumo=4.795064143040802 dipole="-3.9637012367739435 -0.3179316135122033 -0.2717362111286652" free_energy=-329.16873402989006
N       1.2580918940      0.4895401192      0.2721035821     -0.0797407263      0.1400113887     -0.2382714096     -0.4934786768
C      -0.0156367321     -0.2510881324      0.0061726900     -0.3673608700     -0.2322537409      0.2092065800      0.0179743298
C       0.8919917395      1.4194906616      1.3881208244     -0.1830248293      0.0455271054      0.4651867940     -0.0111356369
C       2.3184782195     -0.4665748285      0.7585365128      0.3519294474     -0.2799033208     -0.3372973956     -0.0908111182
C      -0.6629890547     -0.4563058803      1.3747376136      0.0511501325     -0.0128589055     -0.0995423445     -0.1467924201
C      -0.0472190488      0.6186933814      2.2847750604      0.0707835361      0.0403013664     -0.0775184321     -0.1324302460
C       1.6741203106      1.2510404039     -0.9539464289      0.6089932256      0.4261241648      0.0147258790     -0.0150866232
C       2.9284699435     -1.3567160857     -0.3207089401     -0.0755395601      0.0717497176      0.6080266159     -0.2327915708
C       2.8853009444      2.1567542752     -0.7466122180     -0.3436691187     -0.2565041265     -0.4037084166     -0.3017651564
C       3.7413912596     -2.4702537900      0.3559126959     -0.0222206174      0.1155542752     -0.5069990559     -0.2157366071
C       3.1843089476      2.9119328542     -2.0393229895     -0.1721235846     -0.1606938012      0.3812559581     -0.0583910702
C       4.5144584956     -3.2876808239     -0.6751734699     -0.2075359625      0.1636933821      0.3300515574     -0.0612902314
H      -0.6418235601      0.3770453850     -0.6312169049     -0.0493644592      0.1965636291     -0.1728885688      0.1175804403
H       0.2046123775     -1.1822319327     -0.5149528557      0.0915074822     -0.1467648609     -0.1933739783      0.1381043456
H       1.7941227628      1.7540082249      1.8980127511      0.1721381426      0.1021234798      0.0002024530      0.1812776015
H       0.3797935310      2.2793827008      0.9504377093     -0.0970567716      0.1755021660     -0.2023530465      0.1136125999
H       1.8499796641     -1.0800478255      1.5311323428     -0.1716629243     -0.1109991942      0.1858751175      0.1457333596
H       3.0973541266      0.1334332847      1.2266673103      0.0995204810      0.0667883930      0.0159767685      0.2622828349
H      -1.7455270599     -0.3433249260      1.2959067459     -0.2595579886     -0.0684715058     -0.0329559086      0.0986031017
H      -0.4542314413     -1.4563808584      1.7589936356     -0.0321309680     -0.2407974660      0.0856692534      0.0881800229
H       0.5024066825      0.1598971472      3.1087416874      0.1044323551     -0.0522298342      0.2248457140      0.0948465775
H      -0.8110532809      1.2724630626      2.7083998945     -0.1174515938      0.1654246743      0.1799084826      0.0979358493
H       1.8700440289      0.5161666152     -1.7377313848      0.0201988205     -0.1874865876     -0.1693244863      0.1466087648
H       0.8094745035      1.8507808955     -1.2543667063     -0.2724609668      0.0650785835     -0.0165952279      0.1127802118
H       2.1510801833     -1.8018082919     -0.9498634344     -0.1991110047     -0.1831624459     -0.2002698228      0.0780556888
H       3.5939447558     -0.7700349898     -0.9577606431      0.1586289646      0.1328747645     -0.1248760597      0.1630482511
H       2.6851278360      2.8734087900      0.0529931409     -0.0130224371      0.1551016270      0.1958951397      0.1028204394
H       3.7548453558      1.5651595727     -0.4627205481      0.2109324206     -0.0540038621      0.1274467852      0.2432494917
H       4.4462036505     -2.0218024569      1.0607349198      0.0990264722      0.0990248275      0.1570681059      0.1641796742
H       3.0639998672     -3.1212618352      0.9197179305     -0.1947889495     -0.1630370271      0.1824897155      0.0539288070
H       3.4021392161      2.2150074410     -2.8484781992      0.0947815865     -0.1436725717     -0.2804734907      0.0359893970
H       2.3378407487      3.5365865544     -2.3286614456     -0.2528638411      0.2270309400     -0.1492863071      0.0181486260
H       4.0552449201      3.5467652016     -1.8864619993      0.2331961164      0.1798609027     -0.0304000613      0.0762648752
H       5.0569115175     -4.0886167435     -0.1737919677      0.2156490937     -0.2766582605      0.0587451092      0.0319993033
H       3.8369422110     -3.7276370455     -1.4088865180     -0.1837902464     -0.1804769878     -0.2457952154      0.0113440599
H       5.2341510886     -2.6553523780     -1.1938518948      0.2032816786      0.1268397505     -0.1461982042      0.0754014076
P       6.6660619541      0.9745691351      0.7820615651     -0.2094583968      0.4621977451     -0.2255994838      1.6864256019
F       6.0085846763      2.3922164069      0.1366676262      0.0223748168     -0.0119923713      0.0390792557     -0.5459004805
F       5.0853198979      0.2951144739      0.7130164069      0.3470597480     -0.0240190445     -0.0048248909     -0.5565108924
F       8.1986553381      1.6221765174      0.8613363902     -0.1494585191     -0.0777136367      0.0526785653     -0.5188034356
C       6.9974240444      0.4236833042     -1.0724517198      0.0195307560      0.7627085373      0.7618518018      0.5281942394
C       6.2509137797      1.7904054838      2.5261359345     -0.4943514482     -0.6721394800     -0.7858376656      0.5805960098
C       7.2264705665     -0.7835017403      1.5374438603      0.2613565603      0.9902231104     -0.2221593014      0.5769805906
C       7.1456771077      1.5336782841     -2.1491033501     -0.2320590086     -0.1962874572      0.7360284870      1.4084110330
C       4.7757584242      1.7864204696      3.0095561440      0.5092080550     -0.1583824985     -0.5820995230      1.3801780475
C       8.6764509639     -1.0642909608      2.0134448542     -0.5819726529      0.5637992875     -0.3646745262      1.4145457978
F       6.0126518215     -0.3833385709     -1.5323340455     -0.9388114446     -0.7111176394     -0.6536441353     -0.4736458502
F       8.1377030505     -0.2857842303     -1.1035908011      1.2038892379     -0.5190553282     -0.3085279712     -0.4478958104
F       6.6067292267      3.0853846079      2.4792783274      0.2870610396      1.3221825944      0.0450218705     -0.4405334590
F       6.9706000097      1.2269081294      3.5117106748      0.5542545175     -0.3673612482      1.1359230021     -0.4511711880
F       6.9378440807     -1.7364481652      0.6240647143     -0.1182773150     -1.0450457247     -0.7280832723     -0.4664780979
F       6.4169356832     -1.0298234737      2.5924305974     -0.5728790616     -0.4689331986      1.0401376441     -0.4640373435
F       7.6695212901      1.0219678474     -3.2652630060      0.5087747947     -0.6525702778     -1.0266263438     -0.4548076259
F       7.9223580483      2.5312228938     -1.7543289230      0.7970020318      0.7810307613      0.3365567677     -0.4425255976
F       5.9461120101      2.0334413844     -2.4715662208     -0.9292993214      0.3299693889     -0.3634021827     -0.4705437651
F       4.6385478583      2.4730021384      4.1413788510      0.0322333467      0.6916096726      1.1220143583     -0.4491649151
F       3.9586882649      2.3560782761      2.1042766764     -0.4829308690      0.6424803328     -0.6321095706     -0.4868478870
F       4.3027105273      0.5572737454      3.2285209534     -0.2852627999     -1.0673797491      0.4017114569     -0.4683317910
F       8.7467827840     -2.2783047113      2.5671670574     -0.0946137306     -1.2173599974      0.5043442760     -0.4555484386
F       9.0761689655     -0.1794349664      2.9202047431      0.3209074862      0.7246348228      0.8241035122     -0.4467019390
F       9.5297752043     -1.0313006049      0.9955838497      0.7340496417     -0.0266792409     -0.8963107283     -0.4461235072
