41
Properties=species:S:1:pos:R:3:forces:R:3:charge:R:1 energy=-224.83197449425396 homo_lumo=5.653305661099374 dipole="0.8663146734163525 0.2844768589944799 -2.7802178605849206" free_energy=-224.83197449425396
N      -1.3891472343     -0.1457475334     -0.3836874411      0.0102448808      0.0012351184      0.0087060449     -0.4845020593
C      -1.4341591055     -0.9890436565     -1.6381079030     -0.0019815561      0.0017633291      0.0001219792      0.0070113217
C      -2.8131224986     -0.2838126225      0.1390311345     -0.0065261745     -0.0097820974     -0.0024349807     -0.0478620390
C      -0.4152984431     -0.7296992111      0.6302366794     -0.0063521467     -0.0073506556      0.0196839345     -0.0997015755
C      -2.2713464232     -2.2150281432     -1.2639680670     -0.0051962927     -0.0004144143      0.0072073273     -0.1570715677
C      -3.1630094147     -1.7518803748     -0.0798824331      0.0054759301     -0.0029337272     -0.0036968275     -0.1567128856
C      -1.0645921775      1.2905393925     -0.7077613504     -0.0035140031      0.0009581068     -0.0129938130     -0.0116057032
C       1.0480999392     -0.6432798467      0.2377996479     -0.0019207536      0.0058219335     -0.0150370142     -0.2209684491
C      -1.0041937542      2.1997875555      0.5079805733     -0.0017500866     -0.0049655175      0.0126731375     -0.2607451638
C       1.9091125711     -1.2988086363      1.3239318400     -0.0156798199     -0.0004189285      0.0058570898     -0.2050690847
C      -0.9042278762      3.6614855866      0.0775295945      0.0049285291     -0.0029322707     -0.0188580873     -0.0681943975
C       3.3988725955     -1.2350412151      1.0009056269     -0.0096417355      0.0110570856     -0.0158764970     -0.0679933539
H      -1.9375328579     -0.3740766001     -2.3999618302      0.0006243781     -0.0065772995      0.0001389096      0.1171305290
H      -0.4110856549     -1.2037831695     -1.9714553163     -0.0178554122      0.0032933436     -0.0042719687      0.1258178097
H      -2.8720688016      0.0276291426      1.1882371839     -0.0043320519      0.0009080252     -0.0037501125      0.2405858583
H      -3.4215719166      0.3839807554     -0.4917989799     -0.0017235641     -0.0039930526      0.0050700271      0.0970188873
H      -0.7238795129     -1.7712094239      0.7882621481      0.0051752381      0.0109436791     -0.0069170436      0.1950343680
H      -0.6220251585     -0.2141008277      1.5795541857      0.0053629634     -0.0001922692     -0.0133117294      0.2577294564
H      -2.8596114690     -2.5427673502     -2.1334322888      0.0071732474     -0.0013055565      0.0108206750      0.0953769984
H      -1.6287104430     -3.0578215927     -0.9692312009     -0.0072848700      0.0093829425     -0.0035135854      0.0877823098
H      -2.9553364559     -2.3157379356      0.8412457885     -0.0024520613      0.0027705616     -0.0125465698      0.1423771563
H      -4.2354686064     -1.8537260781     -0.2953976102      0.0032017410     -0.0030604979     -0.0013479814      0.0928863813
H      -0.1117155779      1.2900698727     -1.2602674777     -0.0111403583      0.0025312802      0.0019281091      0.1295963817
H      -1.8556290556      1.6217791594     -1.4012390509      0.0077147631      0.0038733074      0.0093340873      0.1214432183
H       1.2461524882     -1.1488715074     -0.7251124472      0.0026693129      0.0114750028      0.0112674232      0.0889182504
H       1.3647403399      0.4082978183      0.1242047391      0.0028602977     -0.0104206497      0.0016726663      0.1035766485
H      -1.8920613408      2.0501893788      1.1416903148      0.0110910039      0.0114492212     -0.0031362613      0.1628068931
H      -0.1414296911      1.9350437125      1.1387749820     -0.0010783666      0.0080638104     -0.0050938259      0.1314242252
H       1.7058149147     -0.8032034764      2.2888077452      0.0031593225     -0.0017354098     -0.0008617296      0.1185828182
H       1.5949847076     -2.3497118734      1.4495263405      0.0039103367      0.0019533111      0.0002754278      0.0984875928
H      -0.0071335075      3.8460024982     -0.5356411930     -0.0048365445     -0.0034047204     -0.0013486715      0.0329845561
H      -1.7866815567      3.9665615948     -0.5073889203      0.0143060721     -0.0012217236     -0.0013072765      0.0351300822
H      -0.8484028920      4.3121586131      0.9614738045      0.0084622584      0.0039314737      0.0017600012      0.0618047323
H       3.9957187241     -1.7088931621      1.7939346037      0.0006467428     -0.0035078992      0.0075534786      0.0496928178
H       3.6250065340     -1.7537345564      0.0548284477     -0.0074314808      0.0060504295      0.0031868427      0.0297544045
H       3.7399614458     -0.1916411695      0.9028634107     -0.0084784050     -0.0031499057     -0.0028471719      0.0344476825
B      -2.4993106365     -0.6093969179      3.5768215132      0.0063915490     -0.0059041616      0.0193847043      1.3835985583
F      -2.4730602884     -0.6944043966      4.9663981182     -0.0071647649     -0.0062512731      0.0095547196     -0.5279618057
F      -3.8189946445     -0.4201874718      3.0718146303     -0.0056805236      0.0003844944     -0.0106265984     -0.5655823870
F      -1.9474063956     -1.7900372518      2.9743676135      0.0120320718     -0.0192648464     -0.0015965955     -0.5813909836
F      -1.6991788227      0.5197290747      3.1272305137      0.0165903331      0.0009404201      0.0051777561     -0.5856384824
