51
Properties=species:S:1:pos:R:3:forces:R:3:charge:R:1 energy=-288.0565463185631 homo_lumo=4.58492868084572 dipole="1.1775872564285914 0.42116408517478987 -2.0839058919000295" free_energy=-288.0565463185631
N       2.9703564793      0.2230633664      0.4544307774      0.0078508224     -0.0042531961     -0.0051507447     -0.5166151162
N       2.8353085438     -1.8123728680     -0.2784250872      0.0059286488     -0.0084445730      0.0157849036     -0.5158081609
C       1.7964691605      2.3358430378      0.9738480265     -0.0107127976     -0.0081836443     -0.0031566917     -0.1923682601
C       2.9311812758      1.3883908549      1.3571832669     -0.0057481083     -0.0053378082      0.0128412254     -0.0201319610
C       1.0922334130     -3.5453604989      0.0271160152      0.0002222485      0.0120925924      0.0008900628     -0.2148207866
C       2.5521481550     -3.2590438474     -0.3113270239     -0.0018466488      0.0050822381     -0.0133034320     -0.0029547463
C       0.4347754603      1.6539403707      1.0532207533      0.0062810795      0.0028204159     -0.0187405464     -0.2352138181
C       0.1008888118     -2.7526705940     -0.8198269031      0.0008124111      0.0013824296     -0.0015967999     -0.2033702716
C      -0.7412922378      2.5612921307      0.7112129074     -0.0001281337     -0.0091408435     -0.0007618906     -0.1600369645
C      -1.3396628084     -2.9608212561     -0.3593301055      0.0052831212     -0.0032691078     -0.0038569934     -0.1790185734
C       2.8107732505     -1.0535247390      0.8285245836      0.0047406256     -0.0013265113      0.0045222441      0.5563735370
C       3.0839873276      0.2821504083     -0.9195802185      0.0095909163      0.0087396453     -0.0157995203      0.1962781878
C       2.9942886729     -0.9994207099     -1.3802958743      0.0093110039      0.0148671877      0.0021080509      0.2055966718
C      -2.0686780514      1.8104888916      0.8176833663     -0.0036605863     -0.0050875059     -0.0020205744     -0.2555598907
C      -2.3410848445     -2.1058176522     -1.1321732644     -0.0007567702      0.0018975925     -0.0003514011     -0.2286376554
C      -3.2798689110      2.6765722859      0.4885525353     -0.0136276056     -0.0045690397      0.0010994347     -0.0671290109
C      -3.7570616434     -2.2348753994     -0.5767691982     -0.0117271306      0.0167091494     -0.0111256326     -0.0769960402
H       1.8407383021      3.1873770214      1.6759119905     -0.0003113733     -0.0008942032      0.0068773387      0.0993616915
H       1.9706605642      2.7584235244     -0.0338050858     -0.0016315797     -0.0048527550      0.0065649084      0.0776440904
H       0.9280229056     -3.3138832147      1.0914140260      0.0003263788      0.0007866161     -0.0004719027      0.1974319987
H       0.9346784474     -4.6308318286     -0.1014698303     -0.0009638995      0.0011343567      0.0039752704      0.0805993884
H       3.9181650688      1.8746566515      1.3099295741     -0.0027115761      0.0131667328      0.0017445901      0.0979297468
H       2.7618440696      0.9820226291      2.3653632249      0.0011037838      0.0020898294     -0.0050599632      0.1754887711
H       3.2328551827     -3.7465874007      0.4016364092     -0.0002325935     -0.0098614039      0.0034133995      0.1198053255
H       2.8136764604     -3.5934243112     -1.3269895349     -0.0013950728      0.0056942486      0.0017408457      0.0989282360
H       0.3042085518      1.2378449047      2.0643557524     -0.0050730030     -0.0203478802      0.0025614116      0.1686996442
H       0.4161965360      0.7811708294      0.3764303982      0.0025962830     -0.0046080432     -0.0004723286      0.1502202608
H       0.2064843980     -3.0162067404     -1.8910561108     -0.0024499824      0.0082852136      0.0017731343      0.0535764130
H       0.3262351285     -1.6754884785     -0.7268487544      0.0021591292      0.0064006241     -0.0024824886      0.1544995628
H      -0.7546129240      3.4312737748      1.3950471473     -0.0033059655      0.0006118147      0.0011648164      0.0724101185
H      -0.6264045152      2.9691727490     -0.3120254544      0.0030768237     -0.0016207937     -0.0012357508      0.0604952735
H      -1.3942352113     -2.7013068368      0.7120774744      0.0012273374     -0.0039953462      0.0058049058      0.1521264511
H      -1.6137489052     -4.0287150354     -0.4505353872     -0.0009596302      0.0027451351     -0.0050864726      0.0670851180
H       2.6343766082     -1.4332999172      1.8396869801     -0.0014790420      0.0032571751      0.0039744544      0.1985134366
H       3.2108019785      1.2200999605     -1.4448448269      0.0045513371     -0.0091274234     -0.0065700748      0.0476041301
H       3.0252402871     -1.3986819731     -2.3859592704      0.0031481274     -0.0032838654     -0.0082599986      0.0398353981
H      -2.0378632089      0.9372692683      0.1419466241     -0.0112214797      0.0026458660     -0.0029273381      0.1561538192
H      -2.1622640695      1.3972392214      1.8378160445     -0.0094559755     -0.0050835659     -0.0103892472      0.0999491958
H      -2.3243275948     -2.3835203749     -2.2031667751     -0.0039006708      0.0046084430      0.0047758600      0.0580430745
H      -2.0207287744     -1.0491441822     -1.0770717862     -0.0077792422     -0.0006079352      0.0046652016      0.1235483911
H      -3.3479931278      3.5370075602      1.1741724508     -0.0004541332      0.0035404577     -0.0043451644      0.0285584334
H      -3.2155351168      3.0714846779     -0.5385194934     -0.0046247964      0.0090843006     -0.0095999679      0.0219718106
H      -4.2175255903      2.1053694669      0.5730369429      0.0116759205      0.0024116202     -0.0061268471      0.0395686154
H      -4.4798620029     -1.6324847854     -1.1490893104      0.0171969441      0.0015982794      0.0041711657      0.0296012061
H      -3.7874535676     -1.9007681624      0.4725113796     -0.0129018594     -0.0004351943      0.0029972265      0.0510214385
H      -4.0939856523     -3.2838796400     -0.6029565121     -0.0092096312     -0.0020577817     -0.0045920719      0.0336989004
B       0.7643831144     -1.4614480010      3.3744982240      0.0132837379     -0.0000435790      0.0114114396      1.4250370237
F       1.4531623093     -0.2320739657      3.6447110888      0.0068852915     -0.0128651571      0.0068135185     -0.5800256368
F       0.0277954584     -1.3064590628      2.1598166210      0.0088427471     -0.0099746318      0.0177505356     -0.5825072744
F      -0.0599189291     -1.8332594120      4.4283131161     -0.0014244735      0.0018615932      0.0064331447     -0.5266875886
F       1.7842446855     -2.4700757695      3.1350746204      0.0035990426      0.0057582315      0.0076247546     -0.5797736050
