51
Properties=species:S:1:pos:R:3:forces:R:3:charge:R:1 energy=-287.78895624598204 homo_lumo=5.069503834782272 dipole="1.169723624491264 0.22158862438960789 -1.669938117732568" free_energy=-287.78895624598204
N       1.9242691504      0.5006828650      0.5165091246     -0.0028861746      0.3534596621      0.2206626160     -0.5079787548
N       2.1689142175     -1.6293419282      0.3363256969      0.2422795312     -0.4177402213      0.0160889259     -0.5019533126
C       0.4003480243      2.4420511450      0.5379540471     -0.0369945069     -0.6026653421      0.4264580767     -0.1824118241
C       1.6710508869      1.8114704159      1.1115919688     -0.1770166068      0.4222993161     -0.2016782049     -0.0046694184
C       0.8010271221     -3.6640494751      0.7473908198      0.2204468831     -0.0470026716     -0.4027033435     -0.1873492173
C       2.2011417445     -3.0426073716      0.7025660158     -0.5360309992     -0.2768709394      0.2312819145     -0.0098415313
C      -0.8419366519      1.6173449144      0.8826311141      0.0106096966      0.7536774792     -0.5166549309     -0.2406094920
C       0.0561268829     -3.6338741669     -0.5950316427     -0.1061317667      0.4411452389      0.5494680402     -0.1620682079
C      -2.1190222421      2.2717089555      0.3521151129      0.1007987437     -0.7255899776      0.4117473457     -0.1592417120
C      -0.8620885604     -2.4134489315     -0.7310981733      0.1110370631     -0.5508489400     -0.7373965663     -0.2274736942
C       1.9754250420     -0.6375575646      1.2007382751      0.2163139068      0.0396324274      0.1907239560      0.5975633020
C       2.0845621557      0.2317955525     -0.8177151363     -0.0121238374      0.0597325216     -0.3259626105      0.1962406257
C       2.2379396810     -1.1141433874     -0.9310942799      0.0740329979      0.0284801700     -0.2916309086      0.1945960581
C      -3.3494272197      1.4526593446      0.7543321000     -0.0861883998      0.5681850285     -0.4441034295     -0.2302708133
C      -1.5396351165     -2.3805637943     -2.1037141218     -0.0532546901      0.5041196490      0.5055259505     -0.1810729838
C      -4.6348775809      2.0603332736      0.1962666379      0.2762942195     -0.2935321626      0.2235669685     -0.0464714602
C      -2.4347829014     -1.1514264412     -2.2520057450      0.2155731044     -0.3895274544     -0.1221860349     -0.0798638162
H       0.3136585398      3.4451017790      0.9668458832      0.0188219065      0.3085298999      0.0574949840      0.0838299206
H       0.4980067728      2.5492933341     -0.5475250825      0.0164274923      0.1334608252     -0.3079516532      0.0772922799
H       0.2147154576     -3.1560945032      1.5159419125     -0.0477504136      0.0307838257      0.1508377493      0.2003170028
H       0.9412117319     -4.7017063203      1.0634909634      0.1181599410     -0.2715608211      0.1593032148      0.0682542652
H       2.5401641943      2.4473570143      0.9161550780      0.2666212122      0.0722307785     -0.0308987111      0.0919447379
H       1.5642850162      1.6544977535      2.1883248431     -0.0075122146     -0.0655621854      0.1148526895      0.1547726453
H       2.6515035051     -3.1072342904      1.6966256537      0.1630498166      0.0095410165      0.1453088176      0.1278444789
H       2.8391341678     -3.5591530198     -0.0203884411      0.1685496728     -0.0307866390     -0.1516887302      0.0907628387
H      -0.9075120210      1.5035106699      1.9680663201      0.0084753013     -0.1311882430      0.1929096421      0.1367408225
H      -0.7419503289      0.6172014870      0.4527822126     -0.0445600641     -0.2038974558      0.0395975250      0.1911056188
H      -0.5543431964     -4.5392970852     -0.6741211413     -0.1369319450     -0.2240705479     -0.1215937061      0.0794519582
H       0.7755670772     -3.6556750921     -1.4227799904      0.1413887283     -0.0844426100     -0.3088902832      0.0563269126
H      -2.2083867256      3.2879944617      0.7524129535     -0.0497431679      0.3122819879      0.0624285263      0.0643118893
H      -2.0668044646      2.3469349413     -0.7405694813     -0.0296407769      0.0757892642     -0.3132120312      0.0672033163
H      -0.2864919409     -1.4952574581     -0.5895147929      0.0152092842      0.2286146176      0.0717152347      0.1896499297
H      -1.6199931601     -2.4444842989      0.0569240473     -0.1260302364      0.0704165774      0.2409555637      0.1084114600
H       1.8923869544     -0.7412751621      2.2698587678      0.0321040994     -0.0340147362      0.1769261482      0.1493075328
H       2.0814840609      1.0041401816     -1.5664350525     -0.0192290110      0.1857389983     -0.1656028730      0.0330602307
H       2.3949665500     -1.7348487200     -1.7954303112      0.0120821320     -0.1528660570     -0.1934840594      0.0306185075
H      -3.2406255130      0.4286098293      0.3826040939      0.0917548399     -0.2506228535     -0.0044887693      0.1426924621
H      -3.4114519466      1.4049176876      1.8459931848      0.0485892953     -0.1061063845      0.2853258018      0.0858788205
H      -2.1403248478     -3.2865886840     -2.2382693469     -0.0962041431     -0.2841134459     -0.0771586494      0.0663688704
H      -0.7744538218     -2.3686607805     -2.8890242435      0.1977340789     -0.0730699219     -0.2342379665      0.0591259956
H      -4.7768562833      3.0734751032      0.5757811324     -0.0905264936      0.3203517155      0.0811666983      0.0213366285
H      -4.5979354744      2.1009089271     -0.8937941408     -0.0335988088      0.0352464986     -0.3395845938      0.0228015344
H      -5.4928170880      1.4559600617      0.4920244569     -0.3581517549     -0.1071117898      0.0344066163      0.0255872566
H      -2.9058710832     -1.1437628650     -3.2354569868     -0.2214305397      0.1166555303     -0.2942514118      0.0203827161
H      -1.8494864363     -0.2371854510     -2.1398934306      0.1261931790      0.3118751758      0.0571737472      0.0465435018
H      -3.2167543739     -1.1570966641     -1.4919523560     -0.2477420627      0.0669216705      0.2272137516      0.0493056153
B      -0.1014167289     -1.0441978946      3.2819771001      0.0404471972      0.0498798506     -0.4581607089      1.4509570366
F       0.4891104638      0.2344632252      3.4555824749      0.2656659162      0.6413162854      0.4135697422     -0.5802661851
F      -1.1568142826     -1.2378261686      4.1182915220     -0.8160476600     -0.1403398335      0.6711864036     -0.5210128844
F       0.9136525075     -2.0144278499      3.4589681036      0.5615073972     -0.5489486491      0.3589661364     -0.5761917297
F      -0.4966281939     -1.1254228982      1.9145734687     -0.4244413627     -0.1278861282     -0.2733426105     -0.5818397342
