25
Properties=species:S:1:pos:R:3:forces:R:3:charge:R:1 energy=-142.38052173006187 homo_lumo=0.7707267548858403 dipole="1.161765131556503 1.9302848111291604 -0.48317360199658366" free_energy=-142.38052173006187
N       1.2154937917      0.0490199901      0.5276910205      0.0042996624      0.0010150415     -0.0038285970     -0.5052208156
C      -1.1728386937      0.0260886866     -0.0997873485      0.0110179900      0.0121639125     -0.0087519233     -0.1773639176
C      -0.1714897581      0.0454416744      1.0483682481     -0.0065187725     -0.0080555845      0.0031845894     -0.0101054101
C      -2.5929939909     -0.1741166694      0.4242042176      0.0087692395      0.0063764600      0.0091649380     -0.2116598102
C      -3.6124035579     -0.2175408751     -0.7106917793      0.0071543764      0.0021428121     -0.0057146252     -0.0656325548
C       1.8976280356      1.2112894623      0.3974663770     -0.0048107626      0.0028173308     -0.0026255657      0.2744620361
C       1.7481619492     -1.1390478406      0.1449536766     -0.0005601827      0.0047527591     -0.0078078723      0.2291651841
C       3.1690229846      1.2218004323     -0.1383584254      0.0111112779      0.0135708427     -0.0000079033     -0.0384780671
C       3.0329504655     -1.1638638236     -0.3795561318      0.0143683753     -0.0046957802     -0.0105964076     -0.0294914585
C       3.7511504079      0.0151093510     -0.5379605051      0.0057733008      0.0058217423     -0.0023483431      0.0203073842
H      -0.9160755427     -0.8295841685     -0.7496006870     -0.0106706522      0.0044835598      0.0094164102      0.1337979182
H      -1.0942023355      0.9570582575     -0.6937814131     -0.0007330364     -0.0175302064     -0.0019881829      0.0753611801
H      -0.2815750840     -0.9009803612      1.6214104942     -0.0073495929      0.0020938746     -0.0085088455      0.1642285635
H      -0.2828159154      0.9294907087      1.6947330672     -0.0007617579     -0.0010169133     -0.0020428162      0.0804084411
H      -2.6085370547     -1.1262144752      0.9835738336      0.0018335874      0.0030504561     -0.0092728018      0.1318295098
H      -2.8498640879      0.6358345864      1.1322175834     -0.0038099018     -0.0078043220     -0.0035237093      0.0691027003
H      -4.6300153134     -0.3759549149     -0.3250743159     -0.0105585267     -0.0014256451      0.0129530012      0.0400178825
H      -3.6102201160      0.7213351572     -1.2877348455     -0.0009997720      0.0016432885     -0.0054119451      0.0226836752
H      -3.3833033595     -1.0434561593     -1.4023086415      0.0036051178     -0.0051670525      0.0044384724      0.0463758434
H       1.3822664493      2.1109794481      0.7301074153      0.0012587973     -0.0115795078     -0.0015076821      0.0869915059
H       1.0860952661     -2.0348870462      0.3292780821     -0.0015578116     -0.0031561588     -0.0041625189      0.1712086939
H       3.6971554677      2.1698051769     -0.2415936814     -0.0070377339     -0.0073324211      0.0105150021      0.0525408366
H       3.4532729722     -2.1294010505     -0.6653120936     -0.0022951645      0.0020037081     -0.0022790947      0.0583443534
H       4.7536242811      0.0043368192     -0.9706402655     -0.0089157936      0.0025500348      0.0105395721      0.0535033017
Cl     -0.3977716095     -3.2023374113      1.0470000145     -0.0026122636      0.0032777691      0.0201668486     -0.6723769761
