25
Properties=species:S:1:pos:R:3:forces:R:3:charge:R:1 energy=-142.55433480792618 homo_lumo=2.857784880766294 dipole="0.028117555697632482 0.7265745379266799 0.8568784992439119" free_energy=-142.55433480792618
N       1.0768342998     -0.1823979892      0.3876164222      0.0029003144      0.0100299938      0.0166009753     -0.4958196061
C      -1.3436668234      0.0520983689     -0.1847927867     -0.0113384063      0.0034741785     -0.0006452322     -0.1991605731
C      -0.3013784431     -0.2116937903      0.8983113818     -0.0058693753      0.0036808075     -0.0084138887      0.0077970775
C      -2.7603792070      0.0260617348      0.3824925348     -0.0004011673     -0.0014029242     -0.0026227992     -0.2139931771
C      -3.8138997283      0.2880941485     -0.6914026273     -0.0122948947     -0.0049323098      0.0141522681     -0.0652569990
C       1.6178393950      1.0178854864      0.0233171026     -0.0044211753      0.0040387499      0.0089338585      0.2498700019
C       1.7141531599     -1.3695287577      0.0875315053      0.0086706710     -0.0188523736      0.0049390208      0.1112451005
C       2.9045054094      1.1089110709     -0.4222271090      0.0069649366     -0.0198783401     -0.0051712366     -0.0571646723
C       3.1121356576     -1.2836096131     -0.2084910203     -0.0123211916      0.0100974149     -0.0040439510      0.0066906533
C       3.6838133055     -0.0764655136     -0.4880272766      0.0124587135      0.0075330377     -0.0058303050      0.0158076556
H      -1.2176251707     -0.7058619993     -0.9757451258      0.0014024024      0.0063355063     -0.0071123863      0.1589065129
H      -1.1487013074      1.0367328289     -0.6470615568     -0.0016293935      0.0060830439     -0.0035244637      0.0967160568
H      -0.4577274892     -1.2056479587      1.3444237500     -0.0018611101     -0.0018601726     -0.0056319092      0.1145860791
H      -0.3730037895      0.5338109039      1.7089502955      0.0026577769      0.0002894446      0.0037503785      0.0956663269
H      -2.9484763818     -0.9574920080      0.8503892766      0.0017707930     -0.0089257994     -0.0000321301      0.0877347484
H      -2.8554736447      0.7794143412      1.1869347391      0.0048371343     -0.0055949823      0.0056593856      0.0778462837
H      -4.8306142457      0.2700446366     -0.2693632518      0.0120793778     -0.0048953089     -0.0028920653      0.0374639687
H      -3.6592836160      1.2722739863     -1.1610402279      0.0002174947      0.0134000698     -0.0044839792      0.0348340824
H      -3.7584717132     -0.4732429293     -1.4845502043     -0.0011840522     -0.0107575894     -0.0114536526      0.0469301267
H       0.9732922881      1.8852116477      0.1555890990     -0.0035691792     -0.0061538856     -0.0035812515      0.0720235700
H       1.3345023088     -2.2302459262      0.6336859850     -0.0033610211      0.0027646357     -0.0024919138      0.1403722321
H       3.3198994247      2.0812373475     -0.6800527533      0.0022979597     -0.0011511995     -0.0021995249      0.0280075763
H       3.6708764821     -2.2164558912     -0.2733932825      0.0048627534      0.0073997883     -0.0018807704      0.0536606949
H       4.7389400413     -0.0177264400     -0.7586337609      0.0078905029     -0.0000700136     -0.0029990950      0.0367729713
Cl      0.8391607036     -2.2069313054     -1.8014704213     -0.0107598641      0.0093482281      0.0209746680     -0.4415366913
