22
Properties=species:S:1:pos:R:3:forces:R:3:charge:R:1 energy=-133.93706533430253 homo_lumo=3.246956248328304 dipole="0.01937958350799736 0.6763026784321927 0.37866130658690966" free_energy=-133.93706533430253
N      -0.5973827369     -0.5721730593      0.2647967678     -0.0730953715     -0.1130058615      0.0126000544     -0.5707216086
C      -0.1017706551      0.6101924840     -0.2195888076     -0.1443144181     -0.1332777013      0.1899629754      0.2574319675
C       0.2126924070     -1.7339311093      0.2861631838      0.2111611990      0.3958206550      0.5714616663      0.2937774576
C      -2.0445499663     -0.7622322760      0.3334391665      0.2913650545      0.1283676291      0.0346551801      0.0959548468
C       1.2281025419      0.8254945381     -0.3291200655      0.4867715961     -0.0855883881     -0.0488300268     -0.0782567690
C       1.6567949246     -1.4248926300      0.4121685782     -0.5457529288     -0.4575077980      0.0157220671     -0.0448431385
C       2.1289860723     -0.2155771044      0.0624219867     -0.2505777509      0.4701393110     -0.1398177847      0.0235944289
H      -0.8397369792      1.3769471205     -0.4265089531     -0.1396204343      0.1109849348     -0.0443589153      0.0552796054
H      -0.1602863123     -2.4565197331      1.0210541869     -0.0628824225     -0.0262277544     -0.0198973651      0.1177103212
H      -2.4490478373     -0.9954568505     -0.6550990688     -0.1484513543     -0.1048776213     -0.2061628507      0.0560141248
H      -2.2629606818     -1.5856108517      1.0123837718     -0.0764326723     -0.1716483460      0.1208603813      0.0780890939
H      -2.5065075383      0.1508620655      0.7087000281     -0.1182276013      0.2267418224      0.1076138569      0.0595468459
H       1.6073182589      1.7797481149     -0.6665591452      0.0204173649      0.2551509173     -0.0781537872      0.0166656566
H       2.3003620961     -2.2396031803      0.7171032056      0.1882414774     -0.1691581204      0.1322040800      0.0388157051
H       3.1903989307     -0.0005111891      0.1087919613      0.2749413492      0.0050854254      0.0160851371      0.0278317615
C      -0.8731141629     -3.3927010978     -1.1497283343      0.0261641908     -0.5077488682     -0.9971361175      0.8988182871
O       0.0376448024     -2.4723940915     -1.0662389629      1.1237505194      0.7029073167     -0.8643980862     -0.6628078449
O      -1.6310542897     -3.7634823889     -0.2994953742     -1.0923054318     -0.6667642676      1.0388997711     -0.6921129031
C      -0.8862648516     -4.0096367592     -2.5965360600     -0.0172050277      0.3881949291      1.0304273365      1.3649221675
F      -1.7876598852     -4.9801929536     -2.6942288963     -0.7650485753     -0.7516558105      0.1081752355     -0.4427122006
F       0.3077471634     -4.5145828179     -2.9097939004      1.1354677380     -0.4424768754     -0.2055147610     -0.4452412984
F      -1.1869738206     -3.0697891614     -3.4969704111     -0.3243665004      0.9465444719     -0.7743980474     -0.4477565068
