42
Properties=species:S:1:pos:R:3:forces:R:3:charge:R:1 energy=-229.49808833418913 homo_lumo=5.400088217686377 dipole="-0.9938371593165882 0.9798886643669177 3.0232459524701896" free_energy=-229.49808833418913
N      -0.2950929266      0.1463000949     -0.1189704489      0.0174823537      0.0009848062      0.0003202375     -0.5144900377
C      -1.2652883163      1.1641265866     -0.7036111990     -0.0020146444      0.0051037578     -0.0006564326     -0.0201486917
C      -0.5131886988     -1.2077949690     -0.7819313157     -0.0048509476     -0.0081314230      0.0045639828     -0.0778345291
C       1.1063115195      0.6503483923     -0.4462464617      0.0109184342     -0.0071425509     -0.0020357979     -0.0429652001
C      -2.7137977439      0.7111580991     -0.6476754301     -0.0013463739     -0.0120669155      0.0081340825     -0.1703620474
C      -1.9570088227     -1.6714214246     -0.7314934984     -0.0040834116      0.0049735393     -0.0043362854     -0.1679126353
C      -2.8881013878     -0.6330221284     -1.3535405934     -0.0075001136     -0.0017274913     -0.0121187492     -0.1705987187
C      -0.4719673093      0.0462449191      1.3585315874      0.0020066356      0.0010471038     -0.0044950865      0.0654910443
C       2.2504080599     -0.2706999954     -0.0686438125     -0.0041901761     -0.0077044825     -0.0029707049     -0.2287704662
C       3.5758456902      0.4084361470     -0.4285679610      0.0067845338      0.0122992873     -0.0076214390     -0.2074262499
C       4.7678515531     -0.5084663311     -0.1781243508      0.0074552857     -0.0145410556      0.0101267909     -0.0708762996
H      -0.9484701205      1.2959140914     -1.7486709843     -0.0056532171     -0.0116348400     -0.0029669731      0.1965419677
H      -1.0955812286      2.1030252619     -0.1530663199      0.0018181715     -0.0114219770     -0.0034119883      0.1083457461
H       0.1669674694     -1.9150943233     -0.2914940150     -0.0025166191     -0.0038411663      0.0010449103      0.1318634348
H      -0.1892072495     -1.0761225665     -1.8202737596     -0.0033112724      0.0006307070     -0.0061113514      0.2766434873
H       1.1938665772      1.6259176918      0.0615157364     -0.0043808725     -0.0025386942     -0.0041457277      0.1046258794
H       1.1085453334      0.8133198044     -1.5335451757     -0.0028479039     -0.0049440231     -0.0066494848      0.2147525990
H      -3.3133722666      1.4957017642     -1.1387347207      0.0070988954     -0.0021755507     -0.0088554957      0.1125336063
H      -3.0739420976      0.6543366587      0.3949816485     -0.0011834567     -0.0025878611     -0.0044508787      0.0843451002
H      -2.2708818559     -1.9111926337      0.3003011529      0.0017894559      0.0008749683      0.0041828305      0.0741306074
H      -1.9910853658     -2.6145587019     -1.3006864896     -0.0000977663      0.0040312814     -0.0050054213      0.1348551350
H      -3.9367014133     -0.9649423885     -1.2939482665      0.0130473225     -0.0002258655      0.0017761638      0.0823880939
H      -2.6329873282     -0.5207317119     -2.4222861398     -0.0022590953     -0.0001716548      0.0099475466      0.1301118889
H      -1.4993691006     -0.2542398742      1.5841643318     -0.0022259645     -0.0010865262      0.0065688823      0.1120221422
H       0.2233453323     -0.7052840300      1.7482535715      0.0050519500     -0.0031031146      0.0033142643      0.0995093208
H      -0.2608141458      1.0255815353      1.8075022030      0.0030854526      0.0009434181     -0.0056750775      0.0764388384
H       2.1805391055     -1.2080496200     -0.6414235643      0.0038827283     -0.0013245705     -0.0001287512      0.1720732888
H       2.2487286127     -0.5116892372      1.0092242232      0.0037709914      0.0003933170     -0.0102356530      0.0809287672
H       3.6846238406      1.3431647398      0.1520762974      0.0058696049     -0.0104983495     -0.0053186305      0.0738981705
H       3.5455086651      0.6897182336     -1.4950402755      0.0135121834     -0.0015050298      0.0024038110      0.1362515598
H       4.6803859582     -1.4245878178     -0.7828274015      0.0130949505     -0.0006089604      0.0030607889      0.0558742354
H       4.8324381899     -0.8020585963      0.8823201731      0.0035007359      0.0030039369     -0.0048431795      0.0265900885
H       5.7101705653     -0.0116321038     -0.4506669068      0.0140927613     -0.0009489824      0.0029990893      0.0451507885
N       1.1368673144     -1.4176559591     -5.0973690121     -0.0134003767      0.0085430100     -0.0009372863     -0.8440361507
S       0.9588286915      0.0851759137     -4.5986909127     -0.0148643122      0.0218541342      0.0092045078      1.9376052217
S       1.0580715124     -2.6348352227     -4.0548897402     -0.0054308543     -0.0017323106      0.0053457927      1.9218933933
F       2.3762867986      0.3950475200     -3.7666579365      0.0022377339      0.0117116107      0.0193518386     -0.4799718783
F      -0.5815132702     -2.7211176047     -3.7149724588     -0.0219536664      0.0014018491      0.0119020851     -0.4823685453
O       1.0083786990      0.9779217962     -5.7316573810      0.0008359445      0.0081801119     -0.0087394738     -0.7017100506
O      -0.0533625683      0.2968905009     -3.5571796812     -0.0111345920      0.0119472486      0.0247836759     -0.8041475384
O       1.6373373634     -2.3740214237     -2.7408123740     -0.0077806830      0.0035722013      0.0108052923     -0.7703054873
O       1.3417577192     -3.8678588738     -4.7490854940     -0.0143098054      0.0101671065     -0.0281267051     -0.7009398792
