42
Properties=species:S:1:pos:R:3:forces:R:3:charge:R:1 energy=-227.74806896858536 homo_lumo=3.9962918465578756 dipole="-3.0015499020950513 -1.9857965854817317 -3.0475131644659443" free_energy=-227.74806896858536
N      -0.5584140513      0.3172330633      0.1716694531      0.1415598629      0.2481033241     -0.1276463428     -0.5463884643
C      -1.5612591260      1.2460937026     -0.4421412682     -1.4680346254      1.0032932418     -0.5817771682     -0.0256120411
C      -0.8905180440     -1.1019022435     -0.1651786665     -0.5908301251     -1.6363774903     -0.1518891832     -0.0273160996
C       0.7746169037      0.6817911880     -0.4152755969      1.8667350161      0.1312166768     -0.4055003650     -0.0455337610
C      -3.0286310618      0.8897328796     -0.1378371913      0.0354375161     -0.0479752462      0.0334474179     -0.1757887292
C      -2.3408824504     -1.4921298413      0.1698653170     -0.0440268055      0.1275708177     -0.0197971612     -0.1683034157
C      -3.3262985809     -0.5556040096     -0.5169207790     -0.3367428762     -0.0858025325      0.0886843584     -0.1666473739
C      -0.5206436663      0.5170902260      1.6461754646      0.0066580289      0.1429082791      1.4881575659     -0.0094971566
C       1.9861747901     -0.1242097231      0.1137805760     -0.3676701126      0.1335294075      0.0787883193     -0.2314897241
C       3.2765035127      0.3100629410     -0.5934597064     -0.0349228871      0.1817139070     -0.1071791587     -0.2152561908
C       4.4825670229     -0.4601378734     -0.0632247058      0.1441065073     -0.0324136043      0.0589004224     -0.0915350222
H      -1.4547970805      1.2500822342     -1.5521637766      0.3515436150     -0.2704183176      0.4446328830      0.1445210683
H      -1.3812390651      2.2923554765     -0.1047141583      0.3668824887     -0.5289583345      0.0397196334      0.1603183418
H      -0.2333049180     -1.8065885623      0.3878967913      0.0972470966      0.6338514555     -0.1446880416      0.1632786717
H      -0.7283471042     -1.2882111147     -1.2518000582      0.0947929352      0.4547405354      0.3398364250      0.1404316786
H       0.9848476222      1.7616111830     -0.2312483826     -0.3993405646     -0.3309846858      0.1695774260      0.1810389420
H       0.7471124033      0.5561867141     -1.5228949947     -0.4131443689     -0.0642641062      0.4092961722      0.1307190038
H      -3.6923020240      1.5569925549     -0.7295154159      0.3547513021      0.0320586332      0.1990167594      0.1241170879
H      -3.2713142900      1.0635344807      0.9308542347      0.0797678483      0.0011149516     -0.2060944687      0.1135627328
H      -2.5056549909     -1.4798403551      1.2682175544      0.0687939829     -0.0494099574     -0.2322984768      0.1162654729
H      -2.5287644825     -2.5304590163     -0.1796423515      0.3035041193      0.2218972676      0.1779958496      0.1200934373
H      -4.3621574394     -0.8150375245     -0.2090473819      0.2331527855      0.0495560521     -0.2176582772      0.1029377160
H      -3.2521090698     -0.6772430107     -1.6204038808     -0.0612282126      0.0082408251      0.2188132905      0.0927535310
H      -1.5206290970      0.4224108373      2.1111118682      0.1598995894     -0.0008595849     -0.4866657583      0.1216185396
H       0.1171606027     -0.2428072892      2.1456561261     -0.0670287140      0.3334548007     -0.4302468046      0.1365283592
H      -0.1331646580      1.5277186764      1.9018905115      0.0602898493     -0.3646073877     -0.2707058193      0.1697215569
H       1.8439279462     -1.2087612794     -0.0697961037     -0.0090274522      0.1740185937      0.1214992723      0.1039132235
H       2.1171182041      0.0476885005      1.2024406795     -0.0533901210     -0.0711902086     -0.2120969822      0.1700067859
H       3.4461326603      1.3970877880     -0.4332971334     -0.1137925717     -0.2255334749     -0.0763200251      0.1344315626
H       3.1876793755      0.1263820766     -1.6868545412     -0.0548066477      0.1501287404      0.1803159261      0.0777882824
H       4.3598538846     -1.5477864586     -0.2549730555      0.1168076761      0.2675522490      0.1095337625      0.0309897951
H       4.5997789235     -0.2907085717      1.0286502076      0.0285362075     -0.0801895307     -0.3266989518      0.0831878807
H       5.4022580944     -0.1100585971     -0.5776802219     -0.2211055193     -0.1768508273      0.2241751754      0.0544123626
N       2.0975978630      2.4185976284      3.3915769877     -0.2631367794     -0.1522750644     -0.3575284104     -0.8951382522
S       2.5442548146      1.6298389752      4.7530378613      1.5335929878     -4.2447166636     -1.1220099409      1.8550745327
S       3.1385176666      3.4005781966      2.5997222447     -1.0022654021      4.7182446434      2.0889423368      1.8506247537
F       2.7316268880      2.7338484553      5.9976676242     -0.3085607447     -0.4916449120     -0.7214338622     -0.4334262507
F       4.3774213324      2.4857548218      1.9448624435     -0.5522556734      0.0979506358      0.0017553270     -0.4494669119
O       1.4852155556      0.6319981349      5.1260167651      0.5255726612      2.5560822413     -0.1727656962     -0.7336917682
O       3.8516483577      0.9230315461      4.5298650512     -1.2579152681      1.8579469325      0.8428107227     -0.7198336073
O       3.7275563658      4.3980286304      3.5573975934      0.1602955601     -2.1780799144     -1.4450535015     -0.7063896551
O       2.4120184692      4.1212783557      1.5001010174      0.8892978355     -2.4926223681      0.5001553504     -0.7370208948
