61
Properties=species:S:1:pos:R:3:forces:R:3:charge:R:1 energy=-330.7097740701876 homo_lumo=4.390391349619391 dipole="1.653828740886614 1.51615053657702 -1.8668975927552756" free_energy=-330.7097740701876
N      -0.1600340539     -0.1843877833     -0.1294925500      0.1605911364      0.1366256767     -0.0839474210     -0.4895931594
C       0.6221598910     -1.3166766432      0.4842900736      0.3424944200      0.0144922396      0.4007480260     -0.0813975891
C      -1.1022057966      0.3644663270      0.9129332887     -0.4269322018      0.3426191319     -0.1233468802     -0.1058844087
C      -0.9110057601     -0.7302576529     -1.3188908324     -0.4694419434     -0.4445021743      0.0310973599     -0.0351196338
C       0.7407073628      0.9294691904     -0.5788117165      0.4319035566     -0.1728291422     -0.4269498969     -0.0264988820
C       1.5264210657     -0.9424816769      1.6551570408     -0.2190763186     -0.4784222347     -0.3123195033     -0.2071137145
C      -2.1503071185      1.3525175034      0.4084328111      0.2118432066     -0.2809167100      0.4969858473     -0.2054229199
C      -1.9788341025     -1.7712312596     -0.9853059568      0.2586123830      0.3875658266     -0.6327695679     -0.2456369294
C       1.8424518152      0.5315769990     -1.5595857466     -0.1988245153      0.5593200263      0.3009807231     -0.2053365121
C       1.9584451286     -2.2367332149      2.3594178141      0.1238640705      0.5303033790      0.2098062194     -0.2081876645
C      -3.0590394074      1.7312814108      1.5865984073     -0.1138007600      0.1867374665     -0.5131711554     -0.2075361175
C      -2.7141352760     -2.1894166837     -2.2627083339     -0.0130862262     -0.1430528605      0.5230960557     -0.1918125154
C       2.6770266870      1.7702861047     -1.9100911207      0.0616622065     -0.5780479389     -0.2155998491     -0.1950873573
C       2.8515524642     -1.9383775573      3.5603486814     -0.1880226295     -0.1716565246     -0.3707082183     -0.0458371998
C      -4.1478836456      2.7065960913      1.1482848919      0.3298693069     -0.2281046685      0.2117308424     -0.0457001112
C      -3.7814358073     -3.2329095368     -1.9352352156      0.2435238871      0.3113922202     -0.2882221431     -0.0498655270
C       3.7971725033      1.4188895495     -2.8865473764     -0.2831431340      0.2418279249      0.3010202877     -0.0477185957
H       1.2066555363     -1.7814407578     -0.3126452516      0.1140311347     -0.0533195552     -0.2388220048      0.1014541448
H      -0.1173355286     -2.0380662700      0.8371063446     -0.2409225441     -0.1083048036      0.1057963815      0.2735514478
H      -0.4873732044      0.8557356666      1.6694127254      0.1813062762      0.0523650170      0.1132817241      0.1292348776
H      -1.5991920304     -0.4884857787      1.3734762955     -0.1461700201     -0.1463035652      0.0576974669      0.2773340155
H      -0.1664102718     -1.1755925728     -1.9832586138      0.1968538256     -0.0215003045     -0.0948189955      0.1420680440
H      -1.3592880178      0.1227294278     -1.8346643051     -0.0614352409      0.2445890821     -0.0929723687      0.1197417078
H       1.1897677346      1.3585612459      0.3202804611      0.0467235726      0.0797798499      0.2288334083      0.1379577291
H       0.1031247877      1.6886332537     -1.0382272725     -0.1605166887      0.1365804895     -0.0345503757      0.1510147919
H       0.9923812195     -0.3188402702      2.3751015161     -0.1326713049      0.1161900860      0.2283252290      0.1241483556
H       2.4074061551     -0.3907862173      1.3125984504      0.2724467359      0.1869022964     -0.0421287190      0.0809945675
H      -2.7648100096      0.9051585541     -0.3756581098     -0.1931343433     -0.1322160344     -0.1980082862      0.1150123567
H      -1.6780331357      2.2519961267      0.0003701813      0.0619274476      0.2815527146     -0.1234110230      0.0781338038
H      -2.7052355006     -1.3716572055     -0.2768881193     -0.1349086063     -0.0140036706      0.2885574773      0.1981831074
H      -1.5237867572     -2.6531713736     -0.5309989031      0.0143035769     -0.1787756071      0.2180139879      0.1439127424
H       1.4134473127      0.1187186571     -2.4759579450     -0.0750247513     -0.1117038356     -0.2522651688      0.1059636090
H       2.4957849277     -0.2250264963     -1.1188229556      0.1779216034     -0.2078298027      0.1027805065      0.1184946630
H       2.4942437713     -2.8757624350      1.6498467527      0.1054037847     -0.2061983792     -0.2037174170      0.0716105491
H       1.0638994759     -2.7733279067      2.6904271008     -0.2408525851     -0.1320797839     -0.0077818203      0.1469078885
H      -2.4566313132      2.1837278555      2.3809132346      0.1633629981      0.0803250876      0.2427045196      0.0707023944
H      -3.5183684229      0.8219920059      1.9848234000      0.0033458457     -0.2378736518      0.1366685596      0.1608979442
H      -2.0007899754     -2.6029743524     -2.9843287757      0.1754301947     -0.0700204830     -0.2575468219      0.0625891802
H      -3.1841388155     -1.3119088701     -2.7205538675     -0.1034129469      0.2421990189     -0.1871897173      0.0684089226
H       3.1074352615      2.1888412292     -0.9944988551      0.0709314979      0.1673700826      0.2491792549      0.0903605490
H       2.0283439315      2.5319597962     -2.3549265260     -0.1652608521      0.2414115239     -0.0593968631      0.0860751792
H       2.3192400817     -1.3249606523      4.2879620097     -0.1392458887      0.1746848487      0.2591225241      0.0362473480
H       3.7527552591     -1.4074264076      3.2492493903      0.3091085322      0.1664380316     -0.0305728129      0.0159770364
H       3.1455241932     -2.8706638737      4.0417333777      0.1432810481     -0.2254465814      0.2327257905      0.0388559498
H      -4.7710277192      2.2598003614      0.3726032762     -0.2294489398     -0.1040109241     -0.2322366238      0.0281110834
H      -3.7095487646      3.6259490177      0.7561206237      0.0696276580      0.3309979290     -0.1384503375      0.0146090129
H      -4.7806784710      2.9582789830      1.9988982744     -0.2665473942      0.1445418560      0.2010072070      0.0386486249
H      -4.4968325106     -2.8308051954     -1.2181009908     -0.2158592902      0.0629158540      0.2583421740      0.0521179784
H      -3.3219585350     -4.1222806432     -1.5042380449      0.0790577249     -0.2817599303      0.1801366544      0.0437414860
H      -4.3150654780     -3.5178934790     -2.8420837752     -0.2194402465     -0.1545458054     -0.2324876431      0.0257651017
H       3.3851577859      1.0174814212     -3.8129830094     -0.0764427135     -0.1289753890     -0.3137735784      0.0330029333
H       4.4643923171      0.6744741968     -2.4509140457      0.2386672567     -0.2246785877      0.0881704784      0.0346150822
H       4.3768909266      2.3111126516     -3.1211730885      0.2572130891      0.2176853747     -0.1515901340      0.0419528897
S      -2.5825401518     -2.4995975825      2.6345085175     -0.0606615665     -0.2666156940     -0.0709950335      1.7706718307
O      -3.3574193778     -1.5265487914      1.8683383902     -0.8806842960      0.7020600352     -0.6289540350     -0.8314429426
O      -2.2741196047     -2.1016268531      3.9851442328      0.2194600292      0.2600390440      1.4942023726     -0.7735787871
O      -1.4507023299     -3.0477152131      1.8871230677      0.8896912020     -0.6944420694     -0.5984439629     -0.8379633958
C      -3.7343020201     -3.9415700688      2.7671452373      0.6672042930      0.8234329688     -0.1387761730      1.1521925530
F      -4.1083380598     -4.3241385613      1.5459968338     -0.4443600224     -0.4681094577     -1.3254066598     -0.4556931930
F      -4.8245681191     -3.6253517335      3.4540815440     -1.1966248007      0.3644201146      0.7750849463     -0.4440010145
F      -3.1482379761     -4.9734061048      3.3617784143      0.6742892705     -1.1211190272      0.6852351862     -0.4448333114
