36
Properties=species:S:1:pos:R:3:forces:R:3:charge:R:1 energy=-197.7187044863722 homo_lumo=3.968506227006862 dipole="0.9801844005703501 2.723430574330665 0.8481823591947402" free_energy=-197.7187044863722
N      -0.1512054801     -0.1804172531      0.2953125505      0.0013359368      0.0000889948     -0.0006786475     -0.4928056776
C      -0.9317531272      0.2580235499      1.5226024870      0.0026951020      0.0033256212      0.0051675191     -0.0728601124
C      -1.0898785238     -0.4534397078     -0.8767240510     -0.0011019769     -0.0111094862     -0.0097286002     -0.1203330122
C       0.5816766232     -1.4834633802      0.6223536382     -0.0015200982     -0.0124203631      0.0041745165     -0.1166788383
C       0.8141712132      0.9224218110     -0.0842441282     -0.0006293919      0.0072748290     -0.0052255865     -0.0687204451
C      -2.0465501253     -0.6737325854      1.9523221628     -0.0073979056     -0.0038538167     -0.0059292799     -0.0924269719
C      -1.9629146947      0.7153760838     -1.2829612690     -0.0149956785     -0.0010895938     -0.0054430481     -0.1054038472
C       1.5628230108     -1.9453420374     -0.4344291406      0.0151070720     -0.0032067104      0.0013147893     -0.1159611725
C       1.9208406347      1.1943219388      0.9175075114      0.0104312560      0.0064851380      0.0004547051     -0.0965621551
H      -0.1883940933      0.3596304403      2.3250728973      0.0006127709      0.0022851815      0.0072162258      0.1466869360
H      -1.3199907589      1.2615312869      1.2936105090      0.0049439370      0.0101656130      0.0098450691      0.1281707587
H      -0.4457179776     -0.7752698043     -1.7048727026     -0.0032238737     -0.0071470014     -0.0069685349      0.1694591138
H      -1.6652395557     -1.3469689724     -0.5821688290     -0.0035727328     -0.0149161516     -0.0058646966      0.2418447803
H       1.0654832505     -1.3147267814      1.5958402531      0.0117930313      0.0055042545      0.0050587588      0.0996692271
H      -0.2205095390     -2.2394668939      0.7147279760     -0.0028405990     -0.0104416818     -0.0040066010      0.2497988761
H       1.2313459082      0.6341601195     -1.0590258427      0.0083797100     -0.0008349998     -0.0055814560      0.1461916424
H       0.2045625167      1.8241371172     -0.2332267157      0.0017052801      0.0051329611     -0.0027681157      0.1495151140
H      -2.4839417951     -0.2601454705      2.8745993194      0.0052143627     -0.0006599806     -0.0082328411      0.0602884047
H      -2.8429122298     -0.7550821381      1.2019841055     -0.0081265259      0.0077207667     -0.0075801387      0.0728545361
H      -1.6946863296     -1.6916363373      2.1597856659     -0.0024124571     -0.0117256302     -0.0068396489      0.0919175110
H      -2.5976765064      0.3692750770     -2.1128966510      0.0024988039     -0.0181472618     -0.0021044680      0.0878908621
H      -2.6385743323      1.0477959939     -0.4816660939     -0.0000222679     -0.0002113572      0.0050663860      0.0459789732
H      -1.3945062732      1.5802345259     -1.6546984200     -0.0010390947      0.0087887260      0.0075754411      0.0335801700
H       2.0402332192     -2.8568524364     -0.0419145362      0.0044765006     -0.0038011029      0.0045678131      0.0793061136
H       1.0343910248     -2.2573744513     -1.3477444486     -0.0124629089     -0.0012398289      0.0034596394      0.1076287835
H       2.3630936955     -1.2234846960     -0.6537993311      0.0045039916      0.0054624121     -0.0049443037      0.0223491185
H       2.5554335039      1.9960715287      0.5101376954     -0.0026591502      0.0039195637     -0.0096093284      0.0754152419
H       1.5398972101      1.5447073125      1.8864680081     -0.0056684677      0.0031085284      0.0055312282      0.0508187965
H       2.5616666401      0.3179067118      1.0815435722      0.0028513322     -0.0000167306     -0.0008902537      0.0674987643
C      -1.5049478498     -3.9042291483     -0.9211028124     -0.0050966484     -0.0073167178      0.0080909393      0.8850559549
O      -1.8318376147     -3.3196961962      0.1538783760     -0.0048198582      0.0069988760      0.0232850669     -0.8435603053
O      -0.7828627831     -3.5217852978     -1.8654530954      0.0055740129      0.0099917673      0.0019144373     -0.7959482474
C      -2.1239075072     -5.3401383406     -1.0488055516      0.0006634236      0.0139981029      0.0056472603      1.2930982900
F      -1.8296218539     -5.9615042338     -2.2248692052      0.0000439727      0.0041423093     -0.0083775321     -0.4573599668
F      -3.4921390875     -5.3089868616     -0.9480690014     -0.0120975379      0.0073274184     -0.0016058317     -0.4623061185
F      -1.6702582253     -6.1613884046     -0.0440228259      0.0068566771     -0.0035826492      0.0040091174     -0.4640910985
