69
Properties=species:S:1:pos:R:3:forces:R:3:charge:R:1 energy=-375.44888288703225 homo_lumo=2.8810367642628925 dipole="-0.2089890427658333 2.305596160328821 6.154968292339531" free_energy=-375.44888288703225
N      -0.5213695366      1.7862370547     -0.1954481094      0.2705110850      0.2471863385     -0.1334758977     -0.5182912189
C      -1.3756286411      2.3245614363     -1.3037501302     -1.2973287798      0.6973549824     -1.2140199640     -0.0456235701
C      -0.2127853379      2.9051833582      0.7531556334      0.0066889373      1.2880494498      1.2979324967     -0.0346327227
C      -1.2021907593      0.6705357910      0.5496188151     -0.6850567209     -1.3928493936      0.3786104432     -0.0590644533
C       0.7601208833      1.3265866641     -0.8310955828      1.5653007900     -0.8591246602     -0.3307533975     -0.0772102441
C      -2.6686320743      3.0048385915     -0.8244297790      0.0694693408     -0.0154741751      0.0779089708     -0.1819786590
C      -1.4646815978      3.6283645334      1.2926096278     -0.0925480772     -0.0547369130     -0.0958368143     -0.1700200717
C      -2.3476379238      4.1313766436      0.1535466756     -0.2651921264      0.1292588711      0.1309816663     -0.1681065419
C      -1.5106883292     -0.6021879723     -0.2750551028      0.1920904965      0.3932071781      0.0724408535     -0.2309684924
C       1.7741059077      0.6248599658      0.1059300286     -0.3788096190      0.1885293901     -0.1221455250     -0.2226845390
C      -2.2073370591     -1.6512837378      0.6022990390      0.0977689268      0.1703277888     -0.1079552991     -0.1650823139
C       3.0490742282      0.2561820997     -0.6663345109     -0.1868037632      0.0051420126      0.0434204593     -0.1796291686
C      -2.4895208328     -2.9345980520     -0.1863936417     -0.0818386576      0.0872498029      0.3605497255     -0.1751381689
C       4.0552649357     -0.4706363211      0.2336685800      0.0095392021      0.1284011947     -0.3859691421     -0.1683932694
C      -3.1951777584     -3.9736847568      0.6920802076      0.0342764670     -0.0753391047     -0.2048021685     -0.2080247600
C       5.3313230984     -0.8201119553     -0.5410921132      0.0066444371     -0.0936558215      0.1900089051     -0.2117132939
C      -3.4610827684     -5.2601832696     -0.0832355322     -0.1214848680     -0.2180339771      0.1084017055     -0.0867856669
C       6.3355748607     -1.5465971406      0.3485506268      0.2274227244     -0.0636106135     -0.0826550512     -0.0845935042
H      -0.8068002644      3.0880147088     -1.8854599418      0.1978669431     -0.3924983139      0.4784398366      0.1615349594
H      -1.6351288950      1.5363650639     -2.0405433021      0.3783018350     -0.0741261084      0.4481480228      0.1832270826
H       0.3561164796      2.5368650688      1.6333875265     -0.0848007150     -0.2652344225     -0.5467960455      0.1545614665
H       0.4258501984      3.6716776883      0.2558785326     -0.2116736750     -0.5551705535     -0.1913180800      0.1460220130
H      -0.5950533626      0.3783033753      1.4343826953      0.1417824221      0.3512099434     -0.4375405147      0.1494185554
H      -2.1638886181      1.0104344351      0.9781919627      0.3058068186      0.3559244583     -0.3042358751      0.1823555298
H       0.5399042255      0.6342572662     -1.6698321006     -0.3017805612      0.2504285368      0.2825695548      0.2158097656
H       1.2812716782      2.1931883294     -1.3008941615     -0.5375661830     -0.0596870188      0.2905316908      0.1530255656
H      -3.1957998089      3.4348840278     -1.7033900907      0.2215385800     -0.3274094411      0.0944292498      0.1351457799
H      -3.3629736135      2.2718879791     -0.3648341552      0.1384483485      0.1045418385     -0.1045609100      0.1122453818
H      -2.0484101435      2.9675216319      1.9664673880      0.1634001907      0.0849548207     -0.1214305966      0.1067193357
H      -1.1433144633      4.4974286307      1.9059388449      0.1319206373     -0.3538237679     -0.0895247991      0.1233644568
H      -3.2924187279      4.5438739198      0.5683467114      0.2867050939      0.0243076442     -0.1476995063      0.1041322084
H      -1.8217857232      4.9499674078     -0.3854788861     -0.1470497298     -0.1404363634      0.0996393381      0.1007817346
H      -2.1859391831     -0.3628429943     -1.1208666620      0.2487527563     -0.0435170318      0.0595738156      0.1394837220
H      -0.5782178670     -1.0480927883     -0.6764060143     -0.2183164798      0.1477204219     -0.0428046982      0.1427867882
H       1.3417660289     -0.3097393933      0.5182376569      0.0426117278      0.2297761264     -0.0042390516      0.1229500063
H       2.0550711725      1.2900169750      0.9470850630     -0.1004910614     -0.1631842627     -0.0689441609      0.1059386973
H      -3.1674471864     -1.2349833032      0.9805473134      0.2212708319     -0.1160359162      0.0369164792      0.0861647166
H      -1.5605787266     -1.8925598585      1.4746847718     -0.2089277820      0.0610510678     -0.0984566202      0.0880773527
H       3.5173276807      1.1827146162     -1.0659660577     -0.1003751429     -0.2513967769     -0.0284268677      0.0945928136
H       2.7846264598     -0.4019714010     -1.5237172497      0.1072443934      0.2522527582      0.1169746078      0.1334840043
H      -3.1323707573     -2.6953346319     -1.0621618491      0.2476654746     -0.1062859712      0.1156145879      0.1082552071
H      -1.5289322757     -3.3561774563     -0.5563833116     -0.2665901208      0.1010234921     -0.0472496975      0.1066755295
H       4.3154909970      0.1812184413      1.0965943319     -0.0711909707     -0.2093716252     -0.0881444207      0.0821905919
H       3.5931686744     -1.4049925207      0.6222434145      0.1179402734      0.2162452380      0.0146826089      0.0899102267
H      -2.5626407378     -4.2107436972      1.5752976039     -0.1773840924      0.1624997551     -0.1027252628      0.0843855468
H      -4.1639548550     -3.5641368141      1.0529330509      0.2627997964     -0.0161486090      0.0394713871      0.0854401740
H       5.0791183903     -1.4725089790     -1.4054986979      0.0141661960      0.2774005783      0.1125765277      0.1068641623
H       5.8017262439      0.1100938204     -0.9281314651     -0.2009935001     -0.2052196296     -0.0385795578      0.0923787175
H      -3.9703792200     -5.9931241057      0.5771490879      0.1306951850      0.0813530428     -0.3071770246      0.0462134255
H      -2.5048488197     -5.7029390440     -0.4347055822     -0.3343484824      0.0632495418      0.0098254442      0.0493034443
H      -4.1143406721     -5.0552760882     -0.9579517705      0.2255854603     -0.1658331251      0.1921896846      0.0506825580
H       6.6257292791     -0.9043683831      1.2071693959     -0.0301635442     -0.2667104787     -0.1691861824      0.0357048166
H       5.8988269185     -2.4941288884      0.7297042868      0.2023191067      0.2439395151     -0.0269820779      0.0414976348
H       7.2466027881     -1.7866687845     -0.2390321646     -0.1816319851     -0.0140864092      0.2973033924      0.0534805509
N      -0.8901734915     -1.2956579622     -6.2818880740     -0.0781235039     -0.1094357921      0.5411270426     -0.8785354443
S       0.7101499288     -1.6225299855     -6.1456177647     -1.0087436444     -5.4579395515     -5.0480074031      1.5604849436
S      -1.5251859358     -0.4459357903     -7.5315074534      2.7631754859      6.1519600293      2.5366412661      1.5547786323
C       1.4838806748     -0.3489005321     -5.1730859436      0.7002024781      1.3753186715      0.1422982163      1.1527377732
C      -2.2069796883     -1.5831020041     -8.7197361002     -0.5036143777     -1.5720232128     -1.2014895372      1.1564159696
O       0.8846126050     -2.9380107910     -5.4406678501     -0.3510029303      2.4808551006      0.6044209953     -0.7338533629
O       1.3592791345     -1.6867014310     -7.5004915642     -0.1363682876      1.2084580597      2.1694202443     -0.7169140730
O      -0.4746294211      0.4035072289     -8.1920774495     -1.4207333390     -1.8332897199     -0.1622488958     -0.7281660372
O      -2.6309827178      0.4319100302     -7.0171985170      0.4021963264     -2.2635941919     -0.6479717949     -0.7408849220
F       2.8288433396     -0.6274672900     -5.0240468942     -1.0298940135      0.4889707071      0.1560199488     -0.4344804615
F       0.8871523618     -0.3031925217     -3.9303279166      0.4757224370      0.3670187627     -0.0748800034     -0.4705587743
F       1.3347705934      0.8746567032     -5.7970360644      0.3486506254     -0.8664121745      0.9517997548     -0.4230291632
F      -2.7287999478     -0.8803738143     -9.7887063375      0.3666419181     -0.7651605556      0.8486816499     -0.4286965411
F      -3.2110100471     -2.3236299120     -8.1256936386      0.5980339964      0.3427007023     -0.7145596430     -0.4337088269
F      -1.2169091012     -2.4346460801     -9.1709365023     -1.1103310115      0.6089878608      0.1932419141     -0.4224535754
