69
Properties=species:S:1:pos:R:3:forces:R:3:charge:R:1 energy=-378.21168398674126 homo_lumo=5.248926719870009 dipole="-1.6771457093945503 2.443833543278451 -1.793478695918323" free_energy=-378.21168398674126
N       1.0731243243      1.2792927749      0.5261312416     -0.0026604142     -0.0000514754     -0.0013651793     -0.4852300997
C      -0.0512324082      2.2846124848      0.3721700342     -0.0007091568      0.0026499597      0.0001322830     -0.0082792777
C       2.3160286978      2.0053045182      1.0167025877     -0.0009894355     -0.0035006813     -0.0007948650     -0.0577827066
C       0.6961880224      0.1845284072      1.5215346705     -0.0047798902     -0.0019496242     -0.0042330435     -0.1175729456
C       1.3396002946      0.6940321131     -0.8515637700     -0.0023783787      0.0015190785     -0.0019865191     -0.0059390825
C      -0.3249111162      3.0900959962      1.6323829751      0.0007522641     -0.0011058907      0.0032371303     -0.1730598851
C       2.0732676264      2.7752518056      2.3026735398      0.0013735101     -0.0001491137     -0.0019439742     -0.1812007748
C       0.9386892591      3.7843175781      2.1411507560      0.0009575493     -0.0008500178      0.0006006332     -0.1639293311
C      -0.3518499688     -0.7999305161      1.0366016203     -0.0052216251      0.0000999298     -0.0044671908     -0.2201229282
C       2.4631682432     -0.3378474382     -0.9229047362      0.0007362821      0.0040594682      0.0000245383     -0.2542559522
C      -0.8436622263     -1.6436268445      2.2154865843      0.0011702036     -0.0065161140     -0.0068257783     -0.1927655510
C       3.7690782895      0.1987892405     -1.5104340079      0.0009380194      0.0041386727      0.0016036270     -0.1775611994
C      -1.8957186448     -2.6703536434      1.8137991789     -0.0041286281     -0.0023511628     -0.0038318521     -0.1614125099
C       4.8520220270     -0.8746075842     -1.5849022547      0.0002803597      0.0036292557      0.0038877575     -0.1887383115
C      -2.3577412804     -3.5176602628      2.9984984465     -0.0014118758     -0.0030891277     -0.0030843849     -0.2079566660
C       6.1508046283     -0.3574343426     -2.1998209753      0.0018079850     -0.0004624498      0.0052353924     -0.2039844962
C      -3.4720955018     -4.4911991693      2.6263605401     -0.0015183248     -0.0037768371     -0.0004640134     -0.0651325904
C       7.2492169905     -1.4170891068     -2.2406094573     -0.0017979550     -0.0038545361      0.0052461831     -0.0666427276
H       0.2595573873      2.9526418822     -0.4475687758      0.0019251223      0.0050533651      0.0035677772      0.1228374046
H      -0.9371931786      1.7246487366      0.0427157139     -0.0014074426      0.0062969165     -0.0029216527      0.1408752922
H       3.0949289912      1.2474038792      1.1566176562     -0.0039648608     -0.0058055204      0.0016913365      0.2237403221
H       2.5990335840      2.6893106629      0.1995268605      0.0025215693     -0.0064860499     -0.0014276832      0.1162299124
H       1.6265475566     -0.3351232654      1.7819026153     -0.0049608095     -0.0039325812     -0.0044190713      0.2635511950
H       0.3511261552      0.7027406165      2.4231874675     -0.0037590952     -0.0030059728     -0.0029949061      0.1768778514
H       0.3771549794      0.2739728066     -1.1742254394     -0.0010784405     -0.0012980066     -0.0013855463      0.1337829128
H       1.5587799286      1.5607181129     -1.4962858438     -0.0050749641      0.0015881051     -0.0017267705      0.1144670023
H      -1.1046645734      3.8282926944      1.3795922496     -0.0021487691     -0.0019863674      0.0084616873      0.1070006857
H      -0.7543415944      2.4455186547      2.4168451664      0.0047012207     -0.0040447103      0.0027147317      0.1078987746
H       1.8787506566      2.0775053954      3.1314027568      0.0029458528      0.0006818678     -0.0002915639      0.1577935957
H       3.0191212865      3.2803384987      2.5581348728      0.0018712786     -0.0006214833     -0.0054517401      0.1113335497
H       0.7337626402      4.2940881191      3.0956827535      0.0032772382     -0.0005284611      0.0010152109      0.0910199644
H       1.2403634624      4.5642839752      1.4170746334     -0.0010608098     -0.0000869569     -0.0000448927      0.0829514364
H      -1.2177018523     -0.2879725740      0.5789610582     -0.0073378606      0.0003231328      0.0017475011      0.0813953951
H       0.0862534275     -1.4749724275      0.2834381162     -0.0078126188      0.0037047480     -0.0103527840      0.1247361601
H       2.1084996738     -1.1740164276     -1.5500678398      0.0034899486      0.0021860041      0.0004807695      0.1053261787
H       2.6540370003     -0.7935119352      0.0599016938      0.0000285455      0.0052055714      0.0003993596      0.2206827515
H      -1.2586388824     -0.9791077554      2.9962438402      0.0094228641     -0.0105212246     -0.0004909782      0.0736728423
H       0.0162125294     -2.1660596540      2.6623693486      0.0044059686     -0.0099029943     -0.0158779626      0.1776200706
H       4.1448131627      1.0407472089     -0.9021164171      0.0008293355      0.0045635124      0.0019584288      0.1010996551
H       3.5784328102      0.6033583733     -2.5230249645      0.0026876865      0.0046221054      0.0015748811      0.0647882610
H      -2.7678494259     -2.1590494458      1.3620255444     -0.0040694908      0.0018080724      0.0021968343      0.0677896271
H      -1.4764797484     -3.3342955282      1.0353044317     -0.0115406463     -0.0011772668     -0.0074942644      0.0926069621
H       5.0482477114     -1.2628830590     -0.5704462213     -0.0020058514      0.0037210425      0.0045288917      0.1475694863
H       4.4799637523     -1.7326147939     -2.1759451145     -0.0006671615      0.0029920863      0.0043555007      0.0840988261
H      -1.4904363968     -4.0718518309      3.3989768822     -0.0010280738     -0.0016985968     -0.0052250900      0.1055005451
H      -2.7025462295     -2.8504005640      3.8100346142     -0.0012833070     -0.0037498197     -0.0032906595      0.0810348133
H       5.9483052715      0.0104425214     -3.2229021459      0.0031020841      0.0009082431      0.0052331192      0.0747268780
H       6.5013027891      0.5156078780     -1.6189076745      0.0040278904     -0.0016080380      0.0062440632      0.0798805923
H      -3.7581492976     -5.1222532350      3.4813682979     -0.0055217399      0.0019168483      0.0029218585      0.0389169487
H      -3.1535832619     -5.1564456152      1.8076728979      0.0000320351     -0.0098240221      0.0053112210      0.0367317667
H      -4.3712379826     -3.9502569641      2.2891840957      0.0001482357     -0.0052043622     -0.0061220807      0.0260392855
H       7.4826511256     -1.7769799505     -1.2262872823     -0.0027321689     -0.0046035302      0.0045512567      0.0461084139
H       6.9349929668     -2.2871140268     -2.8390820252     -0.0032699160     -0.0017428492      0.0041640550      0.0340781202
H       8.1754721296     -1.0189599500     -2.6826673231      0.0005769783     -0.0054897805      0.0053104408      0.0338730563
N       3.6032454499     -2.6154382290      3.7735494665     -0.0111464774     -0.0059476003      0.0025572507     -0.8436122001
S       3.7997736860     -1.0440740086      3.9532573070      0.0051732354     -0.0070910591     -0.0018546649      1.6378104970
S       3.1182746255     -3.3679877567      2.4413800255     -0.0093009512     -0.0000802714     -0.0009758880      1.6232021463
C       2.3156133799     -0.6122385047      5.0429013595      0.0148662828      0.0050031055      0.0057972278      1.1728900506
C       4.7665115507     -3.9136983780      1.7035288495     -0.0039834485      0.0136828062     -0.0022344845      1.1831178922
O       4.9331583132     -0.7646962032      4.8179506088      0.0148367517     -0.0175132678     -0.0104375147     -0.7135687533
O       3.5970081821     -0.2084304771      2.7603094653      0.0033091541     -0.0076593598     -0.0002342032     -0.7968748087
O       2.5172895865     -2.5329399130      1.3951604680     -0.0126196350      0.0007388592      0.0043709662     -0.7880002831
O       2.4593031038     -4.6095678496      2.8121737793     -0.0041744491     -0.0058376612     -0.0048869963     -0.7193479053
F       2.2863957463      0.7365650909      5.2553336871      0.0198508095      0.0053378845     -0.0010038915     -0.4583847745
F       2.3707822200     -1.2291749627      6.2367844649      0.0227888141      0.0099746308      0.0091333113     -0.4266072603
F       1.1395976681     -0.9487980880      4.4421008933      0.0116765809      0.0036529474      0.0157049654     -0.4632772314
F       5.4165701007     -4.7570344279      2.5296023074      0.0055241962      0.0218830470     -0.0013444355     -0.4278304085
F       5.5643105106     -2.8404027965      1.4638195685     -0.0160339192      0.0216067972     -0.0037716970     -0.4533223263
F       4.5427317348     -4.5484744353      0.5245092539      0.0015427388      0.0115567810     -0.0007019680     -0.4432641347
