69
Properties=species:S:1:pos:R:3:forces:R:3:charge:R:1 energy=-377.62006714086294 homo_lumo=5.041435913891466 dipole="1.7484509480283914 2.6315126099297914 2.274562776011694" free_energy=-377.62006714086294
N      -0.9304200658      1.4430339534     -0.3924132479      0.1913197521      0.2123361688     -0.1022657952     -0.4910732734
C      -1.9214733042      1.8965694920     -1.4279026092     -0.8162251240      0.0915216525      0.1071967741     -0.0753806977
C      -0.4552365554      2.6389157025      0.3775534774     -0.2834033036      0.3127967272      0.4565279897     -0.0078497676
C      -1.5407169311      0.4393001543      0.5510870914     -0.1822167104     -0.5797035431     -0.1883723495     -0.0408016798
C       0.2325571819      0.8495795481     -1.1472881357      0.4627139399     -0.4544722128      0.3880957068     -0.0564215069
C      -3.0886664832      2.6826476264     -0.8517791180      0.5319713086      0.2839232413      0.0603096723     -0.1764334991
C      -1.5943212669      3.4416998301      0.9987222486      0.0554907914      0.0107487969     -0.4901500986     -0.1521369991
C      -2.5927006102      3.8938875390     -0.0658870985     -0.0283305254     -0.4442968482      0.2223270777     -0.1493885423
C      -1.8833469445     -0.9156849554     -0.0635057393     -0.0844664751      0.4621051668      0.5395773950     -0.2508212895
C       1.3576178004      0.2939281408     -0.2798781329     -0.1734455135      0.1513984579     -0.5690545975     -0.2108264469
C      -2.5968095221     -1.7702658173      0.9919008381      0.3031314511     -0.1795087705     -0.6283774250     -0.1487040876
C       2.4046003382     -0.3601660916     -1.1913659803     -0.0275850315      0.0407675477      0.7986122369     -0.1543822828
C      -2.8330154463     -3.1848134790      0.4566689084     -0.4209430376      0.3614205714      0.6873401635     -0.1979995076
C       3.5485599169     -0.9624118712     -0.3708955944     -0.0573721345      0.0086087536     -0.8709651041     -0.1575578295
C      -3.6741027469     -4.0239066613      1.4219700110      0.3153711174     -0.2135051312     -0.5754217388     -0.1944630757
C       4.5881354374     -1.6263709546     -1.2795633510      0.0624190730      0.0079364508      0.7370695950     -0.2000047304
C      -3.9332125204     -5.4142066876      0.8441343145     -0.1082379723      0.3138679402      0.3029180347     -0.0501941389
C       5.7303926127     -2.2325780057     -0.4666369053     -0.2446233724      0.1290791786     -0.3934937593     -0.0453726384
H      -1.3714505423      2.5147428277     -2.1415496871      0.2014130386      0.0625285973     -0.1796358849      0.1139213741
H      -2.2767424440      1.0077698428     -1.9436238893      0.2452028016     -0.0866445252     -0.1025557640      0.2845334994
H       0.2255705543      2.2882110909      1.1553660123      0.1899757086     -0.1223411102      0.0877086649      0.1356437601
H       0.1017189625      3.2666060617     -0.3239124759      0.1373625317      0.0973282761     -0.2092637247      0.1248997272
H      -0.8338612861      0.3078335383      1.3743028464      0.1712713595      0.0643879469      0.1804911666      0.1202044331
H      -2.4475495012      0.8903748560      0.9568435224     -0.1173828353      0.1199991190      0.0754998675      0.1736292785
H      -0.1739269520      0.0632549730     -1.7855079976     -0.1766454749     -0.0543176613     -0.1887032917      0.2400922573
H       0.6208301968      1.6412405717     -1.7930960359     -0.0076169987      0.2175748772     -0.1663400903      0.1195958621
H      -3.7019469240      3.0073476928     -1.6959602596     -0.2102681463     -0.0496989027     -0.2148809802      0.1198295716
H      -3.7122405362      2.0469653815     -0.2181792264     -0.2345067582     -0.1828979756      0.0980775773      0.0963815486
H      -2.1021253936      2.8529914725      1.7671610812     -0.0940156659     -0.1084399059      0.2550185010      0.0985474693
H      -1.1494013045      4.3121562455      1.4881385091      0.1454327789      0.1739017358      0.2266207719      0.1024092259
H      -3.4342885333      4.4010273195      0.4110430109     -0.2050789687      0.2422505697      0.0846651185      0.0840870153
H      -2.1077219412      4.6016097809     -0.7457598805      0.1110472826      0.2273633878     -0.1895754411      0.0821035432
H      -2.5352729208     -0.8022328222     -0.9319477928     -0.0572568137     -0.0795948536     -0.1739950756      0.2004735664
H      -0.9781917671     -1.4325162123     -0.3895620126      0.1767625858     -0.1404491505     -0.1641341885      0.1259570735
H       0.9772004567     -0.4559070453      0.4177031795     -0.0941371457     -0.2202026689      0.1899337038      0.1157306004
H       1.8300902373      1.0907751768      0.3020437647      0.1761889886      0.1525548969      0.1873649388      0.0892467955
H      -3.5549167300     -1.3039154957      1.2460438571     -0.2743749522      0.1036150907      0.1128218684      0.0666250315
H      -1.9908092074     -1.8104554941      1.9045814356      0.1133751767     -0.0099133099      0.3178986745      0.0569697145
H       2.8018097343      0.3885223080     -1.8845032624      0.1119534800      0.1603355000     -0.2385488647      0.0855443627
H       1.9253026648     -1.1453382260     -1.7843604140     -0.1158672556     -0.1763772678     -0.2095610839      0.1098585935
H      -3.3471523870     -3.1201184562     -0.5048006908     -0.0159324070     -0.0650305091     -0.2028585678      0.2107258269
H      -1.8677094719     -3.6730854700      0.2862949584      0.2488043652     -0.1505007800     -0.1231992782      0.0646332873
H       4.0273524946     -0.1744982984      0.2211056566      0.1425529449      0.1851791281      0.2062344472      0.0771554954
H       3.1440379732     -1.7045251102      0.3259160900     -0.0918841288     -0.1940675562      0.2240343256      0.0848245759
H      -3.1570447929     -4.1115260548      2.3847603257      0.0910495599      0.0287299185      0.3048846163      0.0566678286
H      -4.6304086309     -3.5199647036      1.6006611204     -0.2382509403      0.1672822772      0.0839625073      0.0678284137
H       4.1045764879     -2.4110323729     -1.8704513765     -0.1436575053     -0.1503228276     -0.2094543502      0.0904066519
H       4.9900024639     -0.8825653262     -1.9756834495      0.0551763210      0.1782991144     -0.2328881266      0.0827032041
H      -4.5634312061     -5.9905074590      1.5221284611     -0.1781253719     -0.2878042750      0.1779519247      0.0124480424
H      -2.9932279435     -5.9490910556      0.7013438041      0.2673624381     -0.2036471412     -0.0782669822      0.0161016201
H      -4.4353077778     -5.3336312575     -0.1198604073     -0.0983576764     -0.0240021053     -0.2760506266      0.0782019881
H       6.2378804737     -1.4616065083      0.1149789318      0.1888084969      0.1990473492      0.2046014739      0.0256000799
H       5.3510186416     -2.9914476528      0.2189805461     -0.0694152208     -0.2440703229      0.2308737080      0.0298009121
H       6.4556562993     -2.6985151624     -1.1336611415      0.3030165021     -0.1842484124     -0.1004708353      0.0355524393
N      -2.8599222105     -2.2932184891     -2.9518668266     -0.1609887965     -0.0501125664     -0.2074908115     -0.8802184953
S      -4.0075047324     -3.3449665417     -3.4149872232      0.1296647057     -0.0322392222      0.4399152747      1.6256906647
S      -2.5784987846     -1.1005439347     -3.9633911379      0.4413581150     -0.0255337877      0.3409944576      1.6498987606
C      -3.2692832312     -4.3864818813     -4.7947396101     -0.1733341368      0.5958122614      0.6282147297      1.1977187286
C      -3.9793016480      0.1489934959     -3.7790623021      0.5943653583     -0.6663219604      0.0399312173      1.1836372571
O      -4.1682029140     -4.2667947003     -2.3186702472      0.0378290262     -0.8156200420      0.7484090912     -0.7717884930
O      -5.1842390345     -2.7254343430     -3.9696670323     -0.8348888350      0.5058641283     -0.6591653998     -0.7328920560
O      -2.5235838920     -1.4171289558     -5.3662283857     -0.1915868828     -0.2086928428     -1.0601611312     -0.7291931177
O      -1.4623764965     -0.3527863448     -3.3967942817      0.6164545426      0.4855570980      0.3608282118     -0.8140078867
F      -3.6521855625     -5.6430136888     -4.6273759268     -0.4825387879     -1.3645084384      0.1751254743     -0.4368043103
F      -1.9467029371     -4.3376253361     -4.7417699072      1.4693642162     -0.0180908958      0.0180496717     -0.4388740141
F      -3.6776983403     -3.9690119180     -5.9749185531     -0.4607135785      0.4082485946     -1.3054789898     -0.4266435628
F      -3.4854268501      1.3771878632     -3.9749586788      0.4634819674      1.2457329562     -0.4119842439     -0.4629606289
F      -4.4213352019      0.1111203886     -2.5165606687     -0.6269197435     -0.0295677041      1.2844075379     -0.4630802190
F      -4.9850055049     -0.0313925683     -4.5994035841     -0.9710974982     -0.1913582505     -0.8617295676     -0.4196053037
