23
Properties=species:S:1:pos:R:3:forces:R:3:charge:R:1 energy=-132.65497830964125 homo_lumo=0.024952735721184335 dipole="-2.052307684565453 2.8939744818891278 -0.5415026961852247" free_energy=-132.65497830964125
N      -0.7258627225      0.0335152937      0.0164316378     -0.0238409340      0.0097400667      0.1300409417     -0.5750483380
C      -0.0555428443      1.2257217392      0.0074695950      1.1985332994      0.0447869363      0.0050153557      0.2436594325
C      -0.0393068468     -1.1487360770      0.0007562539      1.2298226004      0.1102496112     -0.0100904495      0.2390962467
C      -2.1899163681      0.0213588741     -0.0004888205     -0.7388617150      0.0101238251      0.0080052313      0.0649455258
C       1.3419963654      1.2537563541      0.0037876757     -0.9054798859     -0.5140596379     -0.0351267577     -0.0247891116
C       1.3567101450     -1.1546712088     -0.0051702296     -0.8448021381      0.4113720004     -0.0210309915     -0.0089013936
C       2.0499988429      0.0533995574     -0.0002029409     -0.0893709649      0.0984453294      0.0015117959      0.0283738687
H      -0.5992125687      2.1629005257      0.0013560386     -0.4845762556     -0.1124965600      0.0272852931      0.0949867342
H      -0.5687776790     -2.0944192372     -0.0091930514     -0.4165049715      0.0333431685      0.0317408293      0.1114484885
H      -2.5836605836     -0.8774680816      0.5221318668      0.3495632784      0.3158503493     -0.2234132559      0.0950107637
H      -2.5984225744      0.9154897246      0.5183241953      0.3351741844     -0.3008101572     -0.2154915903      0.0845292780
H      -2.5484998019      0.0154074130     -1.0512137449      0.1186952942      0.0004796771      0.2939406604      0.0901868009
H       1.8708051131      2.1979718564      0.0002420614     -0.0338630584      0.3186344829      0.0081269294      0.0603353985
H       1.8953927694     -2.0879193091     -0.0182405521      0.2072295730     -0.7162536295      0.0447671641      0.1851166394
H       3.1325827635      0.0582868375     -0.0045567922      0.2996280198     -0.0728687864      0.0288343045      0.0651598219
S       3.2179117331     -4.8784475411      0.6309749099     -5.7960530240      7.8901013260      2.1900969874      1.6146650488
O       3.9559566534     -3.5320195178      0.6621090727      1.1505693114     -2.6011600940     -0.6109640885     -0.7525248234
O       2.0902154178     -4.6397318519     -0.3837385854      1.9272857173     -2.0670735716     -0.1381808395     -0.7571261169
O       2.4783248898     -4.9037319070      1.9766205267      1.9512440373     -2.1255966771     -1.3006166289     -0.7186270417
C       4.2633536391     -6.3176256500      0.2876906500      0.8128141667     -1.0990470314     -0.2561313942      1.1301985067
F       5.2238399251     -6.4342188706      1.2737567691     -0.7487026738     -0.0980204618     -0.9839023847     -0.4223502783
F       4.8785913677     -6.1549564684     -0.9387925170     -0.3815340325     -0.3777337732      1.0582977403     -0.4250472712
F       3.4832435152     -7.4575373830      0.2647778558      0.8830301713      0.8419936071     -0.0327148526     -0.4232981794
