64
Properties=species:S:1:pos:R:3:forces:R:3:charge:R:1 energy=-346.143132101409 homo_lumo=5.281490581808835 dipole="0.7379664347756775 0.239812191724594 3.6613889943293962" free_energy=-346.143132101409
N       1.2000508972     -0.5628020542     -0.5141637718      0.0003258674     -0.0034116516     -0.0019079346     -0.4817589723
C       2.3050166921     -0.6551161636     -1.5575297953     -0.0070944825     -0.0076271976     -0.0011083821     -0.0469155697
C       1.7424731948     -1.4453782643      0.5896259844      0.0030762139      0.0005270115     -0.0110907066      0.0046225018
C       1.0047645103      0.8563172723     -0.0390265606      0.0023847041     -0.0009661851     -0.0045034606     -0.0084684847
C      -0.0881357039     -1.1460613133     -1.0784487169     -0.0029092967     -0.0046583063      0.0017094279     -0.1118561464
C       2.7168049706     -2.1246324482     -1.5527503160     -0.0073741519      0.0009612598      0.0077174823     -0.1659024179
C       2.3671205871     -2.6426525619     -0.1314064980      0.0067211814      0.0011235506     -0.0006215495     -0.1632274012
C       0.4963346959      1.7934547204     -1.1181967427      0.0003566320     -0.0051599814     -0.0127196280     -0.2493124984
C      -1.2876440352     -1.0646876581     -0.1507364120      0.0043700894     -0.0023028075      0.0071400524     -0.2243864134
C       0.4910349493      3.2436123442     -0.6342983886      0.0000077887      0.0047744503      0.0132957380     -0.2044384707
C      -2.4323805016     -1.9232618032     -0.6998306188      0.0015217870     -0.0071188355     -0.0129444291     -0.2248237061
C       0.0022870409      4.1864126287     -1.7301811442     -0.0075854698      0.0011409335     -0.0176283489     -0.0734405790
C      -3.6793326193     -1.8450433085      0.1724347739     -0.0046365176      0.0056371958      0.0149037379     -0.0685332692
H       3.1107147990      0.0023728666     -1.1946772266     -0.0004053350     -0.0116664871     -0.0024514619      0.1105297392
H       1.9353651378     -0.3036815406     -2.5255964032      0.0046865004     -0.0099036777      0.0018597768      0.2341442495
H       0.9357356704     -1.6929247770      1.2901786956      0.0133505227      0.0016942792     -0.0022247474      0.1322381016
H       2.4999772164     -0.8440199829      1.1148886764      0.0055456429     -0.0085569015     -0.0068880931      0.1210329362
H       0.3160967932      0.8156991130      0.8190417796      0.0050135986     -0.0073643640      0.0012306459      0.1363514577
H       1.9892084864      1.1856055546      0.3313418073      0.0082987326     -0.0019177342     -0.0023193149      0.1180432587
H      -0.2762808271     -0.6290407249     -2.0253471912     -0.0016611197      0.0014066744     -0.0008672469      0.2526544951
H       0.1374853804     -2.1890773872     -1.3337567883     -0.0005877776     -0.0089437622     -0.0010782716      0.2079903620
H       2.1685970805     -2.6726422748     -2.3317716053     -0.0006442325     -0.0071799894      0.0112746530      0.1515685731
H       3.7866406566     -2.2184511903     -1.7849622862      0.0029209744      0.0038187330      0.0115935992      0.0986109689
H       3.2515744678     -2.9922159755      0.4198784584      0.0016250516      0.0075938877     -0.0018171360      0.1021283731
H       1.6631988116     -3.4862273982     -0.1811749185      0.0069902074      0.0030636786      0.0016965199      0.0930233493
H       1.1257051821      1.7197927352     -2.0189696955     -0.0038227857      0.0004575937      0.0003465259      0.1706054995
H      -0.5225122356      1.5123924291     -1.4283952443      0.0014020515     -0.0012231963      0.0042953623      0.1451536312
H      -1.0405571127     -1.4160909545      0.8669948552      0.0038458007     -0.0023696587     -0.0019224478      0.0916866114
H      -1.6365896734     -0.0220129926     -0.0576125656      0.0082166467      0.0032257620      0.0052777988      0.1070143588
H       1.5124155704      3.5303500482     -0.3225609650     -0.0065548037      0.0028137168     -0.0012899031      0.0817778890
H      -0.1512605660      3.3368537755      0.2610767299      0.0059996310      0.0026981931     -0.0084449759      0.0820239805
H      -2.6693645721     -1.5960437685     -1.7238581609     -0.0031370266     -0.0009431974      0.0088417810      0.1519615353
H      -2.0920025209     -2.9706329575     -0.7801531932     -0.0057688248      0.0010067622      0.0020287588      0.0933276013
H      -1.0220837041      3.9290502365     -2.0422812498      0.0015544357      0.0045249872      0.0054694839      0.0500624233
H       0.6457736111      4.1146520267     -2.6210709683     -0.0072710062      0.0059607185      0.0038225928      0.0562883615
H       0.0043237894      5.2312227419     -1.3876782684     -0.0022009325      0.0104617103      0.0005138350      0.0435023437
H      -4.0583433112     -0.8120131501      0.2282508589      0.0004506863     -0.0042700251      0.0053070999      0.0376149888
H      -3.4729315604     -2.1871482738      1.1996411762     -0.0032747480      0.0015880905      0.0007000450      0.0271475977
H      -4.4823929749     -2.4742730699     -0.2388228213     -0.0038403658      0.0041632122      0.0072776533      0.0528431130
P       0.2035596720     -0.9982498265     -5.5895777226     -0.0009635475     -0.0003664751      0.0146724465      1.7245658313
F       1.5529505429     -1.7892884936     -6.1464318836      0.0115926918      0.0063867471     -0.0050669142     -0.5176812622
F       0.7116666027     -1.3053748770     -3.9932122071     -0.0092547009     -0.0033796172     -0.0006559872     -0.5488884618
F      -0.3444120202     -0.6605987497     -7.1134387537     -0.0065050075     -0.0010058209     -0.0019553171     -0.5095316911
C       1.2823685390      0.6753751243     -5.6218331619      0.0115877844     -0.0065666755     -0.0036844560      0.4947762338
C      -0.6824596723     -2.7774028336     -5.6818952366      0.0055957474      0.0096399446      0.0084300624      0.5349140375
C      -1.3680969715     -0.0716685071     -4.7408725645     -0.0077356706      0.0033168916     -0.0170042569      0.5478719648
C       2.5857015164      0.6914829213     -6.4805927835      0.0009431076     -0.0030769299      0.0235613081      1.3763571301
C      -0.3543007817     -3.8274278212     -4.5796337268      0.0048719255     -0.0037144523      0.0191505445      1.3665194842
C      -2.5350256599      0.5280379044     -5.5798904913      0.0188176380     -0.0031648786      0.0039341674      1.3987681931
F       1.7298700198      1.0548518897     -4.3523556274     -0.0013666375     -0.0010347585      0.0038956353     -0.4778175035
F       0.5330579075      1.7220485377     -6.0973831502     -0.0264289761     -0.0009603743     -0.0082607347     -0.4417382665
F      -0.3102712791     -3.3781290412     -6.8623352014      0.0120116953      0.0095288756     -0.0220001129     -0.4351781617
F      -2.0575463622     -2.7089660683     -5.7117910921     -0.0101356584      0.0193607292     -0.0051511171     -0.4489611800
F      -0.9167013290      0.9857069941     -3.9595476545      0.0089970432      0.0106999022      0.0147945137     -0.4696884516
F      -1.9755439630     -0.9357142383     -3.8449895225     -0.0026432845     -0.0112636674      0.0161407866     -0.4699220355
F       3.0777510125      1.9679047427     -6.5043670404      0.0009065897      0.0009297424     -0.0064501676     -0.4551442355
F       2.3598999447      0.3142056857     -7.7526223601     -0.0100900805      0.0025240240     -0.0223117727     -0.4377371042
F       3.5538430060     -0.0924262902     -5.9430613937     -0.0072572386      0.0086539506     -0.0050711187     -0.4494071639
F      -0.9374540112     -5.0171942765     -4.8891777832      0.0124184813      0.0021563121     -0.0031873766     -0.4471943326
F       0.9775577967     -4.0416172886     -4.4537073624      0.0017947839     -0.0158901554      0.0106510031     -0.4546349866
F      -0.8378148063     -3.4581192832     -3.3577646789      0.0120967227     -0.0121055974      0.0016189778     -0.4728155757
F      -3.4642301087      1.0502705307     -4.7167811852     -0.0168685160      0.0087751796     -0.0134115980     -0.4592683680
F      -3.1541447705     -0.4016481705     -6.3311501538     -0.0150261218      0.0024887337     -0.0181783151     -0.4391398302
F      -2.1158139109      1.5279532178     -6.3809482174     -0.0072546407      0.0050099276     -0.0089347329     -0.4399086368
