64
Properties=species:S:1:pos:R:3:forces:R:3:charge:R:1 energy=-346.2393687095707 homo_lumo=5.4456551287064645 dipole="0.27928077541603746 3.5129081255122605 1.1718660631077293" free_energy=-346.2393687095707
N       0.9673704145     -1.7469159100     -0.4340110245     -0.0039763445      0.0032005968      0.0036286538     -0.4818838386
C       1.4445695456     -1.7614500366     -1.8879524435      0.0051439863     -0.0029691973      0.0006469458     -0.0394745459
C       1.9381633512     -2.6811169013      0.2700198995      0.0056547777     -0.0018215856      0.0018739559     -0.0614881039
C       1.0956076978     -0.3571304675      0.1519920047     -0.0060429358     -0.0021258980     -0.0072454736     -0.0270716457
C      -0.4480261932     -2.2810422057     -0.3454164256      0.0018529812      0.0022867600      0.0017706632     -0.0939945751
C       2.9255843141     -2.1757914383     -1.8662340611      0.0026255021     -0.0037120323     -0.0059668538     -0.1631498569
C       3.2798756998     -2.4142242804     -0.3850276697      0.0028019954      0.0089294757      0.0049742841     -0.1491812593
C       0.1016094786      0.6601012819     -0.3809657766     -0.0025347016     -0.0013585045      0.0008978703     -0.2178806478
C      -1.0277090986     -2.3290693108      1.0560630746      0.0037173565      0.0033572983      0.0039057017     -0.2177744582
C       0.4219150426      2.0604957537      0.1473738550      0.0021014981      0.0009058178      0.0097784268     -0.2042690063
C      -2.3542048487     -3.0966518580      1.0273205870     -0.0101165501      0.0015894680     -0.0102986954     -0.2213589081
C      -0.5761133198      3.0983077240     -0.3577872193     -0.0059970520      0.0073079852     -0.0033666042     -0.0713533183
C      -2.9566230228     -3.2596070255      2.4184333027      0.0001566294      0.0014658954      0.0099969240     -0.0700696197
H       1.2591667329     -0.7690992135     -2.3138664281     -0.0003375254      0.0074357081     -0.0053809092      0.1189878000
H       0.8316160633     -2.4997186457     -2.4132197793      0.0020428853     -0.0039990583     -0.0018633248      0.2218341415
H       1.6010153908     -3.6982527714      0.0459130294     -0.0009782971     -0.0040957098      0.0034979272      0.2711820124
H       1.8990230833     -2.4982420144      1.3505501764      0.0050825729     -0.0041905259      0.0043741436      0.0946903764
H       0.9845212541     -0.4668488810      1.2410677329      0.0021038152      0.0029886055      0.0034114416      0.1390987140
H       2.1271282092     -0.0330833166     -0.0529505919      0.0013653386     -0.0013182788     -0.0009079677      0.1590939201
H      -1.0627562598     -1.6637852918     -1.0175688015      0.0011694485     -0.0041156871     -0.0028694330      0.1309463531
H      -0.3988610635     -3.2939763289     -0.7660954206      0.0005129511     -0.0030165927     -0.0017906306      0.2620388900
H       3.0345565892     -3.1098795711     -2.4350550413     -0.0014849926      0.0002515332      0.0044218706      0.1461429307
H       3.5714231668     -1.4150604811     -2.3258429576      0.0040521385      0.0035772849      0.0025919072      0.0751426259
H       3.7811614964     -1.5411679197      0.0619270119      0.0009844499      0.0055930606     -0.0019028561      0.0725776612
H       3.9411381270     -3.2823544442     -0.2532810713      0.0054022314     -0.0004867820     -0.0009461273      0.1165687949
H       0.1148018230      0.6838713971     -1.4840290338     -0.0024192312      0.0000913940      0.0009522119      0.1138049202
H      -0.9232767901      0.3885331509     -0.0788420151      0.0000010008     -0.0007343167     -0.0011161199      0.1280432443
H      -0.3372096574     -2.8532769297      1.7370938738      0.0023732683     -0.0041797766     -0.0028849607      0.1303514423
H      -1.1937394157     -1.3160880159      1.4643600006      0.0044490080     -0.0055596035      0.0011012720      0.0906772924
H       1.4449504372      2.3424563681     -0.1607416660     -0.0027180678      0.0051142582      0.0025308378      0.0910601825
H       0.4195915900      2.0445842390      1.2524794855      0.0001718572      0.0066902467     -0.0048938438      0.0943866711
H      -3.0660829262     -2.5736956998      0.3631057334      0.0010028714     -0.0017419471      0.0109526043      0.0842592683
H      -2.1747797202     -4.0882244785      0.5799965296     -0.0086114263      0.0000571859      0.0044684693      0.1539278197
H      -1.6002912959      2.8469767146     -0.0396023912     -0.0001568900      0.0063737943      0.0026151489      0.0431763561
H      -0.5684063565      3.1466577348     -1.4584284912     -0.0034798711      0.0067051587      0.0066921470      0.0427802747
H      -0.3405963949      4.1019422816      0.0253593465      0.0098521556     -0.0062894949      0.0083280499      0.0511533160
H      -3.1691556722     -2.2834090918      2.8839848108      0.0052154005      0.0022019195      0.0031150882      0.0247355493
H      -2.2654109451     -3.8098972293      3.0765126378     -0.0051270146      0.0028624323      0.0054515593      0.0435328978
H      -3.8984825625     -3.8260983015      2.3756114960      0.0039196431      0.0066028466     -0.0042598834      0.0486763656
P       0.4133847299     -6.3002434994     -1.8956317461      0.0071387498      0.0187233477      0.0033887780      1.7161023146
F      -0.7992626539     -5.5705271585     -0.9738670952      0.0056916132      0.0057554794     -0.0073760413     -0.5474697538
F       1.1672964692     -4.7715861495     -1.9929012639     -0.0128947935      0.0012437946     -0.0016158113     -0.5506821731
F      -0.2945516540     -7.7930465868     -1.7995391739     -0.0041705576      0.0097491463     -0.0087255283     -0.5105722085
C       1.3315601426     -6.6761649887     -0.1661077633     -0.0096017932     -0.0000478973     -0.0120009038      0.5052425827
C      -0.7725493984     -5.9013470960     -3.4467665123      0.0002281731      0.0001957200      0.0127564018      0.5354193445
C       1.9531824140     -6.9590559238     -2.9874562248     -0.0033918783     -0.0125136453      0.0020228593      0.5545459059
C       0.4768089996     -6.6505503328      1.1436007571      0.0059835051      0.0079469769     -0.0117300579      1.3814279440
C      -0.8772150899     -4.4469466957     -3.9897780144      0.0046569644      0.0240413247     -0.0037684403      1.3646457057
C       2.0433104524     -8.4411162507     -3.4720406107      0.0041015891     -0.0043349796      0.0080878115      1.3828087336
F       2.3651737913     -5.7812410083      0.1035272340      0.0119785701     -0.0167913402     -0.0002384885     -0.4658277993
F       1.8891588679     -7.9273933833     -0.1905572553     -0.0112649646     -0.0070145112      0.0023054444     -0.4368918116
F      -2.0631565611     -6.2285624672     -3.0855967320      0.0061823375     -0.0053865175     -0.0122516815     -0.4378501480
F      -0.4801684721     -6.6672266519     -4.5485631052      0.0061930133      0.0052662028      0.0053586800     -0.4437998575
F       3.1232000550     -6.7394264914     -2.2837179629     -0.0085433849     -0.0122086263     -0.0031296865     -0.4514580197
F       2.0531452583     -6.1854242626     -4.1254510776      0.0045797165     -0.0019783332      0.0027563276     -0.4491239282
F       1.2218401533     -7.1432888980      2.1732878587      0.0004956196     -0.0059820048     -0.0037134669     -0.4498037896
F      -0.6426848327     -7.3886030058      1.0518143321      0.0010392094     -0.0079040011     -0.0083331309     -0.4368866641
F       0.1334696758     -5.3730051708      1.4950637917     -0.0088127396     -0.0135601964     -0.0047147613     -0.4777445127
F      -1.7736374932     -4.3965798858     -5.0088265320     -0.0041609877     -0.0087059116     -0.0042200328     -0.4438492178
F      -1.3156755806     -3.5778988794     -3.0305055423      0.0014379353     -0.0124300864     -0.0069117598     -0.4753541039
F       0.3043871203     -3.9768887893     -4.4622545165     -0.0217970442     -0.0102039557      0.0063006746     -0.4562682663
F       3.1680804231     -8.5828975592     -4.2348109563      0.0058196954      0.0025102441      0.0037922083     -0.4526581185
F       0.9863485888     -8.7994696251     -4.2293824805      0.0061668089      0.0002324766     -0.0034960312     -0.4418255858
F       2.1411311873     -9.3036391586     -2.4375337640     -0.0068302200      0.0095235588     -0.0008277843     -0.4420466091
