37
Properties=species:S:1:pos:R:3:forces:R:3:charge:R:1 energy=-202.70444634056742 homo_lumo=0.09307570212298233 dipole="2.880481589642924 -3.8959945880185383 -1.084841919807316" free_energy=-202.70444634056742
C       2.7041248225      0.3707467654      1.5193292990      0.3184792080      0.2565195470      0.6988443599     -0.1403276909
C       1.6461313258      1.3049765698      0.9519686467      1.6580315564      1.6103272355      0.3718787961     -0.0011128831
H       1.3417284507     -0.8388836530     -0.9119865156     -0.4176750617      0.4040045837      0.3432210342      0.1347092888
H       0.3997222309     -1.6776623491      0.3665354565     -0.1321924487      0.6022514006     -0.1792925303      0.1325408616
H       3.1778917567     -1.3909263630      0.3295522018     -0.3738792506     -0.0328332988      0.2023735457      0.0941431258
H       2.1906755952     -1.7126408385      1.8119835384      0.1581990023      0.1095035677     -0.3348382475      0.0848944408
H       2.6540480136      0.3664767574      2.6304378831      0.1796781610      0.0582583976     -0.3232892896      0.0915142021
H       3.7237684133      0.6839688013      1.2042114233     -0.3811189861      0.0591830664      0.2389186094      0.1008847779
H       1.3773947262      2.0963751341      1.6893882139     -0.3479281390     -0.2939704950     -0.4577820700      0.1423325675
H       2.0963300678      1.8205852302      0.0708154750     -0.6455906025     -0.3064840214      0.0522095462      0.1381029891
H      -1.2142806873     -0.4357304524      1.5235504657      0.3829934062      0.3070771183     -0.2149087284      0.1113066305
C      -0.4227687333      0.3181796757      1.7225019641     -0.9750177605     -0.1772212714      1.0970212099      0.0015729117
H       0.1365549280     -0.0362792089      2.6165710757      0.0998029177      0.1694263723     -0.5234999669      0.1155314579
H      -0.9123557903      1.2821246568      1.9846359497      0.2805933157     -0.1492673893     -0.2656315677      0.1495193497
C      -0.2201134124      1.1613660361     -0.5898890126     -1.5923615351      1.0709385128     -1.0984894375     -0.0433474969
H      -0.3616598015      2.2378730651     -0.3368098671      0.2221346314     -0.4008339230      0.3507749871      0.1898835489
H       0.4211645377      1.1550778356     -1.5008122775      0.1266480648     -0.3056569985      0.5631412893      0.1177322789
H      -2.3266598800      0.6904091650     -0.1170389219      0.1287024930      0.1708687041     -0.1846463988      0.1628153647
H      -2.9815195224     -2.1220300575     -2.6188203568     -0.1333547648      0.3047765168      0.0566200976      0.0515798694
C      -1.6382226934     -0.7805691149     -1.5702397531     -0.2163658611      0.1036552123      0.0434680027     -0.2382764432
H      -0.8292201109     -0.8879111170     -2.3244758653     -0.0503705500     -0.0449340259      0.2416523286      0.0844591518
H      -1.4925745104     -1.5291137756     -0.7676796097      0.2003521559      0.0330312457     -0.1618252053      0.1057714622
C      -2.9792453741     -1.0796354381     -2.2366066154     -0.0916858274     -0.1757134901     -0.0966426128     -0.0865088628
H      -3.1503017426     -0.3893466266     -3.0897993613     -0.0617230080     -0.2074683837      0.2596487687      0.0504343229
N       0.4774852965      0.4832566773      0.5510133135     -0.2608776942      0.1995235133     -0.0816103482     -0.5541436927
C       1.0758017004     -0.8186088199      0.1693768037      0.6237824732     -1.9469593030     -0.8060282257      0.0013304519
C       2.3595596222     -1.0010932191      0.9738723073      0.2091278132     -0.7235305845      0.2696130267     -0.1270058753
H      -3.8065704209     -0.9684215976     -1.5032218475      0.1677317962     -0.0104257912     -0.3092320465      0.0572486979
C      -1.6255953992      0.6329837880     -0.9739739590      0.5105577018     -0.3072249781      0.0852805445     -0.2266216511
H      -2.0256526361      1.3336531031     -1.7404014438      0.2009393572     -0.0073718237      0.2791466478      0.1497236486
C      -3.6997181550      3.4145422792      0.8481658593     -0.2055180609     -1.2995171791     -0.5962103589     -0.2452362597
C      -3.3646112127      4.7123093730      1.5122544714     -0.2252385969      0.3078073113     -0.1314304378      0.8632350589
O      -3.9864421348      5.7220757313      1.2254344688     -2.8340841921      2.1916460431     -1.9785157275     -0.7589147157
O      -2.4715526026      4.7661642714      2.3422319398      3.6395250012     -1.5626186957      2.7233611379     -0.7760584301
H      -4.7491864443      3.1367349935      1.0799556312      0.2028861640      0.0072978082     -0.2182315771      0.0253957294
H      -3.5819722300      3.5145614070     -0.2512957773     -0.1819299611     -0.0815255834      0.1709931922      0.0159275094
H      -3.0279828968      2.6086329947      1.2101870736     -0.1832529184      0.0674610790     -0.0860623481      0.0249643030
