38
Properties=species:S:1:pos:R:3:forces:R:3:charge:R:1 energy=-208.25594401715927 homo_lumo=5.419354506893757 dipole="1.1374512294999597 2.2982677657202193 1.9722760895945588" free_energy=-208.25594401715927
N      -0.8227063860      0.1542275114     -0.1942317179      0.0056582235     -0.0036019526     -0.0055301169     -0.4800406389
C      -1.9371921889      0.0700820173     -1.2271856452     -0.0091234101     -0.0002032986     -0.0001995985     -0.0603805571
C      -1.6135711099      0.2051042792      1.0943778386     -0.0037431603     -0.0059313916      0.0045127309      0.0060813814
C      -3.0101141712      1.0354176507     -0.7363806196      0.0054351862      0.0111674141      0.0061016866     -0.1451553160
C      -2.8132832487      1.1095001562      0.8017769872     -0.0012996562      0.0051117243     -0.0030028264     -0.1581162520
C      -0.0322383593      1.4247319440     -0.4085404776     -0.0049798329     -0.0002735217     -0.0074077377     -0.0240572766
C       0.0546931785     -1.0838955922     -0.2224295705     -0.0119779703      0.0013386278      0.0105797661     -0.0393600233
C       1.1319757210      1.6428450959      0.5447743570     -0.0046873280     -0.0127898279      0.0128140645     -0.2545402230
C       0.9072585481     -1.2211056985     -1.4709367654     -0.0075259068      0.0094992606     -0.0073084903     -0.2630417569
C       1.8055384278      2.9848383596      0.2535491684     -0.0106734724     -0.0005204751     -0.0116644762     -0.0689052860
C       1.5125019229     -2.6255771569     -1.5119543221      0.0075374905     -0.0026051669      0.0134101990     -0.0703790036
H      -1.5393284545      0.2611945058     -2.2296035922     -0.0057632701     -0.0043269849      0.0102027938      0.1275995810
H      -2.3011547095     -0.9637721825     -1.2035879874      0.0000224747      0.0051113257      0.0016763716      0.2465635076
H      -1.9287908663     -0.8316740656      1.2824189791     -0.0003562056      0.0076017031     -0.0020994863      0.1411134363
H      -0.9649626721      0.5372120047      1.9145501391     -0.0143851168     -0.0085054025     -0.0031551124      0.1211210589
H      -2.9158528164      2.0310859767     -1.1956372811      0.0019609434     -0.0065024574      0.0079073382      0.0708776686
H      -3.9938688914      0.6342161579     -1.0184977185      0.0036345273      0.0144053733      0.0076494086      0.1249659331
H      -3.6935905457      0.7494431820      1.3535414627      0.0109699474      0.0094848709     -0.0092012272      0.1072896242
H      -2.6237083056      2.1421679198      1.1315263361      0.0003113976     -0.0064809239      0.0031650893      0.0793319075
H       0.3237754740      1.3826977105     -1.4487315923     -0.0010215362      0.0004624996      0.0098697065      0.1505079987
H      -0.7503638091      2.2549293859     -0.3353344462      0.0061256441     -0.0020396828     -0.0000204499      0.1685159278
H       0.6633796240     -1.0586191395      0.6957723950     -0.0058964198     -0.0025641406     -0.0131613281      0.1097725441
H      -0.6467869148     -1.9316166053     -0.1810256372      0.0094027180      0.0086115382     -0.0070387465      0.1976007699
H       0.7867350191      1.6304354287      1.5923842899      0.0034967785      0.0011601018     -0.0107766511      0.1065577611
H       1.8687745748      0.8312953494      0.4348352900     -0.0070418773      0.0088480739      0.0042879130      0.1240352929
H       1.7055478118     -0.4582408881     -1.4938079122     -0.0055343352     -0.0042693612     -0.0106157697      0.0779070588
H       0.2674998407     -1.1075311530     -2.3617550186      0.0110357271     -0.0117708315      0.0046124353      0.1778239671
H       2.1819833419      3.0248443852     -0.7805119127     -0.0052140386     -0.0054271660      0.0026960745      0.0509240108
H       1.1045121286      3.8227440358      0.3921351726     -0.0001496373     -0.0061355833     -0.0038266098      0.0413792772
H       2.6588085243      3.1447070595      0.9278401034      0.0026297306     -0.0046843927      0.0035432658      0.0557896985
H       2.1158947135     -2.8382331009     -0.6139488942      0.0063172628      0.0059016574     -0.0049573240      0.0151817168
H       0.7031015625     -3.3672637037     -1.5862737559      0.0178081328      0.0048192094      0.0015969790      0.0955925177
H       2.1589955717     -2.7358639104     -2.3939167317      0.0127014206      0.0058998009     -0.0020589610      0.0406967430
B      -2.3566762587     -2.7690114750     -2.8515992986     -0.0075216843     -0.0196866362     -0.0081502351      1.3911857147
F      -1.7580708524     -3.1196927317     -1.5756275893     -0.0018526921     -0.0027388602      0.0200789820     -0.5884813115
F      -1.4562620348     -1.8767086054     -3.5251455777      0.0248554908      0.0011928584     -0.0112696549     -0.5784658281
F      -3.5673583377     -2.0658000247     -2.5707850169     -0.0119603190      0.0173528761     -0.0081052533     -0.5671932620
F      -2.5818147669     -3.9171427450     -3.6077832725     -0.0091952267     -0.0069108580      0.0048452503     -0.5302983627
